# vtk DataFile Version 4.2
vtk output
ASCII
DATASET UNSTRUCTURED_GRID
POINTS 9350 float
-22.3239 -47.9527 2 -22.3239 -47.9527 0 -82.3239 -47.9527 2 
-82.3239 -47.9527 0 -22.3239 52.0473 2 -22.3239 52.0473 0 
-82.3239 52.0473 2 -82.3239 52.0473 0 -32.0878 -7.10543e-15 2 
-32.0878 -7.10543e-15 0 -30.0878 -7.10543e-15 2 -30.0878 -7.10543e-15 0 
-43.4958 21.2838 2 -43.4958 21.2838 0 -45.4958 21.2838 2 
-45.4958 21.2838 0 -24.4239 -47.9527 0 -26.6439 -47.9527 0 
-29.1039 -47.9527 0 -31.6239 -47.9527 0 -34.3839 -47.9527 0 
-37.0239 -47.9527 0 -39.7839 -47.9527 0 -42.5439 -47.9527 0 
-45.3639 -47.9527 0 -48.0039 -47.9527 0 -50.7039 -47.9527 0 
-53.2239 -47.9527 0 -56.3439 -47.9527 0 -58.9839 -47.9527 0 
-61.6239 -47.9527 0 -64.2639 -47.9527 0 -66.9039 -47.9527 0 
-69.5439 -47.9527 0 -72.1839 -47.9527 0 -74.9439 -47.9527 0 
-77.8239 -47.9527 0 -80.2839 -47.9527 0 -24.4239 -47.9527 2 
-26.7639 -47.9527 2 -28.8639 -47.9527 2 -31.0839 -47.9527 2 
-33.3639 -47.9527 2 -35.4639 -47.9527 2 -37.8639 -47.9527 2 
-39.9039 -47.9527 2 -42.1839 -47.9527 2 -44.6439 -47.9527 2 
-46.7439 -47.9527 2 -49.0239 -47.9527 2 -51.1839 -47.9527 2 
-53.2839 -47.9527 2 -55.3839 -47.9527 2 -57.6039 -47.9527 2 
-59.8839 -47.9527 2 -61.9839 -47.9527 2 -64.3239 -47.9527 2 
-66.4239 -47.9527 2 -68.6439 -47.9527 2 -70.8639 -47.9527 2 
-73.0239 -47.9527 2 -75.4239 -47.9527 2 -77.6439 -47.9527 2 
-79.9239 -47.9527 2 -79.9239 52.0473 2 -77.8239 52.0473 2 
-75.6639 52.0473 2 -73.4439 52.0473 2 -71.4039 52.0473 2 
-69.3639 52.0473 2 -67.2039 52.0473 2 -65.0439 52.0473 2 
-62.9439 52.0473 2 -60.9039 52.0473 2 -58.8639 52.0473 2 
-56.5239 52.0473 2 -54.5439 52.0473 2 -52.3239 52.0473 2 
-50.1639 52.0473 2 -48.0639 52.0473 2 -45.7839 52.0473 2 
-43.8039 52.0473 2 -41.5839 52.0473 2 -39.1839 52.0473 2 
-37.1439 52.0473 2 -34.9239 52.0473 2 -32.8239 52.0473 2 
-30.6639 52.0473 2 -28.6239 52.0473 2 -26.5239 52.0473 2 
-24.3039 52.0473 2 -82.3239 -45.6527 2 -82.3239 -43.3527 2 
-82.3239 -41.1527 2 -82.3239 -39.0527 2 -82.3239 -36.7527 2 
-82.3239 -34.5527 2 -82.3239 -32.2527 2 -82.3239 -30.1527 2 
-82.3239 -28.1527 2 -82.3239 -25.8527 2 -82.3239 -23.6527 2 
-82.3239 -21.5527 2 -82.3239 -19.4527 2 -82.3239 -17.3527 2 
-82.3239 -15.2527 2 -82.3239 -13.1527 2 -82.3239 -10.8527 2 
-82.3239 -8.75269 2 -82.3239 -6.65269 2 -82.3239 -4.45269 2 
-82.3239 -2.25269 2 -82.3239 -0.152694 2 -82.3239 2.14731 2 
-82.3239 4.24731 2 -82.3239 6.34731 2 -82.3239 8.74731 2 
-82.3239 10.9473 2 -82.3239 13.3473 2 -82.3239 15.3473 2 
-82.3239 17.5473 2 -82.3239 19.7473 2 -82.3239 22.1473 2 
-82.3239 24.2473 2 -82.3239 26.3473 2 -82.3239 28.4473 2 
-82.3239 30.8473 2 -82.3239 32.8473 2 -82.3239 34.9473 2 
-82.3239 37.1473 2 -82.3239 39.2473 2 -82.3239 41.2473 2 
-82.3239 43.4473 2 -82.3239 45.6473 2 -82.3239 47.8473 2 
-82.3239 49.8473 2 -22.3239 49.7473 2 -22.3239 46.5473 2 
-22.3239 43.1473 2 -22.3239 39.1473 2 -22.3239 34.4473 2 
-22.3239 29.2473 2 -22.3239 23.9473 2 -22.3239 19.2473 2 
-22.3239 14.3473 2 -22.3239 9.74731 2 -22.3239 5.44731 2 
-22.3239 1.54731 2 -22.3239 -1.75269 2 -22.3239 -5.55269 2 
-22.3239 -9.05269 2 -22.3239 -12.9527 2 -22.3239 -17.9527 2 
-22.3239 -23.2527 2 -22.3239 -28.2527 2 -22.3239 -32.7527 2 
-22.3239 -36.8527 2 -22.3239 -39.9527 2 -22.3239 -42.8527 2 
-22.3239 -45.5527 2 -42.8522 19.1592 2 -42.1653 17.2368 2 
-41.3478 15.2554 2 -40.3762 13.2027 2 -39.3493 11.2922 2 
-38.2969 9.54293 2 -37.0606 7.69903 2 -35.8578 6.08132 2 
-34.5313 4.46305 2 -33.1461 2.92902 2 -31.7079 1.48025 2 
-44.9238 19.3774 2 -44.1927 17.3083 2 -43.4094 15.3955 2 
-42.4336 13.3166 2 -41.4875 11.5365 2 -40.3651 9.65079 2 
-39.1489 7.82414 2 -37.9674 6.22239 2 -36.631 4.57928 2 
-35.1285 2.91049 2 -33.6895 1.46257 2 -80.1639 52.0473 0 
-77.6439 52.0473 0 -74.9439 52.0473 0 -72.1239 52.0473 0 
-69.4839 52.0473 0 -66.7239 52.0473 0 -63.9639 52.0473 0 
-61.3839 52.0473 0 -58.9839 52.0473 0 -56.2839 52.0473 0 
-53.6439 52.0473 0 -50.7639 52.0473 0 -48.0639 52.0473 0 
-45.1839 52.0473 0 -42.6639 52.0473 0 -39.9039 52.0473 0 
-37.2639 52.0473 0 -34.5039 52.0473 0 -31.8039 52.0473 0 
-29.1639 52.0473 0 -26.6439 52.0473 0 -24.3639 52.0473 0 
-82.3239 -45.6527 0 -82.3239 -42.9527 0 -82.3239 -40.2527 0 
-82.3239 -37.5527 0 -82.3239 -34.7527 0 -82.3239 -31.8527 0 
-82.3239 -29.3527 0 -82.3239 -26.7527 0 -82.3239 -23.7527 0 
-82.3239 -21.2527 0 -82.3239 -18.6527 0 -82.3239 -15.9527 0 
-82.3239 -13.2527 0 -82.3239 -10.4527 0 -82.3239 -7.75269 0 
-82.3239 -5.05269 0 -82.3239 -2.15269 0 -82.3239 0.647306 0 
-82.3239 3.34731 0 -82.3239 5.94731 0 -82.3239 8.64731 0 
-82.3239 11.2473 0 -82.3239 14.1473 0 -82.3239 17.0473 0 
-82.3239 19.9473 0 -82.3239 22.7473 0 -82.3239 25.3473 0 
-82.3239 28.1473 0 -82.3239 31.0473 0 -82.3239 33.6473 0 
-82.3239 36.7473 0 -82.3239 39.5473 0 -82.3239 42.2473 0 
-82.3239 44.8473 0 -82.3239 47.5473 0 -82.3239 49.9473 0 
-22.3239 49.8473 0 -22.3239 47.5473 0 -22.3239 44.5473 0 
-22.3239 41.0473 0 -22.3239 37.1473 0 -22.3239 32.8473 0 
-22.3239 28.0473 0 -22.3239 22.4473 0 -22.3239 17.4473 0 
-22.3239 12.9473 0 -22.3239 8.84731 0 -22.3239 4.74731 0 
-22.3239 1.24731 0 -22.3239 -2.05269 0 -22.3239 -5.75269 0 
-22.3239 -10.0527 0 -22.3239 -14.9527 0 -22.3239 -19.6527 0 
-22.3239 -25.0527 0 -22.3239 -29.8527 0 -22.3239 -33.6527 0 
-22.3239 -37.0527 0 -22.3239 -40.2527 0 -22.3239 -43.0527 0 
-22.3239 -45.6527 0 -42.8762 19.2319 0 -42.2199 17.3798 0 
-41.4196 15.4189 0 -40.5587 13.5679 0 -39.5125 11.581 0 
-38.4059 9.71561 0 -37.2513 7.9705 0 -35.9518 6.20221 0 
-34.4646 4.38576 0 -33.0406 2.81803 0 -31.6157 1.39196 0 
-44.8841 19.2561 0 -44.0916 17.0464 0 -43.2021 14.9291 0 
-42.33 13.1116 0 -41.3619 11.3143 0 -40.2833 9.52138 0 
-39.1929 7.88682 0 -37.9518 6.20221 0 -36.6476 4.59868 0 
-35.321 3.11481 0 -33.7447 1.51564 0 -79.2701 50.2354 2 
-77.0119 50.2981 2 -74.6844 50.3012 2 -72.626 50.1606 2 
-70.4754 50.086 2 -68.3809 50.0867 2 -66.1617 50.0499 2 
-64.0531 50.0035 2 -61.8785 49.9791 2 -59.7945 50.0148 2 
-57.6717 50.0151 2 -55.5576 50.0077 2 -53.4369 49.9989 2 
-51.2145 50.006 2 -49.0894 50.0253 2 -46.8577 50.0354 2 
-44.7974 50.0405 2 -42.5905 50.08 2 -40.3676 50.1077 2 
-38.2334 50.1283 2 -36.0074 50.1408 2 -33.8424 50.1607 2 
-31.7273 50.196 2 -29.6391 50.1874 2 -27.5663 50.0131 2 
-25.3676 49.7674 2 -80.3997 -44.8341 2 -80.4395 -42.3362 2 
-80.3503 -40.1661 2 -80.364 -37.9048 2 -80.354 -35.7647 2 
-80.3592 -33.5417 2 -80.284 -31.2653 2 -80.2052 -29.1067 2 
-80.2763 -27.0605 2 -80.2683 -24.8507 2 -80.2221 -22.6247 2 
-80.2402 -20.4938 2 -80.2439 -18.4343 2 -80.248 -16.2824 2 
-80.2616 -14.2115 2 -80.3214 -11.9936 2 -80.2925 -9.85254 2 
-80.298 -7.71506 2 -80.2821 -5.49834 2 -80.2491 -3.3069 2 
-80.2407 -1.21372 2 -80.2801 1.02334 2 -80.2399 3.16532 2 
-80.1901 5.3909 2 -80.1942 7.62254 2 -80.2208 9.86529 2 
-80.2255 12.101 2 -80.1987 14.3015 2 -80.2646 16.5082 2 
-80.2764 18.6831 2 -80.2967 20.8234 2 -80.2904 23.0635 2 
-80.2921 25.2187 2 -80.368 27.4182 2 -80.3859 29.5862 2 
-80.3092 31.8065 2 -80.2859 34.0131 2 -80.3231 36.0357 2 
-80.3785 38.166 2 -80.3811 40.2417 2 -80.4182 42.4079 2 
-80.4281 44.6079 2 -80.4119 46.668 2 -80.518 48.6118 2 
-25.0116 44.6031 2 -25.4329 40.889 2 -25.6063 36.3546 2 
-25.8401 31.225 2 -26.0864 26.1512 2 -26.0747 21.5543 2 
-26.0639 16.4133 2 -25.8927 11.9857 2 -25.6883 7.35409 2 
-25.5208 3.33845 2 -25.2554 -0.240971 2 -25.1592 -3.69745 2 
-25.1164 -7.35086 2 -25.373 -11.0869 2 -25.7569 -15.5808 2 
-25.9382 -20.2828 2 -25.9605 -25.2883 2 -25.882 -29.9386 2 
-25.7706 -34.1788 2 -25.8666 -38.2613 2 -24.7439 -41.5134 2 
-24.2213 -43.9319 2 -25.2983 -45.8868 2 -27.7614 -45.8984 2 
-30.0035 -45.9539 2 -32.3443 -46.0254 2 -34.5551 -45.9896 2 
-36.7507 -45.9713 2 -39.0487 -45.9926 2 -41.2965 -45.9989 2 
-43.6168 -45.9831 2 -45.7762 -45.9264 2 -48.0208 -45.9073 2 
-50.2751 -45.9072 2 -52.3754 -45.8819 2 -54.5744 -45.8639 2 
-56.6922 -45.8629 2 -58.951 -45.8926 2 -61.189 -45.9107 2 
-63.4423 -45.9359 2 -65.6332 -45.9281 2 -67.9285 -45.9147 2 
-70.0867 -45.9935 2 -72.2832 -46.0833 2 -74.2341 -46.4435 2 
-76.2451 -46.2153 2 -78.3741 -45.9078 2 -44.6592 23.8633 2 
-41.1695 21.294 2 -40.5592 19.0602 2 -39.9776 17.0798 2 
-39.0125 15.0603 2 -37.9307 13.2435 2 -36.9795 11.4511 2 
-35.9768 9.61901 2 -34.7852 7.8651 2 -33.3849 6.26402 2 
-31.8267 4.55621 2 -30.3653 2.70839 2 -30.8165 -2.34904 2 
-47.3595 19.8123 2 -46.5931 17.696 2 -45.718 15.6651 2 
-44.759 13.5209 2 -43.7522 11.5992 2 -42.6501 9.65548 2 
-41.4039 7.70451 2 -40.1383 5.95766 2 -38.9299 4.24388 2 
-37.467 2.51139 2 -35.9296 0.82909 2 -34.4672 -0.900617 2 
-24.4445 47.5517 2 -47.3575 23.9448 2 -41.9082 23.7456 2 
-27.9849 1.4342 2 -28.0269 -2.03957 2 -48.5643 21.9325 2 
-33.1166 -2.8723 2 -75.9849 48.6714 2 -73.8326 48.3098 2 
-71.7411 48.1335 2 -69.6029 48.0215 2 -67.3611 47.9085 2 
-65.1514 47.9127 2 -62.9194 47.9054 2 -60.7952 47.8708 2 
-58.683 47.9145 2 -56.5834 47.9582 2 -54.5029 47.9749 2 
-52.3314 47.8942 2 -50.1842 47.9253 2 -47.9424 47.9173 2 
-45.7986 47.9854 2 -43.7097 47.9868 2 -41.3729 47.9632 2 
-39.2354 47.9319 2 -37.109 48.043 2 -34.8058 48.1228 2 
-32.7102 48.2201 2 -30.6968 48.2361 2 -28.8039 48.2788 2 
-28.2186 42.9546 2 -78.3241 -41.3124 2 -78.2468 -39.0421 2 
-78.2848 -36.8732 2 -78.2539 -34.7739 2 -78.1813 -32.4732 2 
-78.1199 -30.2163 2 -78.0886 -28.0825 2 -78.0424 -25.9967 2 
-78.0356 -23.7979 2 -78.1022 -21.5499 2 -78.0803 -19.501 2 
-78.0634 -17.4141 2 -78.0957 -15.3157 2 -78.1188 -13.0981 2 
-78.1194 -10.8555 2 -78.0679 -8.80182 2 -78.0448 -6.60663 2 
-78.1054 -4.41238 2 -78.0786 -2.23638 2 -78.0878 -0.114572 2 
-78.0853 2.17612 2 -78.0525 4.30461 2 -78.0599 6.513 2 
-78.1051 8.80019 2 -78.0544 10.967 2 -78.0388 13.2241 2 
-78.0444 15.3522 2 -78.0704 17.6187 2 -78.1392 19.7534 2 
-78.2163 21.9022 2 -78.2767 24.0748 2 -78.2972 26.271 2 
-78.2858 28.4926 2 -78.1839 30.7061 2 -78.1307 32.9081 2 
-78.1327 35.0735 2 -78.1517 37.0838 2 -78.2781 39.2429 2 
-78.4114 41.3685 2 -78.5353 43.5289 2 -78.4322 45.7439 2 
-78.2812 48.1154 2 -26.4633 -43.6744 2 -78.5271 -43.5426 2 
-28.5414 38.2802 2 -29.057 33.6303 2 -29.6293 28.3571 2 
-29.913 23.5564 2 -29.8583 18.6654 2 -29.5351 13.9965 2 
-28.923 9.12609 2 -27.5646 -5.66206 2 -28.0008 -9.12754 2 
-28.7661 -13.3059 2 -29.3747 -17.6559 2 -29.6647 -22.4328 2 
-29.7169 -27.1734 2 -29.6225 -31.514 2 -29.6116 -35.3711 2 
-29.8417 -38.6333 2 -39.1389 23.4422 2 -43.1555 26.6596 2 
-29.0154 -43.7069 2 -31.2962 -43.8811 2 -33.5884 -43.9688 2 
-35.822 -43.8337 2 -37.9995 -43.8123 2 -40.3097 -43.8787 2 
-42.6745 -43.8039 2 -44.8112 -43.7128 2 -47.0197 -43.6723 2 
-49.3269 -43.652 2 -51.5311 -43.6615 2 -53.6508 -43.6349 2 
-55.8031 -43.6943 2 -58.0505 -43.6783 2 -60.3386 -43.6942 2 
-62.59 -43.6984 2 -64.8112 -43.6893 2 -67.1373 -43.7153 2 
-69.509 -43.7577 2 -71.8427 -43.8478 2 -74.3842 -44.3373 2 
-76.757 -44.4748 2 -29.6495 -4.41359 2 -38.6944 21.0488 2 
-36.3943 15.3929 2 -35.3166 13.5326 2 -34.4365 11.5179 2 
-33.8008 9.68816 2 -32.126 8.39772 2 -30.8312 6.56827 2 
-28.612 4.86651 2 -46.3257 11.5899 2 -38.4086 0.382914 2 
-43.9551 7.56887 2 -48.4428 15.8947 2 -39.8538 2.14276 2 
-26.8381 47.0413 2 -42.6004 5.69433 2 -46.1945 26.647 2 
-38.2487 18.7254 2 -37.7987 16.8561 2 -49.3345 18.0615 2 
-47.4377 13.6987 2 -45.1984 9.56188 2 -41.2689 3.87366 2 
-36.8925 -1.46562 2 -39.9162 26.4382 2 -31.773 -5.02847 2 
-49.3909 26.4549 2 -49.9732 20.1482 2 -35.5046 -3.47055 2 
-50.1648 23.9368 2 -73.1269 46.1832 2 -70.9014 45.9211 2 
-68.6677 45.7678 2 -66.3403 45.5908 2 -64.0915 45.5055 2 
-61.7995 45.6072 2 -59.6695 45.6956 2 -57.6192 45.7574 2 
-55.5374 45.8416 2 -53.3652 45.6538 2 -51.3117 45.5064 2 
-49.0273 45.5823 2 -46.9264 45.7143 2 -44.6885 45.7591 2 
-42.441 45.6027 2 -40.1865 45.5124 2 -38.0413 45.5807 2 
-35.7464 45.8208 2 -33.4761 46.0799 2 -31.5833 46.3262 2 
-31.805 35.9083 2 -75.8381 46.4824 2 -76.1424 -38.0342 2 
-76.1868 -35.8771 2 -75.9729 -33.7963 2 -75.8984 -31.441 2 
-75.8382 -29.1971 2 -75.78 -27.1055 2 -75.748 -24.9246 2 
-75.752 -22.7457 2 -75.7832 -20.5251 2 -75.7948 -18.4734 2 
-75.8425 -16.3681 2 -75.8402 -14.2329 2 -75.8717 -11.9992 2 
-75.8134 -9.78067 2 -75.7623 -7.69065 2 -75.7509 -5.49796 2 
-75.7606 -3.25639 2 -75.8053 -1.14418 2 -75.8174 1.01335 2 
-75.8261 3.26026 2 -75.8211 5.42454 2 -75.7893 7.67514 2 
-75.8057 9.9593 2 -75.7789 12.134 2 -75.7961 14.3073 2 
-75.831 16.5042 2 -75.8274 18.7107 2 -75.8808 20.7769 2 
-75.9598 22.9861 2 -75.9659 25.1855 2 -75.9582 27.3644 2 
-75.9436 29.6098 2 -75.8534 31.8664 2 -75.8055 34.0808 2 
-75.8705 36.1388 2 -75.9912 38.2493 2 -76.1111 40.4091 2 
-76.3453 42.5823 2 -76.7383 44.5729 2 -31.3264 39.9611 2 
-33.2904 20.7183 2 -32.8366 30.9968 2 -30.1528 -7.13973 2 
-27.7032 -41.1031 2 -76.2449 -42.4978 2 -33.5638 -24.6805 2 
-33.5294 -29.0622 2 -33.3054 -33.1921 2 -33.047 -36.6265 2 
-47.854 9.49739 2 -51.326 16.4165 2 -36.3048 20.3267 2 
-48.1667 29.358 2 -30.4709 -41.493 2 -32.6158 -42.1422 2 
-34.724 -41.5489 2 -36.9082 -41.5792 2 -39.2556 -41.8459 2 
-41.5767 -41.6314 2 -43.8145 -41.3145 2 -45.9622 -41.2074 2 
-48.2521 -41.2508 2 -50.5421 -41.2684 2 -52.7111 -41.3009 2 
-54.8574 -41.3292 2 -57.156 -41.305 2 -59.391 -41.2715 2 
-61.6841 -41.2413 2 -64.0019 -41.3236 2 -66.317 -41.3198 2 
-68.7791 -41.4076 2 -71.2749 -41.5556 2 -73.7444 -41.9683 2 
-32.4271 -15.1093 2 -75.9852 -40.318 2 -36.2224 22.8902 2 
-32.7586 13.4096 2 -33.1407 16.29 2 -49.0794 11.676 2 
-31.1892 -10.8274 2 -42.4681 1.59531 2 -33.5463 25.7465 2 
-46.631 7.3957 2 -40.9754 -0.121847 2 -44.8054 29.5589 2 
-50.2391 14.0192 2 -43.8962 3.3733 2 -39.4748 -2.00619 2 
-33.2689 -19.7962 2 -45.3401 5.35878 2 -29.4995 45.9186 2 
-34.2357 -5.66049 2 -31.6968 11.0563 2 -52.2034 18.8938 2 
-37.0705 25.5586 2 -51.4638 28.9208 2 -38.0758 -3.95306 2 
-52.2433 21.977 2 -41.1241 29.5977 2 -52.8899 25.4672 2 
-34.5967 37.9364 2 -70.0731 43.5234 2 -67.6882 43.1843 2 
-65.3256 43.0046 2 -62.9043 42.9473 2 -60.6793 43.0681 2 
-58.4862 43.3178 2 -56.4296 43.3765 2 -54.4491 43.4975 2 
-52.4781 42.7676 2 -50.2953 42.9495 2 -47.8864 43.2916 2 
-45.7925 43.4156 2 -43.4961 43.2851 2 -41.2277 42.9503 2 
-38.9383 42.9072 2 -36.4858 43.2394 2 -34.2351 43.882 2 
-31.5537 43.6562 2 -35.6029 33.8601 2 -32.858 -8.13224 2 
-37.3962 -26.9644 2 -73.8857 -35.0617 2 -73.5965 -32.8541 2 
-73.4326 -30.5314 2 -73.3461 -28.2337 2 -73.3084 -26.0906 2 
-73.2876 -23.8877 2 -73.2883 -21.621 2 -73.2941 -19.5229 2 
-73.2915 -17.4438 2 -73.2832 -15.3 2 -73.2671 -13.0799 2 
-73.2701 -10.8487 2 -73.3062 -8.74938 2 -73.2905 -6.57416 2 
-73.3216 -4.36384 2 -73.341 -2.16973 2 -73.3815 -0.0453089 2 
-73.4118 2.18868 2 -73.4301 4.36659 2 -73.3691 6.61296 2 
-73.3661 8.85672 2 -73.3278 11.0963 2 -73.2866 13.2614 2 
-73.2336 15.4727 2 -73.225 17.7199 2 -73.2953 19.8182 2 
-73.3424 21.9103 2 -73.4593 24.1386 2 -73.6115 26.2507 2 
-73.5518 28.5029 2 -73.2875 30.7312 2 -73.2516 33.0166 2 
-73.3554 35.2336 2 -73.5119 37.306 2 -73.7374 39.6541 2 
-74.0611 41.9769 2 -37.0314 29.2728 2 -46.7937 32.458 2 
-45.2746 0.910784 2 -52.0516 11.7827 2 -46.8179 2.76138 2 
-32.7975 -39.6753 2 -36.9653 -31.2913 2 -36.5127 -35.0214 2 
-50.423 32.258 2 -37.4437 -22.0363 2 -35.9124 -38.5869 2 
-38.2581 -39.5354 2 -40.3441 -39.6179 2 -42.3265 -38.814 2 
-44.6565 -38.6073 2 -46.968 -38.7071 2 -49.3991 -38.7654 2 
-51.6567 -38.6872 2 -53.9284 -38.6823 2 -56.1576 -38.7882 2 
-58.4268 -38.7727 2 -60.7017 -38.6136 2 -63.0603 -38.661 2 
-65.5101 -38.7894 2 -67.8958 -38.9325 2 -70.4945 -39.1729 2 
-73.2991 -39.3738 2 -35.6388 17.9224 2 -53.4192 14.4119 2 
-48.2334 4.93829 2 -72.2954 43.8856 2 -49.5313 7.11577 2 
-43.7034 -0.839204 2 -74.6248 44.2819 2 -36.7574 -17.0771 2 
-42.1138 -2.58552 2 -50.7895 9.40528 2 -43.3568 32.8738 2 
-74.2881 -37.0265 2 -36.8299 -6.27393 2 -54.5754 17.0574 2 
-39.5606 33.0839 2 -54.1106 32.1234 2 -35.3968 -12.1166 2 
-40.6673 -4.59557 2 -34.0956 41.29 2 -38.2749 36.966 2 
-66.7787 40.3113 2 -64.1915 40.0057 2 -61.5828 40.0925 2 
-59.2739 40.5867 2 -57.2179 41.1655 2 -54.595 40.0945 2 
-51.2754 39.3846 2 -48.8475 40.8274 2 -46.7323 40.8618 2 
-44.6633 41.259 2 -42.562 40.3696 2 -37.1582 40.2537 2 
-35.7385 -8.5534 2 -51.3283 4.44353 2 -71.41 -34.5499 2 
-71.0752 -32.0538 2 -70.875 -29.5962 2 -70.7466 -27.3514 2 
-70.7018 -25.0892 2 -70.6755 -22.8352 2 -70.6475 -20.5726 2 
-70.6084 -18.4907 2 -70.5884 -16.3548 2 -70.6384 -14.0725 2 
-70.7165 -11.9467 2 -70.72 -9.76293 2 -70.6517 -7.69823 2 
-70.671 -5.47897 2 -70.7583 -3.21126 2 -70.8489 -1.07797 2 
-70.9003 1.08862 2 -70.9495 3.31831 2 -70.8331 5.5805 2 
-70.8166 7.79054 2 -70.7878 10.0946 2 -70.679 12.2713 2 
-70.5597 14.471 2 -70.3848 16.728 2 -70.4543 18.9553 2 
-70.6967 21.0425 2 -70.8117 23.2392 2 -70.9121 25.3811 2 
-71.3834 27.3733 2 -70.5852 29.4488 2 -70.4548 31.7717 2 
-70.6842 34.1987 2 -70.907 36.4412 2 -71.2204 38.8284 2 
-71.6923 41.3874 2 -52.8625 35.9871 2 -72.0085 -36.9741 2 
-45.5979 35.6478 2 -48.2927 -0.0529393 2 -54.5767 28.6978 2 
-41.1883 -29.5127 2 -40.147 -33.5183 2 -49.1455 35.6599 2 
-41.3621 -19.4967 2 -39.4874 -36.9677 2 -42.7515 -35.9614 2 
-45.5403 -35.7255 2 -47.9632 -36.2822 2 -50.29 -35.863 2 
-52.768 -35.6072 2 -55.2228 -35.5217 2 -57.4192 -36.2442 2 
-59.6031 -35.7205 2 -61.9956 -35.7651 2 -64.553 -35.9749 2 
-66.9852 -36.2767 2 -69.5559 -36.6199 2 -49.8672 2.06075 2 
-69.2574 40.7543 2 -46.5861 -1.85904 2 -55.3384 11.9782 2 
-44.786 -3.51045 2 -55.5389 19.9668 2 -41.7743 -24.631 2 
-39.9508 39.9462 2 -52.5804 6.84849 2 -56.764 35.4253 2 
-53.9535 9.32049 2 -39.4968 -6.63262 2 -40.3791 -14.3184 2 
-56.8319 14.7345 2 -43.0484 -5.17348 2 -56.6772 26.4902 2 
-56.2716 23.1781 2 -39.1225 -9.88691 2 -62.6786 36.8007 2 
-57.4819 38.7456 2 -47.7265 38.2456 2 -58.1062 30.5177 2 
-41.9746 36.7472 2 -68.3518 -31.3413 2 -68.1903 -28.7863 2 
-68.0661 -26.4736 2 -68.0002 -24.114 2 -67.9289 -21.7115 2 
-67.7827 -19.5565 2 -67.7152 -17.3901 2 -67.5306 -15.0957 2 
-67.6251 -12.7582 2 -68.3012 -10.81 2 -67.6597 -8.87068 2 
-67.5687 -6.65908 2 -67.8098 -4.34392 2 -68.0628 -2.06244 2 
-68.3107 0.0323975 2 -68.2426 2.2578 2 -68.0271 4.60894 2 
-68.1118 6.76776 2 -68.146 9.01715 2 -68.0882 11.2373 2 
-67.8037 13.501 2 -67.1719 15.8393 2 -67.1951 18.1569 2 
-67.6398 20.4036 2 -68.3699 22.4466 2 -67.9462 24.7699 2 
-68.5957 27.2979 2 -66.9309 30.2526 2 -68.0102 32.9543 2 
-68.0912 35.4774 2 -68.6509 38.0228 2 -68.8422 -34.0575 2 
-45.5788 -16.5347 2 -60.5704 33.9309 2 -47.7677 -32.8024 2 
-51.1174 -32.8851 2 -54.0482 -31.8544 2 -57.3894 -32.594 2 
-60.5292 -32.6063 2 -63.5562 -33.0407 2 -66.1911 -33.5227 2 
-58.3604 17.6228 2 -47.3656 -4.99444 2 -49.6807 -3.62587 2 
-59.7652 37.3929 2 -44.8915 38.6486 2 -51.7014 -1.41164 2 
-59.009 11.9085 2 -65.8421 37.1226 2 -57.3931 9.30885 2 
-42.1271 -7.83775 2 -43.9834 -32.5657 2 -46.008 -21.9235 2 
-44.5771 -11.3026 2 -60.2276 20.9867 2 -62.639 30.1271 2 
-53.5129 1.08129 2 -54.7015 3.82844 2 -45.9655 -27.7838 2 
-60.4997 14.8193 2 -60.5347 25.5038 2 -65.6165 -30.7225 2 
-65.3613 -28.026 2 -65.3314 -25.5991 2 -65.0694 -23.1685 2 
-64.8039 -20.8212 2 -64.7322 -18.5626 2 -64.3188 -16.0066 2 
-64.0039 -13.351 2 -64.7202 -10.7265 2 -64.3812 -8.08992 2 
-64.7513 -5.57515 2 -65.0896 -3.00416 2 -65.1453 -0.790843 2 
-65.7081 1.22558 2 -64.8832 3.46923 2 -64.8366 5.92072 2 
-65.601 8.00333 2 -65.1568 10.1925 2 -65.4953 12.3292 2 
-64.2743 14.5438 2 -63.0295 17.3893 2 -64.5117 19.9819 2 
-64.8548 22.9667 2 -65.0425 26.7568 2 -64.8702 33.6769 2 
-50.2942 -13.3462 2 -45.5636 -7.25314 2 -55.7451 6.56087 2 
-50.35 -18.6759 2 -50.4966 -24.0954 2 -61.8221 8.57257 2 
-62.7054 -29.999 2 -50.7152 -29.0001 2 -55.4615 -26.7968 2 
-59.2936 -29.0668 2 -55.2772 -2.69208 2 -49.6421 -8.42018 2 
-57.5759 0.228803 2 -53.0652 -5.83613 2 -59.5543 -25.3858 2 
-59.7367 -12.1531 2 -60.3461 -9.17995 2 -61.207 -6.45678 2 
-62.0549 1.5755 2 -62.5126 12.0065 2 -59.0344 6.57415 2 
-54.3244 -20.898 2 -55.3228 -15.2349 2 -58.345 3.5789 2 
-62.4477 -27.2021 2 -62.7163 -24.73 2 -61.6803 -22.5593 2 
-61.2799 -20.1376 2 -61.6352 -17.6213 2 -60.3001 -15.1722 2 
-62.176 -4.04549 2 -61.6591 -1.37043 2 -61.8511 4.86532 2 
-55.0938 -10.3293 2 -57.2233 -6.64033 2 -58.8752 -3.59369 2 
-58.021 -22.2757 2 -58.0898 -18.4543 2 -79.531 49.3067 0 
-76.3559 49.9311 0 -73.6366 49.978 0 -71.0545 49.6845 0 
-68.2446 49.556 0 -65.4985 49.476 0 -62.6838 49.4804 0 
-60.1358 49.4351 0 -57.4887 49.4614 0 -54.833 49.4587 0 
-52.172 49.4679 0 -49.3895 49.4875 0 -46.5329 49.4751 0 
-43.9171 49.4763 0 -41.1982 49.5147 0 -38.5948 49.4194 0 
-35.8235 49.5101 0 -33.102 49.5159 0 -30.4989 49.4227 0 
-27.9716 49.4367 0 -25.3993 49.8587 0 -79.5233 -44.9654 0 
-79.9162 -41.6223 0 -80.0244 -38.8016 0 -80.1592 -36.0881 0 
-80.1279 -33.3116 0 -80.1113 -30.6406 0 -80.0673 -27.9456 0 
-79.9529 -25.2608 0 -79.8582 -22.5875 0 -79.9351 -20.0134 0 
-79.9783 -17.3403 0 -79.9502 -14.5822 0 -79.9152 -11.8749 0 
-79.981 -9.19499 0 -79.9411 -6.35398 0 -79.8816 -3.60732 0 
-79.9237 -0.805447 0 -79.9862 1.91899 0 -80.0072 4.58585 0 
-80.0134 7.35467 0 -79.9362 9.99938 0 -79.9184 12.7546 0 
-79.8991 15.6662 0 -79.9327 18.4871 0 -79.9582 21.2461 0 
-79.938 24.0473 0 -79.988 26.7768 0 -80.0275 29.555 0 
-79.9886 32.4148 0 -80.0378 35.2025 0 -80.1315 37.9669 0 
-80.1019 40.7562 0 -79.9967 43.5744 0 -79.8897 46.253 0 
-24.2064 48.1648 0 -24.1536 45.8846 0 -25.0004 43.1637 0 
-25.3251 39.4166 0 -25.165 35.3392 0 -27.2125 25.2476 0 
-26.7864 20.2645 0 -26.7564 15.5917 0 -26.7152 11.5517 0 
-26.6189 7.60882 0 -27.196 3.75658 0 -25.0451 -4.42848 0 
-25.6042 -8.30019 0 -25.8377 -12.6914 0 -25.9188 -17.1839 0 
-25.9619 -21.7315 0 -25.8357 -26.7702 0 -25.6355 -30.9438 0 
-25.4442 -34.7355 0 -25.4071 -38.2059 0 -25.3707 -41.2461 0 
-25.2258 -43.8952 0 -25.2303 -46.1402 0 -27.671 -45.6347 0 
-30.3139 -45.6091 0 -33.1397 -45.6679 0 -35.7415 -45.668 0 
-38.4119 -45.745 0 -41.2196 -45.6851 0 -44.0752 -45.6864 0 
-46.7041 -45.6852 0 -49.4949 -45.6868 0 -52.126 -45.6127 0 
-54.8941 -45.5914 0 -57.621 -45.5333 0 -60.337 -45.4975 0 
-62.9064 -45.606 0 -65.5401 -45.7101 0 -68.2261 -45.7192 0 
-70.8601 -45.8408 0 -73.5992 -45.8489 0 -76.4915 -45.5844 0 
-44.3427 23.6812 0 -41.4177 21.2172 0 -40.5965 19.201 0 
-39.7871 17.3291 0 -38.9588 15.332 0 -38.0409 13.3578 0 
-36.9223 11.5259 0 -35.9261 9.68398 0 -34.8221 7.94601 0 
-33.2578 6.2012 0 -31.4905 4.48777 0 -30.2266 2.45228 0 
-30.884 -2.14439 0 -47.4027 19.6699 0 -46.5848 17.4624 0 
-45.6358 15.3494 0 -44.6399 13.2063 0 -43.6208 11.3162 0 
-42.5214 9.45119 0 -41.3711 7.70507 0 -40.1341 5.90578 0 
-38.841 4.21876 0 -37.5183 2.54861 0 -36.1229 0.806975 0 
-34.5342 -1.03678 0 -27.1998 31.2215 0 -25.5583 -0.61905 0 
-42.0064 23.5226 0 -46.8341 23.7364 0 -33.0447 -3.05131 0 
-28.196 0.950891 0 -28.4987 -1.40802 0 -48.3374 21.828 0 
-74.9339 48.1152 0 -77.2815 47.3179 0 -69.9944 47.0731 0 
-67.0853 46.8675 0 -64.1646 46.7127 0 -61.3318 46.6986 0 
-58.7309 46.7074 0 -56.0829 46.6937 0 -53.5189 46.8214 0 
-50.6552 46.8154 0 -47.8907 46.8116 0 -45.1548 46.805 0 
-42.5569 46.7742 0 -39.7367 46.7713 0 -37.1889 46.7871 0 
-34.4697 46.9439 0 -31.7726 46.8197 0 -29.235 46.4409 0 
-26.5823 46.6108 0 -31.2926 13.8936 0 -77.7444 -37.2299 0 
-77.7182 -39.9246 0 -77.3915 -42.7559 0 -77.861 -34.6229 0 
-78.0014 -31.9405 0 -77.795 -29.2651 0 -77.5743 -26.6588 0 
-77.5428 -24.0337 0 -77.4751 -21.3815 0 -77.4162 -18.7506 0 
-77.4566 -16.0081 0 -77.5709 -13.2974 0 -77.5845 -10.5267 0 
-77.5302 -7.80752 0 -77.5319 -4.9451 0 -77.561 -2.29525 0 
-77.6114 0.50988 0 -77.5821 3.23973 0 -77.5821 5.94566 0 
-77.548 8.79152 0 -77.5135 11.4148 0 -77.4772 14.2117 0 
-77.5595 17.0821 0 -77.4985 19.8892 0 -77.431 22.6053 0 
-77.5674 25.3718 0 -77.6128 28.1724 0 -77.6559 31.05 0 
-77.769 33.782 0 -77.8551 36.4903 0 -77.8751 39.2643 0 
-77.7562 42.14 0 -77.5455 44.7557 0 -28.1023 42.2557 0 
-31.9908 27.416 0 -28.5508 36.827 0 -30.8857 17.9272 0 
-31.4741 22.46 0 -30.7075 10.123 0 -28.9354 -10.6223 0 
-28.4152 -6.41602 0 -29.572 -19.1898 0 -29.7709 -23.7899 0 
-29.6553 -28.2489 0 -29.2115 -32.1985 0 -28.854 -36.0699 0 
-28.8524 -39.5456 0 -28.8103 -42.8067 0 -43.7605 7.495 0 
-42.7011 26.1229 0 -31.8844 -43.5102 0 -34.4013 -43.3241 0 
-37.1081 -43.3936 0 -39.9219 -43.3556 0 -42.7727 -43.283 0 
-45.3882 -43.2643 0 -48.1893 -43.2389 0 -50.9005 -43.2457 0 
-53.5538 -43.1828 0 -56.2847 -43.0966 0 -59.0308 -43.0751 0 
-61.5878 -43.1023 0 -64.2916 -43.2023 0 -66.9406 -43.291 0 
-69.5536 -43.4545 0 -72.1133 -43.6808 0 -74.9263 -43.4611 0 
-45.5245 26.0312 0 -48.2859 15.5897 0 -37.8008 19.4049 0 
-36.9893 17.2263 0 -36.6609 15.1029 0 -35.1281 13.6193 0 
-33.919 11.568 0 -30.1399 6.70638 0 -39.6752 23.0746 0 
-49.3095 17.7598 0 -46.1095 11.2607 0 -47.2773 13.4006 0 
-41.1838 3.89586 0 -42.4995 5.69167 0 -38.5386 0.207739 0 
-39.8013 2.06499 0 -72.6411 47.5127 0 -29.2752 -14.7125 0 
-39.1571 21.0824 0 -29.3748 -3.75209 0 -44.9833 9.34964 0 
-37.1056 -1.74989 0 -39.4877 26.0204 0 -35.5836 -3.74024 0 
-31.9849 33.6031 0 -27.153 -3.32931 0 -50.2774 19.9666 0 
-47.8205 25.8959 0 -31.358 -5.15812 0 -32.444 8.09668 0 
-33.6547 9.56186 0 -49.516 24.2717 0 -36.2413 23.2899 0 
-62.7719 43.7933 0 -68.7731 44.1548 0 -60.0821 43.8153 0 
-57.3435 43.8671 0 -54.7682 43.9682 0 -51.9323 44.0153 0 
-49.1774 44.0264 0 -46.3647 44.0013 0 -43.7704 43.999 0 
-41.0099 43.8281 0 -38.3456 43.7765 0 -35.6581 44.0628 0 
-33.2583 44.4759 0 -30.8751 43.3483 0 -34.5661 19.4887 0 
-74.9426 45.8759 0 -44.3226 28.7689 0 -75.5188 -35.7281 0 
-75.4546 -40.799 0 -75.3058 -28.068 0 -75.1356 -25.5584 0 
-75.023 -22.8333 0 -74.9873 -20.1285 0 -74.9436 -17.4743 0 
-74.9252 -14.7414 0 -74.9672 -11.9647 0 -74.9735 -9.14334 0 
-74.9838 -6.33455 0 -74.9933 -3.6724 0 -74.9995 -0.946555 0 
-75.0297 1.81416 0 -75.1075 4.5671 0 -75.0704 7.45916 0 
-75.089 10.0592 0 -75.1162 12.8642 0 -75.0874 15.6153 0 
-75.0807 18.555 0 -75.0545 21.2574 0 -75.0438 23.9417 0 
-75.0769 26.7917 0 -75.1976 29.6238 0 -75.3191 32.4761 0 
-75.4901 35.1367 0 -75.5855 37.8424 0 -75.5507 40.596 0 
-36.5989 29.7324 0 -75.643 -30.6234 0 -31.3672 39.0676 0 
-65.654 43.9225 0 -32.2483 -12.6415 0 -33.8331 -25.7892 0 
-33.7721 -21.2675 0 -32.512 -33.7461 0 -32.0564 -37.4654 0 
-32.4929 -40.8126 0 -38.7122 -41.0446 0 -41.4013 -40.8056 0 
-44.1323 -40.7937 0 -46.7591 -40.7813 0 -49.5264 -40.6754 0 
-52.303 -40.5825 0 -55.0092 -40.4556 0 -57.6717 -40.3724 0 
-60.4001 -40.3612 0 -62.9461 -40.4213 0 -65.7431 -40.5587 0 
-68.4699 -40.7969 0 -70.9732 -41.1606 0 -50.0426 13.4521 0 
-33.1521 -16.8347 0 -34.1746 16.2318 0 -35.7991 -41.0374 0 
-39.8637 -2.45084 0 -40.8197 29.2238 0 -33.447 -30.0219 0 
-47.3885 28.3834 0 -31.595 -8.51807 0 -75.321 -38.1764 0 
-51.2596 15.7399 0 -46.2937 7.31703 0 -75.7753 -33.2303 0 
-45.007 5.44204 0 -47.5385 9.24642 0 -48.804 11.2157 0 
-43.6706 3.55887 0 -72.0417 44.5991 0 -50.1037 27.2062 0 
-52.3273 17.9509 0 -35.5428 37.0703 0 -75.2542 43.3841 0 
-34.0605 -6.50126 0 -51.3852 22.4127 0 -38.4348 -4.39795 0 
-42.4342 1.62049 0 -73.2158 -41.6528 0 -41.1061 -0.398304 0 
-61.3904 40.7711 0 -53.1457 41.0054 0 -50.3709 41.1791 0 
-47.5717 41.1102 0 -44.8745 41.0014 0 -42.3868 41.2561 0 
-39.4308 39.7799 0 -36.5812 41.0815 0 -33.6726 41.3874 0 
-52.3339 25.2012 0 -40.1085 34.0275 0 -72.4202 -24.4507 0 
-72.6314 -27.2401 0 -72.2421 -18.9113 0 -72.0605 -16.2147 0 
-72.0822 -13.3341 0 -72.1553 -10.4867 0 -72.2271 -7.82238 0 
-72.3239 -5.02274 0 -72.2576 -2.3118 0 -72.263 0.366995 0 
-72.39 3.09302 0 -72.404 6.02453 0 -72.44 8.82807 0 
-72.4049 11.4434 0 -72.4241 14.2696 0 -72.4345 17.022 0 
-72.4557 19.9746 0 -72.4937 22.6508 0 -72.4719 25.3949 0 
-72.5049 28.2745 0 -72.6631 31.2038 0 -72.8811 33.896 0 
-73.1439 36.5657 0 -73.1684 39.2811 0 -47.6874 5.13724 0 
-37.8822 -23.5632 0 -53.1573 13.4433 0 -35.0269 -38.3888 0 
-35.0302 -35.5796 0 -45.3466 -38.3083 0 -42.7511 -38.0747 0 
-40.106 -38.2231 0 -48.1356 -38.1434 0 -50.7183 -37.781 0 
-53.5482 -37.6709 0 -56.3021 -37.5135 0 -59.079 -37.3981 0 
-61.7046 -37.4138 0 -64.5032 -37.6216 0 -67.4334 -37.9837 0 
-70.2361 -38.4038 0 -55.9657 40.9423 0 -58.6803 40.7973 0 
-43.1843 31.4788 0 -50.1547 30.73 0 -72.9631 -29.7697 0 
-72.3464 -21.6779 0 -46.4529 31.3259 0 -34.8986 -10.6586 0 
-46.3151 3.21445 0 -49.006 7.06667 0 -72.9258 -39.2227 0 
-53.1208 28.3269 0 -54.4502 15.747 0 -37.9367 -28.0339 0 
-42.7767 -3.1738 0 -53.4718 20.357 0 -36.8646 -6.10682 0 
-73.2214 41.9013 0 -37.4374 -18.8664 0 -67.131 41.0262 0 
-51.7084 11.1872 0 -64.2007 40.8634 0 -70.3079 41.087 0 
-36.3705 -14.362 0 -37.2352 -32.3888 0 -41.419 -5.4305 0 
-73.7215 -32.0116 0 -37.5691 -38.9047 0 -44.973 1.27847 0 
-72.4523 -36.3386 0 -73.6178 -34.1485 0 -50.2769 9.08645 0 
-51.3913 37.764 0 -42.7917 37.9079 0 -54.573 23.0147 0 
-48.4837 34.6435 0 -69.8382 -26.3531 0 -44.5325 34.4717 0 
-68.7404 -14.8494 0 -69.0092 -17.7089 0 -69.3113 -9.17434 0 
-69.4664 -6.432 0 -69.3494 -3.68128 0 -69.3088 -1.03521 0 
-69.324 1.68198 0 -69.4422 4.58512 0 -69.6951 7.44428 0 
-69.7381 10.1306 0 -69.6869 12.905 0 -69.608 15.6174 0 
-69.6735 18.5634 0 -69.6914 21.2972 0 -69.6488 24.1628 0 
-69.7013 26.9515 0 -69.8168 29.9683 0 -70.1236 32.8954 0 
-70.4772 35.6373 0 -71.0131 38.1584 0 -42.3157 -21.0788 0 
-68.8883 -11.8667 0 -44.185 -35.6734 0 -37.8134 -36.1473 0 
-48.8999 -34.81 0 -43.7928 -0.873755 0 -46.4701 -35.8218 0 
-41.4129 -34.4322 0 -41.2197 -16.2387 0 -51.6475 -34.522 0 
-54.6594 -34.3551 0 -57.5579 -34.1668 0 -60.4058 -34.183 0 
-63.2078 -34.3417 0 -66.3306 -34.6285 0 -69.3685 -35.2436 0 
-54.2226 37.8648 0 -70.2925 -29.3333 0 -48.7089 38.4658 0 
-45.9659 37.875 0 -39.4601 -11.6078 0 -49.1027 2.77633 0 
-50.578 4.69656 0 -55.7295 26.1364 0 -60.0148 37.4647 0 
-56.5397 13.3201 0 -69.6989 -23.3757 0 -44.998 -6.43801 0 
-46.0502 -3.45944 0 -69.3978 -20.4685 0 -42.4842 -25.8946 0 
-65.7405 37.8037 0 -71.1516 -32.6422 0 -39.4997 -7.5323 0 
-54.982 10.9786 0 -55.6505 18.0812 0 -36.9559 -8.61511 0 
-62.8699 37.5886 0 -68.5264 38.0439 0 -41.9756 -30.2431 0 
-54.279 31.5102 0 -57.2044 37.7024 0 -47.693 0.79363 0 
-51.8975 6.73103 0 -58.3699 23.6608 0 -55.3147 34.7676 0 
-43.0324 -9.24999 0 -56.9006 29.4098 0 -66.2311 -5.26317 0 
-66.775 -7.81511 0 -66.1519 0.378969 0 -66.3232 3.15737 0 
-66.6166 6.02798 0 -66.7047 8.90516 0 -66.6316 11.5536 0 
-66.5961 14.3537 0 -66.3878 17.0719 0 -66.6942 19.9655 0 
-66.7185 22.8382 0 -66.5424 25.6996 0 -66.6461 28.8824 0 
-67.107 31.9806 0 -67.6523 35.1475 0 -49.262 -31.4102 0 
-45.4751 -32.6181 0 -52.5699 -31.5154 0 -46.3886 -1.0095 0 
-56.9572 20.7407 0 -44.9921 -13.5647 0 -46.8949 -18.3906 0 
-55.4389 -30.5132 0 -58.757 -30.402 0 -61.8946 -30.7477 0 
-65.014 -31.204 0 -68.2907 -31.9026 0 -58.0348 15.7176 0 
-52.1538 2.07385 0 -67.3298 -28.4964 0 -58.1485 33.3563 0 
-66.1785 -2.41805 0 -65.19 -16.5485 0 -53.3797 8.8459 0 
-59.4487 26.9203 0 -66.7471 -25.1727 0 -49.4232 -6.35958 0 
-65.7286 -19.6239 0 -65.8647 -10.2489 0 -47.143 -23.7251 0 
-61.5494 34.0359 0 -53.8179 4.2133 0 -60.2457 13.1097 0 
-50.3472 0.268598 0 -52.0955 34.3353 0 -58.5818 10.5992 0 
-46.3152 -28.3448 0 -65.257 -13.3144 0 -47.9484 -10.1566 0 
-60.6731 21.092 0 -62.8693 4.92568 0 -62.7294 2.0312 0 
-62.7702 10.3776 0 -62.4872 15.8435 0 -63.9984 21.2716 0 
-62.5747 24.2169 0 -63.2193 27.7634 0 -63.8529 31.1524 0 
-64.6581 34.5803 0 -66.828 -22.2059 0 -56.168 -26.0416 0 
-63.9181 -27.4069 0 -59.5621 18.2328 0 -62.5723 -1.07555 0 
-60.3663 -26.4077 0 -63.8652 7.60802 0 -62.9491 -7.71487 0 
-60.4062 30.3749 0 -51.3678 -27.3206 0 -56.7355 8.19285 0 
-61.8442 -19.0385 0 -49.5049 -2.498 0 -63.7472 13.064 0 
-63.2207 18.6832 0 -52.6596 -21.2648 0 -55.7612 1.30005 0 
-54.7652 6.52976 0 -51.2951 -14.8037 0 -61.3658 -15.129 0 
-62.6051 -4.20067 0 -53.4524 -1.35212 0 -63.2373 -22.961 0 
-60.2995 7.58178 0 -59.3491 0.908808 0 -61.7747 -11.213 0 
-52.9547 -9.83577 0 -57.9585 -2.24075 0 -56.9381 -12.928 0 
-54.2038 -5.39456 0 -59.154 -5.78727 0 -58.6158 -22.0979 0 
-57.9234 -8.97047 0 -57.1111 -17.6364 0 -58.2587 4.46649 0 
-39.0505 6.05533 0.994283 -34.28 5.73517 0.99609 -22.3239 -47.9527 1 
-82.3239 -47.9527 1 -23.3739 -47.9527 0 -25.5339 -47.9527 0 
-27.8739 -47.9527 0 -30.3639 -47.9527 0 -33.0039 -47.9527 0 
-35.7039 -47.9527 0 -38.4039 -47.9527 0 -41.1639 -47.9527 0 
-43.9539 -47.9527 0 -46.6839 -47.9527 0 -49.3539 -47.9527 0 
-51.9639 -47.9527 0 -54.7839 -47.9527 0 -57.6639 -47.9527 0 
-60.3039 -47.9527 0 -62.9439 -47.9527 0 -65.5839 -47.9527 0 
-68.2239 -47.9527 0 -70.8639 -47.9527 0 -73.5639 -47.9527 0 
-76.3839 -47.9527 0 -79.0539 -47.9527 0 -81.3039 -47.9527 0 
-23.3739 -47.9527 2 -25.5939 -47.9527 2 -27.8139 -47.9527 2 
-29.9739 -47.9527 2 -32.2239 -47.9527 2 -34.4139 -47.9527 2 
-36.6639 -47.9527 2 -38.8839 -47.9527 2 -41.0439 -47.9527 2 
-43.4139 -47.9527 2 -45.6939 -47.9527 2 -47.8839 -47.9527 2 
-50.1039 -47.9527 2 -52.2339 -47.9527 2 -54.3339 -47.9527 2 
-56.4939 -47.9527 2 -58.7439 -47.9527 2 -60.9339 -47.9527 2 
-63.1539 -47.9527 2 -65.3739 -47.9527 2 -67.5339 -47.9527 2 
-69.7539 -47.9527 2 -71.9439 -47.9527 2 -74.2239 -47.9527 2 
-76.5339 -47.9527 2 -78.7839 -47.9527 2 -81.1239 -47.9527 2 
-81.1239 52.0473 2 -78.8739 52.0473 2 -76.7439 52.0473 2 
-74.5539 52.0473 2 -72.4239 52.0473 2 -70.3839 52.0473 2 
-68.2839 52.0473 2 -66.1239 52.0473 2 -63.9939 52.0473 2 
-61.9239 52.0473 2 -59.8839 52.0473 2 -57.6939 52.0473 2 
-55.5339 52.0473 2 -53.4339 52.0473 2 -51.2439 52.0473 2 
-49.1139 52.0473 2 -46.9239 52.0473 2 -44.7939 52.0473 2 
-42.6939 52.0473 2 -40.3839 52.0473 2 -38.1639 52.0473 2 
-36.0339 52.0473 2 -33.8739 52.0473 2 -31.7439 52.0473 2 
-29.6439 52.0473 2 -27.5739 52.0473 2 -25.4139 52.0473 2 
-23.3139 52.0473 2 -82.3239 -46.8027 2 -82.3239 -44.5027 2 
-82.3239 -42.2527 2 -82.3239 -40.1027 2 -82.3239 -37.9027 2 
-82.3239 -35.6527 2 -82.3239 -33.4027 2 -82.3239 -31.2027 2 
-82.3239 -29.1527 2 -82.3239 -27.0027 2 -82.3239 -24.7527 2 
-82.3239 -22.6027 2 -82.3239 -20.5027 2 -82.3239 -18.4027 2 
-82.3239 -16.3027 2 -82.3239 -14.2027 2 -82.3239 -12.0027 2 
-82.3239 -9.80269 2 -82.3239 -7.70269 2 -82.3239 -5.55269 2 
-82.3239 -3.35269 2 -82.3239 -1.20269 2 -82.3239 0.997306 2 
-82.3239 3.19731 2 -82.3239 5.29731 2 -82.3239 7.54731 2 
-82.3239 9.84731 2 -82.3239 12.1473 2 -82.3239 14.3473 2 
-82.3239 16.4473 2 -82.3239 18.6473 2 -82.3239 20.9473 2 
-82.3239 23.1973 2 -82.3239 25.2973 2 -82.3239 27.3973 2 
-82.3239 29.6473 2 -82.3239 31.8473 2 -82.3239 33.8973 2 
-82.3239 36.0473 2 -82.3239 38.1973 2 -82.3239 40.2473 2 
-82.3239 42.3473 2 -82.3239 44.5473 2 -82.3239 46.7473 2 
-82.3239 48.8473 2 -82.3239 50.9473 2 -22.3239 50.8973 2 
-22.3239 48.1473 2 -22.3239 44.8473 2 -22.3239 41.1473 2 
-22.3239 36.7973 2 -22.3239 31.8473 2 -22.3239 26.5973 2 
-22.3239 21.5973 2 -22.3239 16.7973 2 -22.3239 12.0473 2 
-22.3239 7.59731 2 -22.3239 3.49731 2 -22.3239 -0.102694 2 
-22.3239 -3.65269 2 -22.3239 -7.30269 2 -22.3239 -11.0027 2 
-22.3239 -15.4527 2 -22.3239 -20.6027 2 -22.3239 -25.7527 2 
-22.3239 -30.5027 2 -22.3239 -34.8027 2 -22.3239 -38.4027 2 
-22.3239 -41.4027 2 -22.3239 -44.2027 2 -22.3239 -46.7527 2 
-44.4958 21.2838 2 -43.1875 20.2174 2 -42.52 18.194 2 
-41.7687 16.241 2 -40.8754 14.2227 2 -39.8746 12.241 2 
-38.8334 10.4114 2 -37.6906 8.61308 2 -36.4686 6.8832 2 
-35.2043 5.2642 2 -33.8478 3.6878 2 -32.4355 2.19619 2 
-30.9072 0.729898 2 -31.0878 -7.10543e-15 2 -45.2207 20.3273 2 
-44.5713 18.3382 2 -43.8124 16.3473 2 -42.9352 14.3496 2 
-41.9709 12.4211 2 -40.9382 10.5866 2 -39.7685 8.72979 2 
-38.5673 7.0165 2 -37.3092 5.39269 2 -35.8905 3.73518 2 
-34.4175 2.17808 2 -32.8978 0.721292 2 -81.2439 52.0473 0 
-78.9039 52.0473 0 -76.2939 52.0473 0 -73.5339 52.0473 0 
-70.8039 52.0473 0 -68.1039 52.0473 0 -65.3439 52.0473 0 
-62.6739 52.0473 0 -60.1839 52.0473 0 -57.6339 52.0473 0 
-54.9639 52.0473 0 -52.2039 52.0473 0 -49.4139 52.0473 0 
-46.6239 52.0473 0 -43.9239 52.0473 0 -41.2839 52.0473 0 
-38.5839 52.0473 0 -35.8839 52.0473 0 -33.1539 52.0473 0 
-30.4839 52.0473 0 -27.9039 52.0473 0 -25.5039 52.0473 0 
-23.3439 52.0473 0 -82.3239 -46.8027 0 -82.3239 -44.3027 0 
-82.3239 -41.6027 0 -82.3239 -38.9027 0 -82.3239 -36.1527 0 
-82.3239 -33.3027 0 -82.3239 -30.6027 0 -82.3239 -28.0527 0 
-82.3239 -25.2527 0 -82.3239 -22.5027 0 -82.3239 -19.9527 0 
-82.3239 -17.3027 0 -82.3239 -14.6027 0 -82.3239 -11.8527 0 
-82.3239 -9.10269 0 -82.3239 -6.40269 0 -82.3239 -3.60269 0 
-82.3239 -0.752694 0 -82.3239 1.99731 0 -82.3239 4.64731 0 
-82.3239 7.29731 0 -82.3239 9.94731 0 -82.3239 12.6973 0 
-82.3239 15.5973 0 -82.3239 18.4973 0 -82.3239 21.3473 0 
-82.3239 24.0473 0 -82.3239 26.7473 0 -82.3239 29.5973 0 
-82.3239 32.3473 0 -82.3239 35.1973 0 -82.3239 38.1473 0 
-82.3239 40.8973 0 -82.3239 43.5473 0 -82.3239 46.1973 0 
-82.3239 48.7473 0 -82.3239 50.9973 0 -22.3239 50.9473 0 
-22.3239 48.6973 0 -22.3239 46.0473 0 -22.3239 42.7973 0 
-22.3239 39.0973 0 -22.3239 34.9973 0 -22.3239 30.4473 0 
-22.3239 25.2473 0 -22.3239 19.9473 0 -22.3239 15.1973 0 
-22.3239 10.8973 0 -22.3239 6.79731 0 -22.3239 2.99731 0 
-22.3239 -0.402694 0 -22.3239 -3.90269 0 -22.3239 -7.90269 0 
-22.3239 -12.5027 0 -22.3239 -17.3027 0 -22.3239 -22.3527 0 
-22.3239 -27.4527 0 -22.3239 -31.7527 0 -22.3239 -35.3527 0 
-22.3239 -38.6527 0 -22.3239 -41.6527 0 -22.3239 -44.3527 0 
-22.3239 -46.8027 0 -44.4958 21.2838 0 -43.1986 20.254 0 
-42.5585 18.3022 0 -41.8317 16.3945 0 -41 14.4884 0 
-40.0484 12.5677 0 -38.9708 10.6414 0 -37.8391 8.83611 0 
-36.6127 7.07815 0 -35.2205 5.28394 0 -33.7622 3.59322 0 
-32.3364 2.09673 0 -30.8601 0.686897 0 -31.0878 -7.10543e-15 0 
-45.2023 20.2663 0 -44.5028 18.1459 0 -43.6608 15.9819 0 
-42.7766 14.0153 0 -41.8565 12.2073 0 -40.8334 10.4114 0 
-39.7473 8.69794 0 -38.5825 7.03704 0 -37.3092 5.39269 0 
-35.9928 3.84915 0 -34.5432 2.30504 0 -32.926 0.747117 0 
-22.3239 52.0473 1 -82.3239 52.0473 1 -45.4958 21.2838 1 
-32.0878 -7.10543e-15 1 -30.0878 -7.10543e-15 1 -43.4958 21.2838 1 
-23.3739 -47.9527 1 -81.3039 -47.9527 1 -24.4239 -47.9527 1 
-25.5339 -47.9527 1 -26.7039 -47.9527 1 -27.7539 -47.9527 1 
-28.9839 -47.9527 1 -30.0939 -47.9527 1 -31.3539 -47.9527 1 
-32.4939 -47.9527 1 -33.8739 -47.9527 1 -34.9239 -47.9527 1 
-36.2439 -47.9527 1 -37.4439 -47.9527 1 -38.8239 -47.9527 1 
-40.9839 -47.9527 1 -42.3639 -47.9527 1 -43.5939 -47.9527 1 
-45.0039 -47.9527 1 -46.0539 -47.9527 1 -47.3739 -47.9527 1 
-48.5139 -47.9527 1 -49.8639 -47.9527 1 -50.9439 -47.9527 1 
-52.2039 -47.9527 1 -54.3039 -47.9527 1 -55.8639 -47.9527 1 
-56.9739 -47.9527 1 -58.2939 -47.9527 1 -59.4339 -47.9527 1 
-60.7539 -47.9527 1 -61.8039 -47.9527 1 -63.1239 -47.9527 1 
-65.3439 -47.9527 1 -66.6639 -47.9527 1 -67.7739 -47.9527 1 
-69.0939 -47.9527 1 -70.2039 -47.9527 1 -71.5239 -47.9527 1 
-72.6039 -47.9527 1 -73.9839 -47.9527 1 -75.1839 -47.9527 1 
-76.6239 -47.9527 1 -78.8739 -47.9527 1 -80.1039 -47.9527 1 
-39.8439 -47.9527 1 -53.2539 -47.9527 1 -64.2939 -47.9527 1 
-77.7339 -47.9527 1 -81.1239 50.9473 2 -79.597 51.1413 2 
-78.547 51.1413 2 -77.4179 51.1727 2 -76.3379 51.1727 2 
-78.141 50.2667 2 -75.1742 51.1743 2 -74.0642 51.1743 2 
-75.8481 50.2997 2 -73.035 51.104 2 -72.015 51.104 2 
-73.6552 50.2309 2 -70.9397 51.0666 2 -69.9197 51.0666 2 
-71.5507 50.1233 2 -68.8724 51.067 2 -67.7924 51.067 2 
-69.4281 50.0863 2 -66.6828 51.0486 2 -65.6028 51.0486 2 
-67.2713 50.0683 2 -64.5485 51.0254 2 -63.4985 51.0254 2 
-65.1074 50.0267 2 -62.4112 51.0132 2 -61.3912 51.0132 2 
-62.9658 49.9913 2 -60.3492 51.031 2 -59.3292 51.031 2 
-60.8365 49.9969 2 -58.2678 51.0312 2 -57.0978 51.0312 2 
-58.7331 50.0149 2 -56.0408 51.0275 2 -55.0508 51.0275 2 
-56.6146 50.0114 2 -53.9904 51.0231 2 -52.8804 51.0231 2 
-54.4972 50.0033 2 -51.7692 51.0266 2 -50.6892 51.0266 2 
-52.3257 50.0024 2 -49.6267 51.0363 2 -48.5767 51.0363 2 
-50.1519 50.0156 2 -47.4608 51.0414 2 -46.3208 51.0414 2 
-47.9735 50.0304 2 -45.2906 51.0439 2 -44.3007 51.0439 2 
-45.8275 50.038 2 -43.1972 51.0637 2 -42.0872 51.0637 2 
-43.6939 50.0602 2 -40.9758 51.0775 2 -39.7758 51.0775 2 
-41.4791 50.0938 2 -38.7087 51.0878 2 -37.6887 51.0878 2 
-39.3005 50.118 2 -36.5757 51.0941 2 -35.4657 51.0941 2 
-37.1204 50.1346 2 -34.3832 51.104 2 -33.3332 51.104 2 
-34.9249 50.1508 2 -32.2756 51.1217 2 -31.1956 51.1217 2 
-32.7849 50.1784 2 -30.1515 51.1173 2 -29.1315 51.1173 2 
-30.6832 50.1917 2 -28.0951 51.0302 2 -27.0451 51.0302 2 
-28.6027 50.1003 2 -25.9458 50.9074 2 -24.8358 50.9074 2 
-26.467 49.8903 2 -23.3139 50.8973 2 -44.4958 21.2838 1 
-23.8458 49.7574 2 -81.1239 -46.8027 2 -81.3618 -45.2434 2 
-81.3618 -44.0934 2 -81.3817 -42.8444 2 -81.3817 -41.7444 2 
-80.4196 -43.5851 2 -81.3371 -40.6594 2 -81.3371 -39.6094 2 
-80.3949 -41.2511 2 -81.344 -38.4787 2 -81.344 -37.3287 2 
-80.3571 -39.0354 2 -81.339 -36.2587 2 -81.339 -35.1587 2 
-80.359 -36.8347 2 -81.3416 -34.0472 2 -81.3416 -32.8972 2 
-80.3566 -34.6532 2 -81.304 -31.759 2 -81.304 -30.709 2 
-80.3216 -32.4035 2 -81.2646 -29.6297 2 -81.2646 -28.6297 2 
-80.2446 -30.186 2 -81.3001 -27.6066 2 -81.3001 -26.4566 2 
-80.2407 -28.0836 2 -81.2961 -25.3517 2 -81.2961 -24.2517 2 
-80.2723 -25.9556 2 -81.273 -23.1387 2 -81.273 -22.0887 2 
-80.2452 -23.7377 2 -81.282 -21.0233 2 -81.282 -19.9733 2 
-80.2311 -21.5593 2 -81.2839 -18.9435 2 -81.2839 -17.8935 2 
-80.242 -19.4641 2 -81.286 -16.8175 2 -81.286 -15.7675 2 
-80.246 -17.3584 2 -81.2928 -14.7321 2 -81.2928 -13.6821 2 
-80.2548 -15.2469 2 -81.3227 -12.5732 2 -81.3227 -11.4232 2 
-80.2915 -13.1025 2 -81.3082 -10.3526 2 -81.3082 -9.30262 2 
-80.307 -10.9231 2 -81.311 -8.23387 2 -81.311 -7.18387 2 
-80.2953 -8.7838 2 -81.303 -6.07552 2 -81.303 -4.97552 2 
-80.2901 -6.6067 2 -81.2865 -3.8798 2 -81.2865 -2.7798 2 
-80.2656 -4.40262 2 -81.2823 -1.73321 2 -81.2823 -0.683209 2 
-80.2449 -2.26031 2 -81.302 0.435324 2 -81.302 1.58532 2 
-80.2604 -0.0951914 2 -81.2819 2.65632 2 -81.2819 3.70632 2 
-80.26 2.09433 2 -81.257 4.8191 2 -81.257 5.8691 2 
-80.215 4.27811 2 -81.2591 6.98492 2 -81.2591 8.18492 2 
-80.1922 6.50672 2 -81.2724 9.3063 2 -81.2724 10.4063 2 
-80.2075 8.74391 2 -81.2747 11.5242 2 -81.2747 12.7242 2 
-80.2232 10.9832 2 -81.2613 13.8244 2 -81.2613 14.8244 2 
-80.2121 13.2013 2 -81.2943 15.9278 2 -81.2943 17.0278 2 
-80.2317 15.4049 2 -81.3002 18.1152 2 -81.3002 19.2152 2 
-80.2705 17.5957 2 -81.3103 20.2854 2 -81.3103 21.4854 2 
-80.2866 19.7533 2 -81.3072 22.6054 2 -81.3072 23.6554 2 
-80.2935 21.9435 2 -81.308 24.733 2 -81.308 25.783 2 
-80.2912 24.1411 2 -81.346 26.8828 2 -81.346 27.9328 2 
-80.33 26.3185 2 -81.3549 29.0168 2 -81.3549 30.2168 2 
-80.3769 28.5022 2 -81.3166 31.3269 2 -81.3166 32.3269 2 
-80.3476 30.6963 2 -81.3049 33.4302 2 -81.3049 34.4802 2 
-80.2976 32.9098 2 -81.3235 35.4915 2 -81.3235 36.5915 2 
-80.3045 35.0244 2 -81.3512 37.6567 2 -81.3512 38.7067 2 
-80.3508 37.1009 2 -81.3525 39.7445 2 -81.3525 40.7445 2 
-80.3798 39.2038 2 -81.371 41.8276 2 -81.371 42.9276 2 
-80.3996 41.3248 2 -81.376 44.0276 2 -81.376 45.1276 2 
-80.4231 43.5079 2 -81.3679 46.1577 2 -81.3679 47.2577 2 
-80.42 45.638 2 -81.421 48.2296 2 -81.421 49.2296 2 
-80.465 47.6399 2 -23.6677 45.5752 2 -23.6677 43.8752 2 
-23.8784 42.0181 2 -23.8784 40.0181 2 -25.2222 42.7461 2 
-23.9651 37.7509 2 -23.9651 35.4009 2 -25.5196 38.6218 2 
-24.082 32.8362 2 -24.082 30.2362 2 -25.7232 33.7898 2 
-24.2052 27.6992 2 -24.2052 25.0492 2 -25.9633 28.6881 2 
-24.1993 22.7508 2 -24.1993 20.4008 2 -26.0806 23.8527 2 
-24.1939 17.8303 2 -24.1939 15.3803 2 -26.0693 18.9838 2 
-24.1083 13.1665 2 -24.1083 10.8665 2 -25.9783 14.1995 2 
-24.0061 8.5507 2 -24.0061 6.4007 2 -25.7905 9.66988 2 
-23.9224 4.39288 2 -23.9224 2.44288 2 -25.6045 5.34627 2 
-23.7897 0.653167 2 -23.7897 -0.996833 2 -25.3881 1.54874 2 
-23.7416 -2.72507 2 -23.7416 -4.62507 2 -25.2073 -1.96921 2 
-23.7202 -6.45178 2 -23.7202 -8.20178 2 -25.1378 -5.52416 2 
-23.8485 -10.0698 2 -23.8485 -12.0198 2 -25.2447 -9.21886 2 
-24.0404 -14.2668 2 -24.0404 -16.7668 2 -25.5649 -13.3338 2 
-24.1311 -19.1178 2 -24.1311 -21.7678 2 -25.8475 -17.9318 2 
-24.1422 -24.2705 2 -24.1422 -26.7705 2 -25.9494 -22.7856 2 
-24.103 -29.0956 2 -24.103 -31.3456 2 -25.9213 -27.6134 2 
-24.0473 -33.4658 2 -24.0473 -35.5158 2 -25.8263 -32.0587 2 
-24.0953 -37.557 2 -24.0953 -39.107 2 -25.8186 -36.2201 2 
-23.5339 -40.733 2 -23.5339 -42.183 2 -25.3053 -39.8873 2 
-23.2726 -43.3923 2 -23.2726 -44.7423 2 -24.4826 -42.7226 2 
-23.3739 -46.7527 2 -24.8611 -46.9197 2 -26.0311 -46.9197 2 
-27.2627 -46.9255 2 -28.3127 -46.9255 2 -26.5299 -45.8926 2 
-29.4337 -46.9533 2 -30.5437 -46.9533 2 -28.8825 -45.9261 2 
-31.7141 -46.9891 2 -32.8541 -46.9891 2 -31.1739 -45.9896 2 
-33.9595 -46.9711 2 -35.0095 -46.9711 2 -33.4497 -46.0075 2 
-36.1073 -46.962 2 -37.3073 -46.962 2 -35.6529 -45.9805 2 
-38.4563 -46.9727 2 -39.4763 -46.9727 2 -37.8997 -45.982 2 
-40.6002 -46.9758 2 -41.7402 -46.9758 2 -40.1726 -45.9958 2 
-42.9004 -46.9679 2 -44.1304 -46.9679 2 -42.4566 -45.991 2 
-45.2101 -46.9396 2 -46.2601 -46.9396 2 -44.6965 -45.9548 2 
-47.3824 -46.93 2 -48.5224 -46.93 2 -46.8985 -45.9169 2 
-49.6495 -46.93 2 -50.7295 -46.93 2 -49.148 -45.9073 2 
-51.7797 -46.9173 2 -52.8297 -46.9173 2 -51.3253 -45.8945 2 
-53.9292 -46.9083 2 -54.9792 -46.9083 2 -53.4749 -45.8729 2 
-56.0381 -46.9078 2 -57.1481 -46.9078 2 -55.6333 -45.8634 2 
-58.2775 -46.9226 2 -59.4175 -46.9226 2 -57.8216 -45.8778 2 
-60.5364 -46.9317 2 -61.5864 -46.9317 2 -60.07 -45.9017 2 
-62.7131 -46.9443 2 -63.8831 -46.9443 2 -62.3156 -45.9233 2 
-64.9786 -46.9404 2 -66.0286 -46.9404 2 -64.5378 -45.932 2 
-67.1762 -46.9337 2 -68.2862 -46.9337 2 -66.7809 -45.9214 2 
-69.3653 -46.9731 2 -70.4753 -46.9731 2 -69.0076 -45.9541 2 
-71.5736 -47.018 2 -72.6536 -47.018 2 -71.185 -46.0384 2 
-73.629 -47.1981 2 -74.829 -47.1981 2 -73.2587 -46.2634 2 
-75.8345 -47.084 2 -76.9445 -47.084 2 -75.2396 -46.3294 2 
-78.009 -46.9302 2 -79.149 -46.9302 2 -77.3096 -46.0615 2 
-44.0775 22.5735 2 -45.0775 22.5735 2 -42.0108 20.2266 2 
-42.3326 21.2889 2 -41.3623 18.1485 2 -41.7057 19.1097 2 
-40.8644 20.1771 2 -40.6627 16.1676 2 -41.0714 17.1583 2 
-40.2684 18.07 2 -39.6943 14.1315 2 -40.1801 15.1578 2 
-39.495 16.0701 2 -38.64 12.2678 2 -39.1534 13.2231 2 
-38.4716 14.1519 2 -37.6382 10.497 2 -38.1644 11.3716 2 
-37.4551 12.3473 2 -36.5187 8.65902 2 -37.1369 9.58097 2 
-36.4782 10.535 2 -35.3215 6.97321 2 -35.9229 7.78206 2 
-35.381 8.74206 2 -33.9581 5.36353 2 -34.6214 6.17267 2 
-34.0851 7.06456 2 -32.4864 3.74261 2 -33.179 4.50963 2 
-32.6058 5.41011 2 -31.0366 2.09432 2 -31.7557 2.8187 2 
-31.096 3.6323 2 -30.2266 1.35419 2 -31.4521 -1.17452 2 
-30.4521 -1.17452 2 -46.4276 20.5481 2 -46.1416 19.5949 2 
-45.7584 18.5367 2 -45.3929 17.5021 2 -46.9763 18.7541 2 
-44.9554 16.4867 2 -44.5637 15.5303 2 -44.0842 14.4582 2 
-43.5963 13.4188 2 -45.2385 14.593 2 -43.0929 12.4579 2 
-42.6199 11.5678 2 -42.0688 10.596 2 -41.5076 9.65314 2 
-43.2012 10.6273 2 -40.8845 8.67765 2 -40.2764 7.76433 2 
-42.027 8.67999 2 -39.6436 6.8909 2 -39.0528 6.09002 2 
-38.4487 5.23313 2 -37.7805 4.41158 2 -39.5341 5.10077 2 
-37.049 3.54533 2 -36.2978 2.71094 2 -38.1985 3.37763 2 
-35.5291 1.86979 2 -34.8095 1.14583 2 -34.0783 0.280976 2 
-33.2775 -0.450308 2 -35.1984 -0.0357631 2 -80.797 50.0413 2 
-80.1618 -46.3934 2 -23.3842 48.6495 2 -23.3842 47.0495 2 
-46.0084 23.9041 2 -46.4266 22.6143 2 -42.702 22.5147 2 
-43.2837 23.8044 2 -23.8111 -45.7197 2 -41.5388 22.5198 2 
-29.0363 0.7171 2 -29.1751 2.07129 2 -29.4217 -2.19431 2 
-29.0573 -1.01979 2 -47.03 21.6081 2 -47.9619 20.8724 2 
-47.9609 22.9387 2 -32.6022 -1.43615 2 -31.9665 -2.61067 2 
-33.7919 -1.88646 2 -40.7711 6.83108 2 -46.1556 16.6805 2 
-44.2556 12.56 2 -36.6983 1.67024 2 -24.728 46.0774 2 
-24.7598 -44.9094 2 -28.0059 -0.302685 2 -79.3869 -45.3709 2 
-76.4984 49.4848 2 -75.3346 49.4863 2 -74.2585 49.3055 2 
-73.2293 49.2352 2 -74.9087 48.4906 2 -72.1836 49.1471 2 
-71.1083 49.1097 2 -72.7869 48.2217 2 -70.0391 49.0537 2 
-68.9919 49.0541 2 -70.672 48.0775 2 -67.871 48.9976 2 
-66.7614 48.9792 2 -68.482 47.965 2 -65.6565 48.9813 2 
-64.6022 48.9581 2 -66.2562 47.9106 2 -63.4862 48.9544 2 
-62.399 48.9422 2 -64.0354 47.909 2 -61.3369 48.925 2 
-60.2948 48.9428 2 -61.8573 47.8881 2 -59.2387 48.9646 2 
-58.1773 48.9648 2 -59.7391 47.8927 2 -57.1275 48.9866 2 
-56.0705 48.983 2 -57.6332 47.9363 2 -55.0303 48.9913 2 
-53.9699 48.9869 2 -55.5432 47.9665 2 -52.8841 48.9466 2 
-51.7729 48.9501 2 -53.4172 47.9345 2 -50.6993 48.9657 2 
-49.6368 48.9753 2 -51.2578 47.9098 2 -48.5159 48.9713 2 
-47.4 48.9764 2 -49.0633 47.9213 2 -46.3281 49.0104 2 
-45.298 49.0129 2 -46.8705 47.9514 2 -44.2535 49.0136 2 
-43.1501 49.0334 2 -44.7541 47.9861 2 -41.9817 49.0216 2 
-40.8703 49.0354 2 -42.5413 47.975 2 -39.8015 49.0198 2 
-38.7344 49.0301 2 -40.3042 47.9476 2 -37.6712 49.0857 2 
-36.5582 49.0919 2 -38.1722 47.9875 2 -35.4066 49.1318 2 
-34.3241 49.1418 2 -35.9574 48.0829 2 -33.2763 49.1904 2 
-32.2187 49.2081 2 -33.758 48.1715 2 -31.2121 49.2161 2 
-30.168 49.2117 2 -31.7035 48.2281 2 -29.2215 49.2331 2 
-28.1851 49.1459 2 -29.7504 48.2574 2 -26.6151 43.7789 2 
-26.8257 41.9218 2 -79.894 49.4236 2 -79.3818 -41.8243 2 
-79.3372 -40.7392 2 -79.2986 -39.6041 2 -79.3054 -38.4734 2 
-78.2855 -40.1772 2 -79.3244 -37.389 2 -79.3194 -36.3189 2 
-78.2658 -37.9576 2 -79.3039 -35.2693 2 -79.3066 -34.1578 2 
-78.2693 -35.8235 2 -79.2703 -33.0075 2 -79.2327 -31.8693 2 
-78.2176 -33.6236 2 -79.202 -30.7408 2 -79.1626 -29.6615 2 
-78.1506 -31.3448 2 -79.1469 -28.5946 2 -79.1824 -27.5715 2 
-78.1043 -29.1494 2 -79.1593 -26.5286 2 -79.1553 -25.4237 2 
-78.0655 -27.0396 2 -79.1519 -24.3243 2 -79.1289 -23.2113 2 
-78.039 -24.8973 2 -79.1622 -22.0873 2 -79.1712 -21.0218 2 
-78.0689 -22.6739 2 -79.1602 -19.9974 2 -79.1621 -18.9677 2 
-78.0912 -20.5254 2 -79.1537 -17.9242 2 -79.1557 -16.8483 2 
-78.0718 -18.4576 2 -79.1719 -15.7991 2 -79.1787 -14.7636 2 
-78.0796 -16.3649 2 -79.1902 -13.6548 2 -79.2201 -12.5458 2 
-78.1073 -14.2069 2 -79.2204 -11.4246 2 -79.206 -10.354 2 
-78.1191 -11.9768 2 -79.1802 -9.32718 2 -79.183 -8.25844 2 
-78.0937 -9.82867 2 -79.1714 -7.16084 2 -79.1634 -6.05249 2 
-78.0564 -7.70423 2 -79.1937 -4.95536 2 -79.1772 -3.85964 2 
-78.0751 -5.5095 2 -79.1638 -2.77164 2 -79.1597 -1.72505 2 
-78.092 -3.32438 2 -79.1643 -0.664148 2 -79.184 0.454385 2 
-78.0832 -1.17547 2 -79.1827 1.59973 2 -79.1626 2.67072 2 
-78.0865 1.03077 2 -79.1462 3.73497 2 -79.1213 4.84775 2 
-78.0689 3.24036 2 -79.125 5.95195 2 -79.127 7.06777 2 
-78.0562 5.4088 2 -79.1497 8.21136 2 -79.163 9.33274 2 
-78.0825 7.65659 2 -79.1376 10.4162 2 -79.14 11.534 2 
-78.0798 9.88361 2 -79.1322 12.6625 2 -79.1188 13.7628 2 
-78.0466 12.0956 2 -79.1216 14.8268 2 -79.1545 15.9302 2 
-78.0416 14.2881 2 -79.1675 17.0634 2 -79.1734 18.1509 2 
-78.0574 16.4854 2 -79.2078 19.2183 2 -79.2179 20.2884 2 
-78.1048 18.686 2 -79.2565 21.3628 2 -79.2533 22.4828 2 
-78.1777 20.8278 2 -79.2835 23.5692 2 -79.2844 24.6467 2 
-78.2465 22.9885 2 -79.2946 25.7449 2 -79.3326 26.8446 2 
-78.2869 25.1729 2 -79.3269 27.9554 2 -79.3359 29.0394 2 
-78.2915 27.3818 2 -79.2849 30.1461 2 -79.2465 31.2563 2 
-78.2348 29.5993 2 -79.2199 32.3573 2 -79.2083 33.4606 2 
-78.1573 31.8071 2 -79.2093 34.5433 2 -79.2279 35.5546 2 
-78.1317 33.9908 2 -79.2374 36.5597 2 -79.2651 37.6249 2 
-78.1422 36.0786 2 -79.3283 38.7045 2 -79.3296 39.7423 2 
-78.2149 38.1633 2 -79.3962 40.8051 2 -79.4148 41.8882 2 
-78.3447 40.3057 2 -79.4767 42.9684 2 -79.4817 44.0684 2 
-78.4733 42.4487 2 -79.4301 45.1759 2 -79.4221 46.206 2 
-78.4837 44.6364 2 -79.3466 47.3917 2 -79.3996 48.3636 2 
-78.3567 46.9296 2 -25.3423 -43.8031 2 -25.8808 -44.7806 2 
-27.1124 -44.7864 2 -79.4634 -44.1884 2 -79.4833 -42.9394 2 
-78.4256 -42.4275 2 -26.9871 39.5846 2 -27.0738 37.3174 2 
-27.3316 34.9924 2 -27.4485 32.4277 2 -28.7992 35.9552 2 
-27.7347 29.791 2 -27.8578 27.2541 2 -27.9997 24.8538 2 
-27.9939 22.5554 2 -29.7711 25.9567 2 -27.9665 20.1099 2 
-27.9611 17.5394 2 -29.8857 21.1109 2 -27.7995 15.2049 2 
-27.7139 12.9911 2 -29.6967 16.331 2 -27.4078 10.5559 2 
-27.3056 8.24009 2 -26.7528 2.38633 2 -26.6201 0.596614 2 
-26.3619 -4.67975 2 -26.3405 -6.50646 2 -26.5586 -8.2392 2 
-26.6869 -10.1072 2 -27.0695 -12.1964 2 -27.2615 -14.4434 2 
-28.3834 -11.2167 2 -27.5658 -16.6184 2 -27.6565 -18.9694 2 
-27.8015 -21.3578 2 -27.8126 -23.8606 2 -29.5197 -20.0444 2 
-27.8387 -26.2309 2 -27.7995 -28.556 2 -29.6908 -24.8031 2 
-27.7523 -30.7263 2 -27.6966 -32.8464 2 -29.6697 -29.3437 2 
-27.6911 -34.775 2 -27.7391 -36.8162 2 -29.6171 -33.4426 2 
-26.7849 -39.6822 2 -27.8542 -38.4473 2 -28.7725 -39.8682 2 
-29.7267 -37.0022 2 -25.6036 -42.5939 2 -40.1542 22.3681 2 
-40.5235 23.5939 2 -42.5318 25.2026 2 -43.9073 25.2614 2 
-28.3884 -44.8027 2 -29.5095 -44.8304 2 -27.7393 -43.6906 2 
-30.6499 -44.9175 2 -31.8202 -44.9533 2 -30.1558 -43.794 2 
-32.9663 -44.9971 2 -34.0717 -44.9792 2 -32.4423 -43.9249 2 
-35.1885 -44.9117 2 -36.2863 -44.9025 2 -34.7052 -43.9012 2 
-37.3751 -44.8918 2 -38.5241 -44.9025 2 -36.9107 -43.823 2 
-39.6792 -44.9357 2 -40.8031 -44.9388 2 -39.1546 -43.8455 2 
-41.9855 -44.9014 2 -43.1456 -44.8935 2 -41.4921 -43.8413 2 
-44.214 -44.848 2 -45.2937 -44.8196 2 -43.7428 -43.7583 2 
-46.398 -44.7994 2 -47.5203 -44.7898 2 -45.9155 -43.6925 2 
-48.6739 -44.7797 2 -49.801 -44.7796 2 -48.1733 -43.6621 2 
-50.9031 -44.7843 2 -51.9532 -44.7717 2 -50.429 -43.6567 2 
-53.0131 -44.7584 2 -54.1126 -44.7494 2 -52.5909 -43.6482 2 
-55.1887 -44.7791 2 -56.2476 -44.7786 2 -54.7269 -43.6646 2 
-57.3713 -44.7706 2 -58.5007 -44.7854 2 -56.9268 -43.6863 2 
-59.6448 -44.7934 2 -60.7638 -44.8025 2 -59.1945 -43.6863 2 
-61.8895 -44.8046 2 -63.0161 -44.8171 2 -61.4643 -43.6963 2 
-64.1267 -44.8126 2 -65.2222 -44.8087 2 -63.7006 -43.6938 2 
-66.3853 -44.8217 2 -67.5329 -44.815 2 -65.9742 -43.7023 2 
-68.7188 -44.8362 2 -69.7979 -44.8756 2 -68.3232 -43.7365 2 
-70.9647 -44.9206 2 -72.063 -44.9656 2 -70.6759 -43.8028 2 
-73.3337 -45.2103 2 -74.3091 -45.3904 2 -73.1134 -44.0926 2 
-75.3146 -45.2763 2 -76.5011 -45.345 2 -77.5656 -45.1913 2 
-75.5706 -44.4061 2 -30.233 -3.38132 2 -28.8382 -3.22658 2 
-39.6268 20.0545 2 -39.932 21.1714 2 -38.9167 22.2455 2 
-37.1625 14.3182 2 -37.7034 15.2266 2 -36.1481 12.4919 2 
-36.6237 13.388 2 -35.8555 14.4628 2 -35.2067 10.5685 2 
-35.708 11.4845 2 -34.8765 12.5253 2 -34.293 8.77663 2 
-34.8888 9.65358 2 -34.1187 10.6031 2 -32.7555 7.33087 2 
-33.4556 8.13141 2 -32.9634 9.04294 2 -31.3289 5.56224 2 
-32.1081 6.41614 2 -31.4786 7.483 2 -29.4887 3.78745 2 
-30.2193 4.71136 2 -29.7216 5.71739 2 -78.4506 -44.7252 2 
-45.5424 12.5554 2 -45.0389 11.5945 2 -37.9378 1.44715 2 
-37.1691 0.606002 2 -43.3026 8.61218 2 -42.6795 7.63669 2 
-47.518 16.7953 2 -47.0804 15.7799 2 -39.3919 3.19332 2 
-38.6604 2.32708 2 -39.1312 1.26284 2 -25.6413 47.2965 2 
-25.9248 45.8222 2 -42.0021 6.69942 2 -41.3693 5.826 2 
-43.2778 6.6316 2 -28.2984 3.15036 2 -45.4269 25.2551 2 
-46.776 25.2959 2 -44.675 26.6533 2 -39.1132 17.9026 2 
-39.404 18.8928 2 -38.4716 19.8871 2 -38.4056 15.9582 2 
-38.8882 16.968 2 -38.0237 17.7908 2 -37.0965 16.1245 2 
-48.347 18.9369 2 -47.9638 17.8787 2 -48.8887 16.9781 2 
-46.5779 14.6819 2 -46.0984 13.6098 2 -47.9403 14.7967 2 
-44.4753 10.5805 2 -43.9242 9.60868 2 -44.5767 8.56538 2 
-40.7036 4.91566 2 -40.0994 4.05877 2 -41.9347 4.784 2 
-36.4111 -0.318263 2 -35.6799 -1.18312 2 -37.6506 -0.541351 2 
-78.7756 49.1754 2 -77.6465 49.2067 2 -77.133 48.3934 2 
-28.38 40.6174 2 -27.5284 44.998 2 -27.2022 48.5272 2 
-26.1029 48.4044 2 -24.9061 48.6596 2 -39.5275 24.9402 2 
-40.9122 25.0919 2 -41.5358 26.5489 2 -45.762 10.5759 2 
-32.4448 -3.95038 2 -31.2947 -3.68876 2 -30.7112 -4.72103 2 
-26.6411 -1.14027 2 -29.3431 30.9937 2 -29.229 11.5613 2 
-27.1501 6.1103 2 -27.0664 4.10248 2 -27.7827 -7.3948 2 
-26.593 -2.86851 2 -29.0704 -15.4809 2 -77.6421 -44.0087 2 
-47.7927 26.551 2 -48.3742 25.1999 2 -46.8817 12.6443 2 
-49.2688 21.0403 2 -48.6664 19.9802 2 -49.6539 19.1048 2 
-34.9859 -2.18558 2 -34.3106 -3.17143 2 -36.1986 -2.46808 2 
-28.7675 6.9963 2 -49.7778 25.1958 2 -48.7611 23.9408 2 
-49.3645 22.9346 2 -27.7958 -3.85081 2 -40.5614 3.00821 2 
-73.4797 47.2465 2 -72.434 47.1584 2 -71.3213 47.0273 2 
-70.2521 46.9713 2 -72.0141 46.0521 2 -69.1353 46.8946 2 
-68.0144 46.8382 2 -69.7845 45.8444 2 -66.8507 46.7497 2 
-65.7458 46.7517 2 -67.504 45.6793 2 -64.6214 46.7091 2 
-63.5055 46.7055 2 -65.2159 45.5482 2 -62.3595 46.7563 2 
-61.2974 46.739 2 -62.9455 45.5564 2 -60.2324 46.7832 2 
-59.1762 46.805 2 -60.7345 45.6514 2 -58.1511 46.8359 2 
-57.1013 46.8578 2 -58.6443 45.7265 2 -56.0604 46.8999 2 
-55.0201 46.9082 2 -56.5783 45.7995 2 -53.934 46.8143 2 
-52.8483 46.774 2 -54.4513 45.7477 2 -51.8216 46.7003 2 
-50.7479 46.7159 2 -52.3384 45.5801 2 -49.6057 46.7538 2 
-48.4849 46.7498 2 -50.1695 45.5444 2 -47.4344 46.8158 2 
-46.3625 46.8499 2 -47.9769 45.6483 2 -45.2436 46.8723 2 
-44.1991 46.873 2 -45.8075 45.7367 2 -43.0753 46.7947 2 
-41.907 46.7829 2 -43.5648 45.6809 2 -40.7797 46.7378 2 
-39.7109 46.7222 2 -41.3137 45.5576 2 -38.6383 46.7563 2 
-37.5751 46.8119 2 -39.1139 45.5466 2 -36.4277 46.9319 2 
-35.2761 46.9718 2 -36.8938 45.7007 2 -34.1409 47.1013 2 
-33.0931 47.15 2 -34.6112 45.9503 2 -32.1467 47.2732 2 
-31.14 47.2812 2 -32.5297 46.2031 2 -30.1732 37.0943 2 
-30.431 34.7693 2 -77.0596 47.2989 2 -75.9115 47.5769 2 
-77.1351 46.1132 2 -77.1946 -38.5382 2 -77.2136 -37.4537 2 
-77.2358 -36.3752 2 -77.2204 -35.3255 2 -76.1646 -36.9557 2 
-77.1134 -34.2851 2 -77.0771 -33.1348 2 -76.0798 -34.8367 2 
-77.0399 -31.9571 2 -77.0092 -30.8287 2 -75.9357 -32.6187 2 
-76.9791 -29.7067 2 -76.9634 -28.6398 2 -75.8683 -30.3191 2 
-76.9343 -27.594 2 -76.9112 -26.5511 2 -75.8091 -28.1513 2 
-76.8952 -25.4606 2 -76.8918 -24.3612 2 -75.764 -26.0151 2 
-76.8938 -23.2718 2 -76.9271 -22.1478 2 -75.75 -23.8351 2 
-76.9427 -21.0375 2 -76.9317 -20.0131 2 -75.7676 -21.6354 2 
-76.9375 -18.9872 2 -76.9291 -17.9438 2 -75.789 -19.4993 2 
-76.9529 -16.8911 2 -76.9691 -15.8419 2 -75.8186 -17.4207 2 
-76.9679 -14.7743 2 -76.9795 -13.6655 2 -75.8413 -15.3005 2 
-76.9953 -12.5486 2 -76.9956 -11.4274 2 -75.856 -13.116 2 
-76.9664 -10.3181 2 -76.9407 -9.29125 2 -75.8426 -10.8899 2 
-76.9151 -8.24624 2 -76.9035 -7.14864 2 -75.7878 -8.73566 2 
-76.8978 -6.0523 2 -76.9281 -4.95517 2 -75.7566 -6.59431 2 
-76.933 -3.83438 2 -76.9196 -2.74638 2 -75.7558 -4.37717 2 
-76.942 -1.69028 2 -76.9466 -0.629378 2 -75.783 -2.20029 2 
-76.9526 0.449389 2 -76.9514 1.59473 2 -75.8114 -0.0654168 2 
-76.9557 2.71819 2 -76.9393 3.78243 2 -75.8218 2.1368 2 
-76.9368 4.86458 2 -76.9405 5.96877 2 -75.8236 4.3424 2 
-76.9246 7.09407 2 -76.9472 8.23766 2 -75.8052 6.54984 2 
-76.9554 9.37974 2 -76.93 10.4632 2 -75.7975 8.81722 2 
-76.9166 11.5505 2 -76.9089 12.6791 2 -75.7923 11.0467 2 
-76.9175 13.7657 2 -76.9203 14.8297 2 -75.7875 13.2207 2 
-76.9377 15.9282 2 -76.9507 17.0614 2 -75.8135 15.4057 2 
-76.9489 18.1647 2 -76.9833 19.2321 2 -75.8292 17.6075 2 
-77.01 20.2652 2 -77.0485 21.3396 2 -75.8541 19.7438 2 
-77.088 22.4441 2 -77.1182 23.5304 2 -75.9203 21.8815 2 
-77.1213 24.6301 2 -77.1316 25.7283 2 -75.9628 24.0858 2 
-77.1277 26.8177 2 -77.122 27.9285 2 -75.962 26.2749 2 
-77.1147 29.0512 2 -77.0637 30.1579 2 -75.9509 28.4871 2 
-77.0186 31.2862 2 -76.992 32.3872 2 -75.8985 30.7381 2 
-76.9681 33.4944 2 -76.9691 34.5771 2 -75.8294 32.9736 2 
-77.0016 35.6062 2 -77.0111 36.6113 2 -75.838 35.1098 2 
-77.0714 37.6665 2 -77.1346 38.7461 2 -75.9309 37.1941 2 
-77.1946 39.826 2 -77.2612 40.8888 2 -76.0511 39.3292 2 
-77.3783 41.9754 2 -77.4403 43.0556 2 -76.2282 41.4957 2 
-77.6368 44.0509 2 -77.5852 45.1584 2 -76.2882 45.5277 2 
-76.5418 43.5776 2 -29.7725 41.4578 2 -29.9339 39.1206 2 
-31.6017 22.1373 2 -31.5744 19.6919 2 -30.9468 32.3136 2 
-31.2329 29.6769 2 -32.3208 33.4526 2 -28.8587 -6.40089 2 
-29.0768 -8.13363 2 -26.2236 -41.3082 2 -27.0833 -42.3887 2 
-76.501 -43.4863 2 -77.386 -43.0202 2 -77.2845 -41.9051 2 
-31.6143 -23.5567 2 -31.6404 -25.9269 2 -31.6231 -28.1178 2 
-31.576 -30.2881 2 -33.5466 -26.8714 2 -31.4639 -32.3531 2 
-31.4585 -34.2816 2 -33.4174 -31.1272 2 -31.3293 -35.9988 2 
-31.4444 -37.6299 2 -33.1762 -34.9093 2 -47.0898 10.5437 2 
-46.5262 9.52963 2 -50.3302 17.239 2 -49.8844 16.1556 2 
-37.2768 19.526 2 -37.4996 20.6877 2 -47.1806 28.0025 2 
-48.7788 27.9064 2 -29.7432 -42.6 2 -30.8836 -42.6871 2 
-31.956 -43.0117 2 -33.1021 -43.0555 2 -31.5434 -41.8176 2 
-34.1562 -42.7588 2 -35.273 -42.6913 2 -33.6699 -41.8456 2 
-36.3651 -42.7065 2 -37.4539 -42.6958 2 -35.8161 -41.5641 2 
-38.6275 -42.8291 2 -39.7827 -42.8623 2 -38.0819 -41.7126 2 
-40.9432 -42.755 2 -42.1256 -42.7176 2 -40.4162 -41.7386 2 
-43.2445 -42.5592 2 -44.3129 -42.5137 2 -42.6956 -41.4729 2 
-45.3867 -42.4601 2 -46.491 -42.4398 2 -44.8884 -41.261 2 
-47.6359 -42.4615 2 -48.7895 -42.4514 2 -47.1072 -41.2291 2 
-49.9345 -42.4602 2 -51.0366 -42.465 2 -49.3971 -41.2596 2 
-52.1211 -42.4812 2 -53.1809 -42.4679 2 -51.6266 -41.2847 2 
-54.2541 -42.4821 2 -55.3302 -42.5118 2 -53.7842 -41.3151 2 
-56.4795 -42.4996 2 -57.6032 -42.4916 2 -56.0067 -41.3171 2 
-58.7207 -42.4749 2 -59.8648 -42.4828 2 -58.2735 -41.2882 2 
-61.0113 -42.4678 2 -62.137 -42.4699 2 -60.5375 -41.2564 2 
-63.296 -42.511 2 -64.4065 -42.5064 2 -62.843 -41.2824 2 
-65.5641 -42.5045 2 -66.7271 -42.5175 2 -65.1594 -41.3217 2 
-67.9582 -42.5615 2 -69.1441 -42.5827 2 -67.548 -41.3637 2 
-70.392 -42.6567 2 -71.5588 -42.7017 2 -70.027 -41.4816 2 
-72.7936 -42.9081 2 -74.0643 -43.1528 2 -72.5097 -41.762 2 
-75.3145 -43.4176 2 -30.5966 -14.2076 2 -30.9009 -16.3826 2 
-77.1546 -40.8152 2 -77.116 -39.6801 2 -76.0638 -39.1761 2 
-76.115 -41.4079 2 -37.4584 21.9695 2 -37.6806 23.1662 2 
-36.2636 21.6084 2 -74.8354 47.3961 2 -33.5976 12.4638 2 
-34.0376 13.4711 2 -34.2287 14.9113 2 -34.7675 15.8414 2 
-32.9497 14.8498 2 -28.3593 -42.405 2 -48.2585 12.6874 2 
-47.7025 11.633 2 -48.4667 10.5867 2 -29.595 -9.97748 2 
-29.9777 -12.0667 2 -31.8082 -12.9683 2 -30.671 -8.98358 2 
-41.8685 2.73448 2 -41.161 1.86904 2 -31.5878 27.0518 2 
-31.7296 24.6515 2 -33.4183 23.2324 2 -45.9147 8.47879 2 
-45.2931 7.48229 2 -47.2425 8.44654 2 -40.4146 1.01046 2 
-39.692 0.130533 2 -41.7218 0.736729 2 -28.6071 -5.03782 2 
-29.9011 -5.77666 2 -43.9804 28.1093 2 -45.4999 28.103 2 
-46.486 29.4584 2 -49.341 14.9569 2 -48.8384 13.859 2 
-49.6593 12.8476 2 -43.2483 4.53382 2 -42.5826 3.62348 2 
-43.1822 2.4843 2 -38.9417 -0.81164 2 -38.1837 -1.73591 2 
-40.2251 -1.06402 2 -31.3218 -18.7261 2 -31.4668 -21.1145 2 
-33.4163 -22.2383 2 -44.6476 6.46383 2 -43.9702 5.52656 2 
-44.6182 4.36604 2 -29.0871 -41.2981 2 -30.0982 47.0773 2 
-29.1517 47.0987 2 -30.5414 46.1224 2 -31.5657 37.9347 2 
-45.9856 6.37724 2 -33.6761 -4.26639 2 -33.0043 -5.34448 2 
-34.8702 -4.56552 2 -33.2156 18.5041 2 -31.4995 17.4777 2 
-28.1688 46.4799 2 -28.859 44.4366 2 -30.6159 12.5264 2 
-30.3099 10.0912 2 -50.769 18.4776 2 -51.7647 17.6552 2 
-51.0883 19.521 2 -33.1914 28.3717 2 -31.3379 15.1432 2 
-32.848 -17.4527 2 -36.6465 24.2244 2 -38.1047 24.5004 2 
-38.4933 25.9984 2 -50.7825 15.2178 2 -74.4825 46.3328 2 
-49.8152 29.1394 2 -50.4274 27.6878 2 -74.9946 -42.2331 2 
-38.7753 -2.97962 2 -37.4842 -2.70934 2 -36.7902 -3.7118 2 
-31.9114 9.72703 2 -30.5245 8.76191 2 -29.8771 7.84718 2 
-50.4038 21.9547 2 -51.1083 21.0626 2 -51.204 22.9569 2 
-30.1563 -40.0631 2 -29.8862 43.3054 2 -30.5266 44.7874 2 
-40.5202 28.018 2 -42.1398 28.1287 2 -51.1404 25.961 2 
-51.5273 24.702 2 -52.1769 27.194 2 -42.9648 29.5783 2 
-30.9629 -6.0841 2 -32.7488 10.3723 2 -33.0666 11.2871 2 
-32.2277 12.233 2 -32.9616 38.9487 2 -33.2008 36.9224 2 
-70.4873 44.7222 2 -69.3704 44.6456 2 -68.1779 44.476 2 
-67.0142 44.3875 2 -68.8807 43.3538 2 -65.8329 44.2977 2 
-64.7085 44.2551 2 -66.5069 43.0944 2 -63.4979 44.2264 2 
-62.3519 44.2772 2 -64.1149 42.9759 2 -61.2394 44.3376 2 
-60.1744 44.3819 2 -61.7918 43.0077 2 -59.0778 44.5067 2 
-58.0527 44.5376 2 -59.5828 43.1929 2 -57.0244 44.5669 2 
-55.9835 44.609 2 -57.4579 43.3471 2 -54.9932 44.6696 2 
-53.9071 44.5756 2 -55.4393 43.437 2 -52.9216 44.2107 2 
-51.8949 44.137 2 -53.4636 43.1326 2 -50.8035 44.228 2 
-49.6613 44.2659 2 -51.3867 42.8586 2 -48.4569 44.437 2 
-47.4064 44.5029 2 -49.0908 43.1206 2 -46.3594 44.5649 2 
-45.2405 44.5874 2 -46.8394 43.3536 2 -44.0923 44.5221 2 
-42.9685 44.4439 2 -44.6443 43.3503 2 -41.8344 44.2765 2 
-40.7071 44.2314 2 -42.3619 43.1177 2 -39.5624 44.2098 2 
-38.4898 44.244 2 -40.083 42.9288 2 -37.2635 44.4101 2 
-36.1161 44.5301 2 -37.712 43.0733 2 -34.9908 44.8514 2 
-33.8556 44.9809 2 -35.3604 43.5607 2 -32.5149 44.868 2 
-31.5685 44.9912 2 -32.8944 43.7691 2 -33.7039 34.8842 2 
-34.2197 32.4285 2 -27.821 47.66 2 -32.3155 -6.58036 2 
-31.5054 -7.63598 2 -33.5468 -6.89636 2 -35.48 -25.8224 2 
-35.4628 -28.0133 2 -75.0362 -35.4694 2 -74.9293 -34.429 2 
-74.7847 -33.3252 2 -74.7475 -32.1476 2 -73.7411 -33.9579 2 
-74.6655 -30.9862 2 -74.6354 -29.8643 2 -73.5146 -31.6927 2 
-74.5922 -28.7154 2 -74.563 -27.6696 2 -73.3894 -29.3825 2 
-74.5442 -26.598 2 -74.5282 -25.5076 2 -73.3273 -27.1621 2 
-74.5178 -24.4061 2 -74.5198 -23.3167 2 -73.298 -24.9891 2 
-74.5202 -22.1833 2 -74.5358 -21.0731 2 -73.288 -22.7543 2 
-74.5387 -20.024 2 -74.5444 -18.9982 2 -73.2912 -20.5719 2 
-74.5432 -17.9586 2 -74.567 -16.9059 2 -73.2928 -18.4834 2 
-74.5629 -15.834 2 -74.5617 -14.7665 2 -73.2874 -16.3719 2 
-74.5536 -13.6564 2 -74.5694 -12.5395 2 -73.2752 -14.1899 2 
-74.5709 -11.4239 2 -74.5418 -10.3147 2 -73.2686 -11.9643 2 
-74.5598 -9.26503 2 -74.5342 -8.22002 2 -73.2882 -9.79902 2 
-74.5264 -7.13241 2 -74.5207 -6.03606 2 -73.2983 -7.66177 2 
-74.5363 -4.9309 2 -74.5411 -3.81012 2 -73.3061 -5.469 2 
-74.5508 -2.71306 2 -74.5732 -1.65696 2 -73.3313 -3.26679 2 
-74.5934 -0.594746 2 -74.5995 0.48402 2 -73.3613 -1.10752 2 
-74.6146 1.60101 2 -74.6189 2.72447 2 -73.3966 1.07168 2 
-74.6281 3.81343 2 -74.6256 4.89557 2 -73.421 3.27763 2 
-74.5951 6.01875 2 -74.5792 7.14405 2 -73.3996 5.48978 2 
-74.5777 8.26593 2 -74.5859 9.40801 2 -73.3676 7.73484 2 
-74.5667 10.5278 2 -74.5533 11.6152 2 -73.3469 9.97652 2 
-74.5328 12.6977 2 -74.5414 13.7844 2 -73.3072 12.1789 2 
-74.5148 14.89 2 -74.5323 15.9884 2 -73.2601 14.3671 2 
-74.528 17.112 2 -74.5262 18.2153 2 -73.2293 16.5963 2 
-74.5614 19.2644 2 -74.588 20.2976 2 -73.2601 18.769 2 
-74.6116 21.3436 2 -74.6511 22.4482 2 -73.3188 20.8642 2 
-74.7095 23.5623 2 -74.7126 24.662 2 -73.4008 23.0244 2 
-74.7887 25.7181 2 -74.7848 26.8075 2 -73.5354 25.1946 2 
-74.755 27.9336 2 -74.7477 29.0563 2 -73.5816 27.3768 2 
-74.6155 30.1705 2 -74.5704 31.2988 2 -73.4196 29.6171 2 
-74.5525 32.4415 2 -74.5286 33.5487 2 -73.2695 31.8739 2 
-74.5804 34.6572 2 -74.6129 35.6862 2 -73.3035 34.1251 2 
-74.6912 36.7224 2 -74.7515 37.7776 2 -73.4336 36.2698 2 
-74.8643 38.9517 2 -74.9243 40.0316 2 -73.6247 38.48 2 
-75.0861 41.193 2 -75.2032 42.2796 2 -73.8993 40.8155 2 
-38.4738 27.8555 2 -39.0778 29.4353 2 -37.0509 27.4157 2 
-45.7995 31.0085 2 -47.4802 30.908 2 -44.5854 2.14204 2 
-43.8714 1.25305 2 -51.1453 12.9009 2 -50.5655 11.7294 2 
-46.079 4.06008 2 -45.3571 3.06734 2 -46.0463 1.83608 2 
-32.9223 -38.1509 2 -31.3196 -39.1543 2 -35.2473 -30.1768 2 
-35.1353 -32.2417 2 -37.1807 -29.1278 2 -34.909 -34.1068 2 
-34.7799 -35.824 2 -36.739 -33.1564 2 -49.2948 30.808 2 
-50.9434 30.5894 2 -48.6083 32.358 2 -35.3563 -20.9163 2 
-35.5037 -23.3584 2 -37.4199 -24.5004 2 -35.3182 -40.0679 2 
-36.4103 -40.0831 2 -37.5832 -40.5573 2 -38.7568 -40.6906 2 
-37.0852 -39.0612 2 -39.7999 -40.7319 2 -40.9604 -40.6247 2 
-39.3011 -39.5767 2 -41.9516 -40.2227 2 -43.0705 -40.0642 2 
-41.3353 -39.2159 2 -44.2355 -39.9609 2 -45.3094 -39.9074 2 
-43.4915 -38.7106 2 -46.4651 -39.9573 2 -47.6101 -39.979 2 
-45.8122 -38.6572 2 -48.8256 -40.0081 2 -49.9706 -40.0169 2 
-48.1835 -38.7363 2 -51.0994 -39.9778 2 -52.1839 -39.9941 2 
-50.5279 -38.7263 2 -53.3198 -39.9916 2 -54.3929 -40.0058 2 
-52.7925 -38.6848 2 -55.5075 -40.0587 2 -56.6568 -40.0466 2 
-55.043 -38.7353 2 -57.7914 -40.0388 2 -58.9089 -40.0221 2 
-57.2922 -38.7805 2 -60.0463 -39.9426 2 -61.1929 -39.9275 2 
-59.5642 -38.6932 2 -62.3722 -39.9512 2 -63.5311 -39.9923 2 
-61.881 -38.6373 2 -64.756 -40.0565 2 -65.9135 -40.0546 2 
-64.2852 -38.7252 2 -67.1064 -40.1261 2 -68.3375 -40.1701 2 
-66.7029 -38.861 2 -69.6368 -40.2903 2 -70.8847 -40.3643 2 
-69.1952 -39.0527 2 -72.287 -40.4647 2 -73.5217 -40.6711 2 
-71.8968 -39.2734 2 -36.7188 17.3893 2 -36.9437 18.3239 2 
-34.3898 17.1062 2 -36.0165 16.6577 2 -52.3726 15.4142 2 
-51.8291 14.2155 2 -52.7354 13.0973 2 -47.4322 6.16699 2 
-46.7867 5.14853 2 -47.5257 3.84983 2 -35.9718 19.1245 2 
-72.7111 45.0344 2 -71.5984 44.9033 2 -71.1843 43.7045 2 
-31.6342 -40.5842 2 -48.6927 8.30658 2 -48.0811 7.25574 2 
-48.8823 6.02703 2 -43.0858 0.378051 2 -42.3394 -0.480526 2 
-44.489 0.0357903 2 -75.2315 45.3822 2 -73.8759 45.2325 2 
-73.4601 44.0837 2 -75.6816 44.4274 2 -34.5923 -16.0932 2 
-35.0131 -18.4367 2 -41.5446 -1.35369 2 -40.7943 -2.29586 2 
-42.9086 -1.71236 2 -49.9345 10.5407 2 -49.3218 9.45133 2 
-50.1604 8.26052 2 -51.4205 10.594 2 -42.2405 31.2358 2 
-44.0811 31.2164 2 -45.0753 32.6659 2 -75.2152 -37.5304 2 
-75.2374 -36.4518 2 -74.0869 -36.0441 2 -36.3171 31.5665 2 
-34.934 30.1348 2 -35.0998 35.8983 2 -35.2888 27.5097 2 
-74.6421 -39.8459 2 -74.8648 -41.1432 2 -31.1469 13.7031 2 
-34.7976 20.5225 2 -34.7564 21.8043 2 -75.4851 43.4321 2 
-36.1673 -4.87224 2 -35.5328 -5.96721 2 -37.4529 -5.11349 2 
-37.1005 -19.5567 2 -53.3894 17.9756 2 -52.9507 16.737 2 
-53.9973 15.7347 2 -38.296 31.1784 2 -40.3424 31.3408 2 
-41.4587 32.9789 2 -34.4797 -37.6067 2 -34.3549 -39.1311 2 
-52.2668 32.1907 2 -52.7872 30.5221 2 -33.293 -11.472 2 
-33.9119 -13.6129 2 -36.0771 -14.5969 2 -32.0236 -9.47983 2 
-40.071 -3.30088 2 -39.3715 -4.27431 2 -41.3906 -3.59055 2 
-32.7067 -40.9087 2 -33.7607 -40.6121 2 -52.2234 20.4354 2 
-52.5666 23.7221 2 -33.8136 3.64994 1 -34.498 4.42439 1 
-34.8844 24.3184 2 -31.4401 41.8086 2 -34.4646 19.3203 2 
-36.2126 -36.8042 2 -35.3084 25.6526 2 -74.343 43.1294 2 
-32.8247 42.4731 2 -32.711 40.6256 2 -34.3462 39.6132 2 
-34.1653 42.586 2 -36.4358 37.4512 2 -36.9389 35.4131 2 
-67.2334 41.7478 2 -66.0521 41.6579 2 -64.7585 41.5051 2 
-63.5479 41.4765 2 -65.4851 40.1585 2 -62.2436 41.5199 2 
-61.1311 41.5803 2 -62.8872 40.0491 2 -59.9766 41.8274 2 
-58.88 41.9522 2 -60.4284 40.3396 2 -57.852 42.2416 2 
-56.8237 42.271 2 -58.2459 40.8761 2 -55.5123 41.7355 2 
-54.522 41.796 2 -55.9064 40.63 2 -53.5365 41.4311 2 
-35.1719 5.22475 1 -51.8767 41.0761 2 -50.7853 41.167 2 
-52.9352 39.7395 2 -49.5714 41.8884 2 -48.367 42.0595 2 
-50.0615 40.106 2 -47.3094 42.0767 2 -46.2624 42.1387 2 
-47.7899 40.8446 2 -45.2279 42.3373 2 -44.0797 42.272 2 
-45.6978 41.0604 2 -43.0291 41.8273 2 -41.8949 41.66 2 
-43.6127 40.8143 2 -38.0482 41.5805 2 -36.822 41.7466 2 
-35.2907 42.2647 2 -34.9871 -7.10695 2 -34.2982 -8.34282 2 
-36.2842 -7.41367 2 -50.4298 5.77965 2 -49.7808 4.69091 2 
-72.6478 -34.8058 2 -72.5032 -33.702 2 -72.3358 -32.4539 2 
-72.2539 -31.2926 2 -71.2426 -33.3018 2 -72.1538 -30.0638 2 
-72.1105 -28.915 2 -70.9751 -30.825 2 -72.0464 -27.7926 2 
-72.0275 -26.721 2 -70.8108 -28.4738 2 -72.0051 -25.5899 2 
-71.9947 -24.4885 2 -70.7242 -26.2203 2 -71.9815 -23.3614 2 
-71.9819 -22.2281 2 -70.6886 -23.9622 2 -71.9679 -21.0968 2 
-71.9708 -20.0478 2 -70.6615 -21.7039 2 -71.9513 -19.0068 2 
-71.95 -17.9673 2 -70.6279 -19.5317 2 -71.94 -16.8993 2 
-71.9358 -15.8274 2 -70.5984 -17.4228 2 -71.9608 -14.6863 2 
-71.9528 -13.5762 2 -70.6134 -15.2137 2 -71.9918 -12.5133 2 
-71.9933 -11.3977 2 -70.6775 -13.0096 2 -71.995 -10.3058 2 
-72.0131 -9.25616 2 -70.7182 -10.8548 2 -71.979 -8.22381 2 
-71.9711 -7.13619 2 -70.6858 -8.73058 2 -71.9808 -6.02656 2 
-71.9963 -4.92141 2 -70.6614 -6.5886 2 -72.0399 -3.78755 2 
-72.0497 -2.69049 2 -70.7146 -4.34511 2 -72.095 -1.62385 2 
-72.1152 -0.561638 2 -70.8036 -2.14461 2 -72.1409 0.521654 2 
-72.156 1.63865 2 -70.8746 0.00532479 2 -72.1806 2.75349 2 
-72.1898 3.84245 2 -70.9249 2.20346 2 -72.1316 4.97355 2 
-72.1011 6.09673 2 -70.8913 4.4494 2 -72.0929 7.20175 2 
-72.0914 8.32363 2 -70.8249 6.68552 2 -72.077 9.47567 2 
-72.0578 10.5955 2 -70.8022 8.94258 2 -72.0034 11.6838 2 
-71.9828 12.7664 2 -70.7334 11.183 2 -71.9232 13.8662 2 
-71.8966 14.9718 2 -70.6193 13.3712 2 -71.8092 16.1003 2 
-71.8049 17.2239 2 -70.4722 15.5995 2 -71.8396 18.3376 2 
-71.8748 19.3867 2 -70.4195 17.8416 2 -71.996 20.4303 2 
-72.0196 21.4764 2 -70.5755 19.9989 2 -72.077 22.5747 2 
-72.1355 23.6889 2 -70.7542 22.1408 2 -72.1857 24.7598 2 
-72.2618 25.8159 2 -70.8619 24.3101 2 -72.4974 26.812 2 
-72.4676 27.9381 2 -71.1477 26.3772 2 -72.0685 28.9758 2 
-71.9363 30.09 2 -70.9843 28.4111 2 -71.8711 31.2515 2 
-71.8532 32.3942 2 -70.52 30.6103 2 -71.9679 33.6077 2 
-72.0198 34.7162 2 -70.5695 32.9852 2 -72.1312 35.8374 2 
-72.2094 36.8736 2 -70.7956 35.32 2 -72.3662 38.0672 2 
-72.4789 39.2412 2 -71.0637 37.6348 2 -72.7149 40.5207 2 
-72.8767 41.6821 2 -71.4564 40.1079 2 -51.6428 34.1226 2 
-53.4866 34.0553 2 -73.1483 -37.0003 2 -72.9471 -36.0179 2 
-71.7092 -35.762 2 -73.1782 42.9312 2 -44.4774 34.2608 2 
-46.1958 34.0529 2 -47.5553 1.35422 2 -46.7837 0.428923 2 
-54.3437 30.4106 2 -53.0203 28.8093 2 -53.7333 27.0825 2 
-39.2923 -28.2386 2 -39.0768 -30.402 2 -38.5561 -32.4048 2 
-38.3298 -34.2698 2 -40.6676 -31.5155 2 -47.9696 34.059 2 
-49.7843 33.959 2 -47.3717 35.6539 2 -39.0598 -18.2869 2 
-39.4029 -20.7665 2 -71.9939 42.6365 2 -70.8827 42.4554 2 
-39.9157 -38.2928 2 -40.9069 -37.8908 2 -42.539 -37.3877 2 
-43.704 -37.2844 2 -41.1195 -36.4646 2 -45.0984 -37.1664 2 
-46.2541 -37.2163 2 -44.1459 -35.8435 2 -47.4656 -37.4947 2 
-48.6811 -37.5238 2 -46.7517 -36.0039 2 -49.8445 -37.3142 2 
-50.9733 -37.2751 2 -49.1266 -36.0726 2 -52.2123 -37.1472 2 
-53.3482 -37.1448 2 -51.529 -35.7351 2 -54.5756 -37.102 2 
-55.6902 -37.1549 2 -53.9954 -35.5644 2 -56.7884 -37.5162 2 
-57.923 -37.5085 2 -56.321 -35.883 2 -59.015 -37.2466 2 
-60.1524 -37.1671 2 -58.5112 -35.9824 2 -61.3486 -37.1894 2 
-62.5279 -37.213 2 -60.7993 -35.7428 2 -63.8066 -37.318 2 
-65.0315 -37.3822 2 -63.2743 -35.87 2 -66.2476 -37.5331 2 
-67.4405 -37.6046 2 -65.7691 -36.1258 2 -68.7259 -37.7762 2 
-70.0252 -37.8964 2 -68.2706 -36.4483 2 -71.2515 -38.0735 2 
-72.6538 -38.174 2 -34.1274 -10.1244 2 -49.0503 3.49952 2 
-48.3426 2.41107 2 -49.08 1.00391 2 -50.5978 3.25214 2 
-69.6653 42.1388 2 -68.4728 41.9693 2 -68.018 40.5328 2 
-45.9304 -0.474128 2 -45.1448 -1.34912 2 -47.4394 -0.95599 2 
-54.3788 13.195 2 -53.695 11.8805 2 -44.2447 -2.17483 2 
-43.4499 -3.04799 2 -45.6861 -2.68475 2 -53.8911 20.9719 2 
-53.8711 19.4303 2 -39.609 -23.3336 2 -39.5853 -25.7977 2 
-41.4813 -27.0718 2 -41.5682 -22.0638 2 -74.7207 -38.704 2 
-73.7936 -38.2002 2 -37.5817 33.472 2 -35.6269 40.7719 2 
-40.5892 41.4483 2 -39.4445 41.4267 2 -38.5545 40.1 2 
-38.9178 35.025 2 -51.0558 6.98213 2 -51.9544 5.64601 2 
-51.685 8.12688 2 -38.0001 -35.9946 2 -37.6999 -37.7773 2 
-54.8133 35.7062 2 -55.4373 33.7744 2 -35.8774 39.0951 2 
-51.004 35.8235 2 -54.6459 10.6493 2 -53.0025 10.5516 2 
-52.3715 9.36288 2 -38.7863 -5.29284 2 -38.1634 -6.45327 2 
-40.0821 -5.61409 2 -55.0571 18.5121 2 -39.8172 -35.243 2 
-37.888 -13.2175 2 -38.5683 -15.6978 2 -40.8706 -16.9075 2 
-55.7037 15.896 2 -55.1256 14.5732 2 -56.0852 13.3563 2 
-42.5811 -3.8795 2 -41.8578 -4.88453 2 -43.9172 -4.34197 2 
-70.4749 41.0708 2 -70.7822 -36.797 2 -38.8727 -38.2515 2 
-32.3815 2.1419 1 -33.0934 2.87348 1 -55.6269 27.594 2 
-54.7835 25.9787 2 -54.2575 22.5775 2 -55.9052 21.5724 2 
-54.5808 24.3226 2 -37.7165 38.6099 2 -41.2564 40.1579 2 
-37.9762 -8.08042 2 -37.4305 -9.22016 2 -39.3096 -8.25977 2 
-63.435 38.4032 2 -62.1307 38.4466 2 -58.3779 39.6661 2 
-57.3499 39.9555 2 -48.287 39.5365 2 -47.2294 39.5537 2 
-44.7774 39.9538 2 -43.7268 39.5091 2 -39.1128 38.4561 2 
-53.7288 38.0408 2 -55.6795 37.7599 2 -57.4351 32.9715 2 
-56.1084 31.3206 2 -42.2683 38.5584 2 -40.9627 38.3467 2 
-40.1247 36.8566 2 -43.433 37.6979 2 -69.7135 -31.6976 2 
-69.6134 -30.4688 2 -69.5326 -29.1913 2 -69.4684 -28.0689 2 
-68.271 -30.0638 2 -69.4063 -26.9125 2 -69.3839 -25.7814 2 
-68.1282 -27.63 2 -69.351 -24.6016 2 -69.3378 -23.4746 2 
-68.0331 -25.2938 2 -69.3022 -22.2734 2 -69.2882 -21.1421 2 
-67.9645 -22.9128 2 -69.2151 -20.0646 2 -69.1956 -19.0236 2 
-67.8558 -20.634 2 -69.1618 -17.9404 2 -69.1518 -16.8725 2 
-67.749 -18.4733 2 -69.0595 -15.7252 2 -69.0845 -14.5841 2 
-67.6229 -16.2429 2 -69.1318 -13.4154 2 -69.1708 -12.3524 2 
-67.5778 -13.9269 2 -69.5088 -11.3784 2 -69.5106 -10.2865 2 
-67.9631 -11.7841 2 -69.1898 -9.31681 2 -69.1557 -8.28446 2 
-67.9805 -9.84037 2 -69.1102 -7.17866 2 -69.1198 -6.06903 2 
-67.6142 -7.76488 2 -69.2404 -4.91144 2 -69.284 -3.77759 2 
-67.6892 -5.5015 2 -69.4105 -2.63685 2 -69.4559 -1.5702 2 
-67.9363 -3.20318 2 -69.5798 -0.522785 2 -69.6055 0.560507 2 
-68.1867 -1.01502 2 -69.5714 1.67321 2 -69.596 2.78805 2 
-68.2766 1.1451 2 -69.4883 3.96362 2 -69.4301 5.09472 2 
-68.1348 3.43337 2 -69.4725 6.17413 2 -69.4642 7.27915 2 
-68.0695 5.68835 2 -69.4813 8.40384 2 -69.4669 9.55589 2 
-68.1289 7.89245 2 -69.438 10.6659 2 -69.3836 11.7543 2 
-68.1171 10.1272 2 -69.2413 12.8862 2 -69.1817 13.986 2 
-67.946 12.3691 2 -68.8658 15.1551 2 -68.7783 16.2836 2 
-67.4878 14.6702 2 -68.7899 17.4424 2 -68.8247 18.5561 2 
-67.1835 16.9981 2 -69.0471 19.6795 2 -69.1683 20.723 2 
-67.4174 19.2802 2 -69.5333 21.7445 2 -69.5908 22.8429 2 
-68.0049 21.4251 2 -69.3789 24.0045 2 -69.4292 25.0755 2 
-68.1581 23.6082 2 -69.7539 26.3395 2 -69.9895 27.3356 2 
-68.2709 26.0339 2 -69.5904 28.3734 2 -35.9048 6.14172 1 
-36.5142 6.94468 1 -68.7581 29.8507 2 -68.6929 31.0121 2 
-67.7633 28.7752 2 -69.2325 32.363 2 -69.3472 33.5765 2 
-67.4706 31.6035 2 -69.3877 34.838 2 -69.4991 35.9593 2 
-68.0507 34.2158 2 -69.7789 37.232 2 -69.9357 38.4256 2 
-68.371 36.7501 2 -70.2389 39.7914 2 -70.483 -35.5849 2 
-69.1991 -35.3387 2 -70.1261 -34.3037 2 -41.4492 -34.7399 2 
-37.2596 -11.0018 2 -39.7508 -12.1026 2 -42.979 -15.4265 2 
-43.4704 -18.0157 2 -46.6622 36.9467 2 -48.436 36.9528 2 
-58.6672 34.6781 2 -59.3383 32.2243 2 -46.654 -34.264 2 
-47.8654 -34.5423 2 -49.0289 -34.3327 2 -37.1562 7.83458 1 
-37.7827 8.75104 1 -50.7037 -34.3741 2 -51.9427 -34.2461 2 
-49.4425 -32.8438 2 -53.4081 -33.7308 2 -54.6355 -33.6881 2 
-52.5828 -32.3698 2 -56.3061 -34.0579 2 -57.4043 -34.4191 2 
-55.7188 -32.2242 2 -58.4963 -34.1572 2 -38.3515 9.6292 1 
-38.8859 10.4989 1 -60.0662 -34.1634 2 -61.2624 -34.1857 2 
-58.9593 -32.6002 2 -62.7759 -34.4029 2 -64.0546 -34.5078 2 
-62.0427 -32.8235 2 -65.372 -34.7488 2 -66.5882 -34.8997 2 
-64.8736 -33.2817 2 -67.9137 -35.1671 2 -40.7676 34.9156 2 
-42.6657 34.8105 2 -56.9496 18.7948 2 -56.4679 17.3401 2 
-57.5961 16.1786 2 -46.9759 -3.42674 2 -46.0758 -4.25245 2 
-48.9867 -1.8394 2 -48.1334 -2.74245 2 -48.5232 -4.31015 2 
-68.9541 39.3886 2 -67.7148 39.167 2 -60.674 38.7427 2 
-59.5196 38.9898 2 -58.6236 38.0692 2 -61.2219 37.0968 2 
-52.069 37.6859 2 -45.8119 39.7552 2 -39.4312 11.4364 1 
-39.9529 12.3873 1 -53.2669 8.08449 2 -50.7843 0.324556 2 
-49.9971 -0.73229 2 -50.6911 -2.51875 2 -50.2105 37.5223 2 
-57.9204 13.3215 2 -57.1737 11.9433 2 -66.3104 38.717 2 
-65.0168 38.5641 2 -67.2465 37.5727 2 -69.9587 -33.0556 2 
-43.7863 36.1975 2 -56.3657 10.6435 2 -55.6733 9.31467 2 
-58.201 10.6087 2 -41.3972 -6.21666 2 -40.8119 -7.23518 2 
-42.5877 -6.50562 2 -44.7618 -34.1456 2 -45.8755 -32.6841 2 
-43.3674 -34.2636 2 -58.2646 36.4091 2 -60.1678 35.6619 2 
-43.685 -20.7101 2 -43.8911 -23.2773 2 -42.4781 -12.8105 2 
-45.0779 -13.9186 2 -56.4744 24.8341 2 -58.2496 22.0824 2 
-57.8832 20.4767 2 -59.294 19.3048 2 -45.7934 -19.2291 2 
-61.6047 32.029 2 -60.3726 30.3224 2 -35.5676 -10.335 2 
-42.5859 -31.0392 2 -42.0652 -33.042 2 -67.5166 -33.7901 2 
-52.4206 2.76241 2 -51.6901 1.57102 2 -52.6071 -0.165175 2 
-64.2603 36.9616 2 -41.8498 -10.5947 2 -53.0149 4.13598 2 
-54.1072 2.45487 2 -53.6409 5.33846 2 -43.5769 -28.6483 2 
-44.9744 -30.1748 2 -68.597 -32.6994 2 -43.8699 -26.2074 2 
-56.0384 39.42 2 -49.5009 38.8151 2 -45.9868 -24.8537 2 
-56.3415 29.6077 2 -66.9666 36.3 2 -58.6658 14.7769 2 
-59.7543 13.3639 2 -61.5869 27.8154 2 -59.3205 28.0107 2 
-66.9842 -31.0319 2 -66.9034 -29.7544 2 -61.6245 35.3658 2 
-66.7758 -28.4061 2 -66.7137 -27.2498 2 -65.4889 -29.3742 2 
-66.6987 -26.0363 2 -66.6658 -24.8565 2 -65.3463 -26.8125 2 
-66.5348 -23.6412 2 -66.4992 -22.44 2 -65.2004 -24.3838 2 
-66.3664 -21.2664 2 -66.2933 -20.1888 2 -64.9367 -21.9948 2 
-66.2575 -19.0595 2 -66.2237 -17.9764 2 -64.7681 -19.6919 2 
-66.017 -16.6984 2 -65.9247 -15.5511 2 -64.5255 -17.2846 2 
-65.7673 -14.2233 2 -65.8145 -13.0546 2 -64.1614 -14.6788 2 
-66.1726 -11.7424 2 -66.5107 -10.7683 2 -64.3621 -12.0387 2 
-66.19 -9.79858 2 -40.4679 13.3851 1 -40.9623 14.4074 1 
-66.0205 -8.4803 2 -65.9749 -7.3745 2 -64.5507 -9.4082 2 
-66.16 -6.11712 2 -66.2805 -4.95954 2 -64.5662 -6.83254 2 
-66.4497 -3.67404 2 -66.5762 -2.5333 2 -64.9205 -4.28966 2 
-66.6041 -1.42664 2 -66.728 -0.379223 2 -65.1175 -1.8975 2 
-67.0094 0.628991 2 -66.9753 1.74169 2 -65.4267 0.21737 2 
-66.5629 2.86351 2 -66.4551 4.03908 2 -65.2956 2.34741 2 
-66.4319 5.26483 2 -66.4743 6.34424 2 -64.8599 4.69497 2 
-66.8564 7.38554 2 -66.8735 8.51024 2 -65.2188 6.96202 2 
-66.6514 9.60485 2 -66.6225 10.7149 2 -65.3789 9.09794 2 
-66.7918 11.7832 2 -66.6495 12.9151 2 -65.3261 11.2609 2 
-66.039 14.0224 2 -65.7231 15.1916 2 -64.8848 13.4365 2 
-65.1007 16.6143 2 -65.1123 17.7731 2 -63.6519 15.9665 2 
-65.8534 19.0694 2 -66.0757 20.1928 2 -63.7706 18.6856 2 
-66.2473 21.6852 2 -66.6124 22.7067 2 -64.6832 21.4743 2 
-66.4005 23.8683 2 -41.3838 15.3371 1 -41.8027 16.3236 1 
-66.4943 25.7634 2 -66.8191 27.0274 2 -64.9486 24.8618 2 
-57.3917 28.504 2 -58.6059 25.997 2 -63.8407 28.442 2 
-62.7886 26.1303 2 -63.7744 35.2388 2 -62.7203 33.8039 2 
-63.7546 31.902 2 -65.3561 35.3998 2 -57.123 37.0855 2 
-47.4357 -12.3244 2 -47.9365 -14.9404 2 -58.4032 24.3409 2 
-60.3811 23.2452 2 -66.4807 34.5771 2 -46.4646 -6.12379 2 
-45.1748 -5.3818 2 -44.306 -6.21331 2 -67.2714 -32.432 2 
-54.8493 7.94068 2 -54.1627 6.70468 2 -55.2233 5.19465 2 
-42.1927 17.3083 1 -42.5457 18.2661 1 -64.5863 -31.8816 2 
-65.9038 -32.1226 2 -47.9644 -17.6053 2 -48.179 -20.2997 2 
-59.43 16.2211 2 -48.2523 -23.0095 2 -48.231 -25.9396 2 
-40.6248 -8.86233 2 -43.3521 -9.57016 2 -46.309 38.4471 2 
-42.8642 19.1955 1 -43.1986 20.254 1 -65.9006 31.9648 2 
-64.785 30.1898 2 -65.9867 28.5047 2 -66.4402 33.3156 2 
-60.4155 10.2405 2 -59.6076 8.94071 2 -56.5691 7.93486 2 
-50.3221 -16.0111 2 -63.1308 -31.5198 2 -64.161 -30.3607 2 
-61.6173 -31.3026 2 -50.9163 -30.9426 2 -52.3817 -30.4273 2 
-54.7549 -29.3256 2 -56.4255 -29.6954 2 -31.6618 1.43607 1 
-58.3415 -30.8304 2 -59.9114 -30.8366 2 -60.9995 -29.5329 2 
-50.4233 -21.3857 2 -60.6949 17.506 2 -61.6285 19.188 2 
-54.3951 -0.805394 2 -53.4893 -2.05186 2 -49.6614 -6.02302 2 
-48.5038 -6.70731 2 -46.8666 -30.2931 2 -45.2447 37.1482 2 
-56.1387 2.02862 2 -55.5444 0.655047 2 -56.4265 -1.23164 2 
-52.3833 -3.62388 2 -51.373 -4.731 2 -51.3537 -7.12815 2 
-48.3403 -28.392 2 -50.6059 -26.5478 2 -57.3775 -27.9318 2 
-54.1712 -4.2641 2 -57.5079 -26.0913 2 -59.4239 -27.2263 2 
-62.6947 24.2352 2 -64.0334 -29.0125 2 -61.8703 -12.7521 2 
-62.2285 -11.4398 2 -62.5332 -9.95322 2 -62.3636 -8.63494 2 
-60.0414 -10.6665 2 -62.7941 -7.27335 2 -62.9792 -6.01596 2 
-60.7766 -7.81836 2 -63.6001 0.392328 2 -63.8815 1.40054 2 
-63.3934 13.2752 2 -64.0039 12.1679 2 -60.7608 11.9575 2 
-62.1673 10.2896 2 -58.2137 7.9415 2 -57.3897 6.56751 2 
-60.4282 7.57336 2 -43.8453 -7.54544 2 -45.0703 -9.27786 2 
-47.1096 -9.86138 2 -49.9682 -10.8832 2 -53.0883 -27.8985 2 
-52.3372 -19.787 2 -52.4105 -22.4967 2 -52.8085 -14.2905 2 
-52.8364 -16.9554 2 -57.045 5.06989 2 -56.5232 3.70367 2 
-57.9604 1.90385 2 -58.6897 5.07652 2 -62.5766 -28.6005 2 
-63.9045 -27.614 2 -63.8896 -26.4006 2 -60.8706 -28.1345 2 
-49.2414 -30.9013 2 -56.7412 -24.5363 2 -54.893 -23.8474 2 
-56.1727 -21.5869 2 -64.0239 -25.1645 2 -63.8929 -23.9493 2 
-62.582 -25.9661 2 -63.3748 -22.8639 2 -63.2421 -21.6902 2 
-62.1983 -23.6447 2 -63.0419 -20.4794 2 -63.0061 -19.3501 2 
-61.4801 -21.3484 2 -63.1837 -18.092 2 -62.977 -16.814 2 
-61.4576 -18.8794 2 -62.3095 -15.5894 2 -62.152 -14.2616 2 
-60.0184 -13.6627 2 -60.9677 -16.3967 2 -61.6915 -5.25113 2 
-63.4636 -4.81032 2 -63.6328 -3.52482 2 -63.3744 -2.1873 2 
-63.4022 -1.08064 2 -61.9175 -2.70796 2 -61.7646 16.1043 2 
-62.387 14.6816 2 -63.3671 4.16728 2 -63.3439 5.39302 2 
-63.3294 7.24665 2 -63.7115 8.28795 2 -63.4894 9.38256 2 
-63.8347 11.0995 2 -61.857 0.102533 2 -61.5061 13.4129 2 
-47.6028 -7.83666 2 -54.8236 -18.0665 2 -61.001 -26.2939 2 
-52.368 -9.37473 2 -52.694 -11.8377 2 -55.2083 -12.7821 2 
-56.2503 -4.66621 2 -55.1443 -6.23823 2 -58.7847 -7.91014 2 
-59.2152 -6.54855 2 -61.8366 6.71895 2 -63.469 2.52237 2 
-61.953 3.22041 2 -57.0762 -3.14288 2 -58.0493 -5.11701 2 
-60.0411 -5.02523 2 -58.2255 -1.68244 2 -57.72 -9.75462 2 
-56.1586 -8.48481 2 -62.3696 20.4843 2 -62.5412 21.9767 2 
-54.0795 -8.08271 2 -57.4153 -11.2412 2 -52.979 -25.4461 2 
-61.1353 -25.0579 2 -60.6173 -23.9725 2 -59.8506 -22.4175 2 
-59.6504 -21.2066 2 -59.6849 -19.2959 2 -59.8625 -18.0378 2 
-59.195 -16.8132 2 -58.0554 -20.365 2 -60.5256 -3.81959 2 
-60.2671 -2.48206 2 -60.4428 5.71973 2 -58.7876 -23.8307 2 
-57.8115 -15.2036 2 -57.5297 -13.694 2 -60.0981 4.22211 2 
-60.1999 2.5772 2 -59.8154 0.902151 2 -56.7063 -16.8446 2 
-59.6175 -0.570815 2 -56.2071 -19.6761 2 -81.2439 50.9973 0 
-78.5874 50.677 0 -79.8474 50.677 0 -75.6499 50.9892 0 
-76.9999 50.9892 0 -77.9434 49.6189 0 -72.8802 51.0126 0 
-74.2902 51.0126 0 -74.9962 49.9545 0 -70.2692 50.8659 0 
-71.5892 50.8659 0 -72.3455 49.8313 0 -67.4843 50.8017 0 
-68.8643 50.8017 0 -69.6496 49.6203 0 -64.7312 50.7617 0 
-66.1112 50.7617 0 -66.8716 49.516 0 -62.0339 50.7639 0 
-63.3239 50.7639 0 -64.0911 49.4782 0 -59.5599 50.7412 0 
-60.7599 50.7412 0 -61.4098 49.4577 0 -56.8863 50.7544 0 
-58.2363 50.7544 0 -58.8122 49.4482 0 -54.2385 50.753 0 
-55.5585 50.753 0 -56.1608 49.46 0 -51.4679 50.7576 0 
-52.9079 50.7576 0 -53.5025 49.4633 0 -48.7267 50.7674 0 
-50.0767 50.7674 0 -50.7807 49.4777 0 -45.8584 50.7612 0 
-47.2984 50.7612 0 -47.9612 49.4813 0 -43.2905 50.7618 0 
-44.5505 50.7618 0 -45.225 49.4757 0 -40.5511 50.781 0 
-41.9311 50.781 0 -42.5577 49.4955 0 -37.9294 50.7334 0 
-39.2494 50.7334 0 -39.8965 49.4671 0 -35.1637 50.7787 0 
-36.5437 50.7787 0 -37.2092 49.4648 0 -32.453 50.7816 0 
-33.803 50.7816 0 -34.4627 49.513 0 -29.8314 50.735 0 
-31.1514 50.735 0 -31.8004 49.4693 0 -27.3078 50.742 0 
-28.5678 50.742 0 -29.2352 49.4297 0 -24.8816 50.953 0 
-26.0216 50.953 0 -26.6855 49.6477 0 -23.3439 50.9473 0 
-81.3039 -46.8027 0 -80.9236 -43.959 0 -80.9236 -45.309 0 
-81.1201 -40.9375 0 -81.1201 -42.2875 0 -79.7198 -43.2939 0 
-81.1741 -38.1771 0 -81.1741 -39.5271 0 -79.9703 -40.212 0 
-81.2416 -35.4204 0 -81.2416 -36.8204 0 -80.0918 -37.4449 0 
-81.2259 -32.5821 0 -81.2259 -34.0321 0 -80.1435 -34.6998 0 
-81.2176 -29.9967 0 -81.2176 -31.2467 0 -80.1196 -31.9761 0 
-81.1956 -27.3491 0 -81.1956 -28.6491 0 -80.0893 -29.2931 0 
-81.1384 -24.5067 0 -81.1384 -26.0067 0 -80.0101 -26.6032 0 
-81.0911 -21.9201 0 -81.0911 -23.1701 0 -79.9056 -23.9241 0 
-81.1295 -19.333 0 -81.1295 -20.633 0 -79.8967 -21.3004 0 
-81.1511 -16.6465 0 -81.1511 -17.9965 0 -79.9567 -18.6768 0 
-81.1371 -13.9175 0 -81.1371 -15.2675 0 -79.9643 -15.9612 0 
-81.1196 -11.1638 0 -81.1196 -12.5638 0 -79.9327 -13.2286 0 
-81.1525 -8.47384 0 -81.1525 -9.82384 0 -79.9481 -10.5349 0 
-81.1325 -5.70334 0 -81.1325 -7.05334 0 -79.9611 -7.77449 0 
-81.1028 -2.88001 0 -81.1028 -4.33001 0 -79.9114 -4.98065 0 
-81.1238 -0.0790703 0 -81.1238 -1.47907 0 -79.9027 -2.20638 0 
-81.1551 2.63315 0 -81.1551 1.28315 0 -79.955 0.556774 0 
-81.1656 5.26658 0 -81.1656 3.96658 0 -79.9967 3.25242 0 
-81.1686 8.00099 0 -81.1686 6.65099 0 -80.0103 5.97026 0 
-81.1301 10.6233 0 -81.1301 9.32334 0 -79.9748 8.67702 0 
-81.1211 13.451 0 -81.1211 12.001 0 -79.9273 11.377 0 
-81.1115 16.3568 0 -81.1115 14.9068 0 -79.9087 14.2104 0 
-81.1283 19.2172 0 -81.1283 17.7672 0 -79.9159 17.0767 0 
-81.1411 21.9967 0 -81.1411 20.5967 0 -79.9454 19.8666 0 
-81.131 24.6973 0 -81.131 23.3973 0 -79.9481 22.6467 0 
-81.156 27.4621 0 -81.156 26.0621 0 -79.963 25.4121 0 
-81.1757 30.3011 0 -81.1757 28.8511 0 -80.0078 28.1659 0 
-81.1563 33.031 0 -81.1563 31.731 0 -80.0081 30.9849 0 
-81.1809 35.9749 0 -81.1809 34.4249 0 -80.0132 33.8087 0 
-81.2277 38.7571 0 -81.2277 37.3571 0 -80.0847 36.5847 0 
-81.2129 41.5018 0 -81.2129 40.1518 0 -80.1167 39.3616 0 
-81.1603 44.2108 0 -81.1603 42.9109 0 -80.0493 42.1653 0 
-81.1068 46.9002 0 -81.1068 45.5502 0 -79.9432 44.9137 0 
-79.9036 -46.459 0 -23.2652 47.8561 0 -23.2652 49.0061 0 
-23.2388 45.216 0 -23.2388 46.716 0 -24.18 47.0247 0 
-23.6622 42.1055 0 -23.6622 43.8555 0 -24.577 44.5242 0 
-23.8245 38.282 0 -23.8245 40.232 0 -25.1627 41.2902 0 
-23.7445 34.0933 0 -23.7445 36.2433 0 -25.2451 37.3779 0 
-24.7682 23.8475 0 -24.7682 26.6475 0 -24.5552 18.8559 0 
-24.5552 21.3559 0 -26.9994 22.756 0 -24.5402 14.2695 0 
-24.5402 16.5195 0 -26.7714 17.9281 0 -24.5196 10.1995 0 
-24.5196 12.2495 0 -26.7358 13.5717 0 -24.4714 6.17806 0 
-24.4714 8.22806 0 -26.667 9.58027 0 -24.7599 2.50194 0 
-24.7599 4.25194 0 -26.9074 5.6827 0 -23.6845 -5.09059 0 
-23.6845 -3.24059 0 -23.9641 -9.17644 0 -23.9641 -7.02644 0 
-25.3246 -6.36434 0 -24.0808 -13.8221 0 -24.0808 -11.3721 0 
-25.721 -10.4958 0 -24.1214 -18.4183 0 -24.1214 -16.0683 0 
-25.8783 -14.9377 0 -24.1429 -23.3921 0 -24.1429 -20.6921 0 
-25.9404 -19.4577 0 -24.0798 -28.3114 0 -24.0798 -25.9114 0 
-25.8988 -24.2508 0 -23.9797 -32.2983 0 -23.9797 -30.3983 0 
-25.7356 -28.857 0 -23.884 -35.8941 0 -23.884 -34.1941 0 
-25.5398 -32.8397 0 -23.8655 -39.2293 0 -23.8655 -37.6293 0 
-25.4256 -36.4707 0 -23.8473 -42.1494 0 -23.8473 -40.7494 0 
-25.3889 -39.726 0 -23.7749 -44.7739 0 -23.7749 -43.4739 0 
-25.2982 -42.5707 0 -23.3739 -46.8027 0 -25.9371 -47.0465 0 
-24.8271 -47.0465 0 -28.3875 -46.7937 0 -27.1575 -46.7937 0 
-26.4507 -45.8875 0 -30.9689 -46.7809 0 -29.7089 -46.7809 0 
-28.9925 -45.6219 0 -33.7618 -46.8103 0 -32.3818 -46.8103 0 
-31.7268 -45.6385 0 -36.3827 -46.8104 0 -35.0627 -46.8104 0 
-34.4406 -45.6679 0 -39.0979 -46.8489 0 -37.7179 -46.8489 0 
-37.0767 -45.7065 0 -41.8818 -46.8189 0 -40.5018 -46.8189 0 
-39.8158 -45.7151 0 -44.7196 -46.8195 0 -43.3096 -46.8195 0 
-42.6474 -45.6857 0 -47.354 -46.8189 0 -46.034 -46.8189 0 
-45.3897 -45.6858 0 -50.0994 -46.8197 0 -48.7494 -46.8197 0 
-48.0995 -45.686 0 -52.675 -46.7827 0 -51.415 -46.7827 0 
-50.8105 -45.6497 0 -55.619 -46.772 0 -54.059 -46.772 0 
-53.51 -45.6021 0 -58.3025 -46.743 0 -56.9825 -46.743 0 
-56.2575 -45.5623 0 -60.9805 -46.7251 0 -59.6605 -46.7251 0 
-58.979 -45.5154 0 -63.5852 -46.7793 0 -62.2652 -46.7793 0 
-61.6217 -45.5517 0 -66.222 -46.8314 0 -64.902 -46.8314 0 
-64.2232 -45.658 0 -68.885 -46.8359 0 -67.565 -46.8359 0 
-66.8831 -45.7146 0 -71.522 -46.8968 0 -70.202 -46.8968 0 
-69.5431 -45.78 0 -74.2716 -46.9008 0 -72.8916 -46.9008 0 
-72.2296 -45.8448 0 -77.1577 -46.7686 0 -75.7177 -46.7686 0 
-75.0453 -45.7166 0 -44.9192 22.4825 0 -43.9192 22.4825 0 
-42.4567 21.2505 0 -42.1469 20.2246 0 -41.7363 19.2165 0 
-41.4082 18.2904 0 -41.0071 20.2091 0 -41.0035 17.3545 0 
-40.6034 16.374 0 -40.1918 18.2651 0 -40.1892 15.3755 0 
-39.7588 14.45 0 -39.373 16.3305 0 -39.2998 13.4629 0 
-38.7767 12.4694 0 -38.4999 14.3449 0 -38.2174 11.5535 0 
-37.6641 10.6208 0 -37.4816 12.4419 0 -37.166 9.69979 0 
-36.5887 8.82724 0 -36.4242 10.605 0 -36.0367 7.95826 0 
-35.387 7.07411 0 -35.3741 8.815 0 -34.6048 6.2017 0 
-33.8612 5.29348 0 -34.04 7.07361 0 -32.9776 4.43677 0 
-32.2655 3.6529 0 -32.3741 5.34449 0 -31.6336 2.63516 0 
-30.9212 1.92212 0 -30.8585 3.47003 0 -30.1572 1.22614 0 
-30.4859 -1.0722 0 -31.4859 -1.0722 0 -46.1434 19.463 0 
-46.4493 20.4769 0 -45.3382 17.2544 0 -45.7345 18.3593 0 
-46.9938 18.5661 0 -44.4189 15.1393 0 -44.8637 16.1979 0 
-43.4849 13.159 0 -43.921 14.0677 0 -45.1379 14.2779 0 
-42.4914 11.3153 0 -42.9754 12.2139 0 -44.1303 12.2612 0 
-41.4023 9.48629 0 -41.9417 10.3828 0 -43.0711 10.3837 0 
-40.282 7.79594 0 -40.8272 8.61322 0 -39.0429 6.05399 0 
-39.6635 6.8963 0 -40.7526 6.80542 0 -37.7443 4.40872 0 
-38.3964 5.21048 0 -36.4197 2.83171 0 -37.0829 3.57365 0 
-38.1796 3.38369 0 -34.9338 1.16131 0 -35.7219 1.96089 0 
-36.8206 1.67779 0 -33.311 -0.518392 0 -34.1394 0.239426 0 
-80.9274 49.627 0 -23.8616 49.853 0 -80.9274 48.427 0 
-27.2061 28.2346 0 -24.7619 29.6344 0 -24.7619 32.0344 0 
-25.3017 -2.52377 0 -23.9411 -1.33587 0 -23.9411 0.314128 0 
-26.3771 1.56877 0 -23.7771 -45.8965 0 -25.2281 -45.0177 0 
-43.1745 23.6019 0 -42.7511 22.4032 0 -46.1649 22.5101 0 
-45.5884 23.7088 0 -78.6736 -46.459 0 -31.9644 -2.59785 0 
-32.5662 -1.52565 0 -33.7894 -2.04405 0 -29.2113 1.70159 0 
-29.1419 0.475445 0 -46.1103 16.4059 0 -29.2933 -0.704012 0 
-29.6914 -1.77621 0 -47.8701 20.749 0 -46.9166 21.5559 0 
-47.5858 22.7822 0 -41.9463 8.57813 0 -39.4875 5.06227 0 
-35.3285 -0.114904 0 -28.3474 -0.228566 0 -41.712 22.3699 0 
-79.7103 47.7799 0 -78.0074 -45.2749 0 -74.2852 49.0466 0 
-75.6449 49.0231 0 -76.8187 48.6245 0 -78.4062 48.3123 0 
-78.5856 46.7854 0 -76.1077 47.7165 0 -69.1195 48.3145 0 
-70.5244 48.3788 0 -66.2919 48.1718 0 -67.6649 48.2118 0 
-68.5398 46.9703 0 -63.4242 48.0965 0 -64.8316 48.0944 0 
-65.6249 46.7901 0 -60.7338 48.0668 0 -62.0078 48.0895 0 
-62.7482 46.7056 0 -58.1098 48.0844 0 -59.4333 48.0712 0 
-60.0313 46.703 0 -55.458 48.0762 0 -56.7858 48.0776 0 
-57.4069 46.7006 0 -52.8454 48.1447 0 -54.1759 48.14 0 
-54.8009 46.7576 0 -50.0224 48.1514 0 -51.4136 48.1416 0 
-52.0871 46.8184 0 -47.2118 48.1433 0 -48.6401 48.1495 0 
-49.2729 46.8135 0 -44.536 48.1406 0 -45.8438 48.1401 0 
-46.5227 46.8083 0 -41.8776 48.1445 0 -43.237 48.1253 0 
-43.8559 46.7896 0 -39.1658 48.0954 0 -40.4674 48.143 0 
-41.1468 46.7728 0 -36.5062 48.1486 0 -37.8919 48.1032 0 
-38.4628 46.7792 0 -33.7859 48.2299 0 -35.1466 48.227 0 
-35.8293 46.8655 0 -31.1357 48.1212 0 -32.4373 48.1678 0 
-33.1212 46.8818 0 -28.6033 47.9388 0 -29.8669 47.9318 0 
-30.5038 46.6303 0 -25.9908 48.2348 0 -27.277 48.0238 0 
-27.9086 46.5259 0 -29.0039 12.7227 0 -29.0245 14.7426 0 
-78.9518 -36.659 0 -78.8844 -38.0157 0 -78.8713 -39.3631 0 
-78.8172 -40.7735 0 -77.7313 -38.5772 0 -78.6539 -42.1891 0 
-78.4574 -43.8606 0 -76.9415 -44.1701 0 -77.5549 -41.3402 0 
-78.9944 -33.9672 0 -79.0101 -35.3555 0 -77.8027 -35.9264 0 
-79.0563 -31.2906 0 -79.0647 -32.626 0 -77.9312 -33.2817 0 
-78.9312 -28.6053 0 -78.9531 -29.9529 0 -77.8982 -30.6028 0 
-78.7636 -25.9598 0 -78.8208 -27.3022 0 -77.6847 -27.9619 0 
-78.7005 -23.3106 0 -78.7478 -24.6473 0 -77.5585 -25.3462 0 
-78.7051 -20.6975 0 -78.6667 -21.9845 0 -77.5089 -22.7076 0 
-78.6973 -18.0454 0 -78.6757 -19.382 0 -77.4457 -20.0661 0 
-78.7034 -15.2952 0 -78.7175 -16.6742 0 -77.4364 -17.3794 0 
-78.743 -12.5861 0 -78.7605 -13.9398 0 -77.5137 -14.6527 0 
-78.7827 -9.86086 0 -78.7498 -11.2008 0 -77.5777 -11.912 0 
-78.7357 -7.08075 0 -78.7556 -8.50126 0 -77.5574 -9.16712 0 
-78.7068 -4.27621 0 -78.7365 -5.64954 0 -77.5311 -6.37631 0 
-78.7424 -1.55035 0 -78.7213 -2.95128 0 -77.5465 -3.62018 0 
-78.7988 1.21444 0 -78.7675 -0.147783 0 -77.5862 -0.892685 0 
-78.7946 3.91279 0 -78.7842 2.57936 0 -77.5967 1.87481 0 
-78.7977 6.65017 0 -78.7946 5.26576 0 -77.5821 4.5927 0 
-78.7421 9.39545 0 -78.7807 8.07309 0 -77.565 7.36859 0 
-78.7159 12.0847 0 -78.7249 10.7071 0 -77.5308 10.1031 0 
-78.6881 14.9389 0 -78.6978 13.4832 0 -77.4953 12.8132 0 
-78.7461 17.7846 0 -78.7293 16.3742 0 -77.5183 15.6469 0 
-78.7283 20.5676 0 -78.7156 19.1881 0 -77.529 18.4857 0 
-78.6845 23.3263 0 -78.6946 21.9257 0 -77.4647 21.2472 0 
-78.7777 26.0743 0 -78.7527 24.7096 0 -77.4992 23.9885 0 
-78.8202 28.8637 0 -78.8004 27.4746 0 -77.5901 26.7721 0 
-78.8223 31.7324 0 -78.8417 30.3025 0 -77.6343 29.6112 0 
-78.9034 34.4922 0 -78.8788 33.0984 0 -77.7124 32.416 0 
-78.9933 37.2286 0 -78.9464 35.8464 0 -77.812 35.1361 0 
-78.9885 40.0103 0 -79.0033 38.6156 0 -77.8651 37.8773 0 
-78.8765 42.8572 0 -78.929 41.4481 0 -77.8157 40.7022 0 
-78.7176 45.5044 0 -78.7711 44.1651 0 -77.6509 43.4479 0 
-77.4135 46.0368 0 -26.7137 40.8361 0 -26.5513 42.7097 0 
-29.6016 26.3318 0 -29.5953 29.3188 0 -26.8579 36.0831 0 
-26.9379 38.1218 0 -28.3265 39.5414 0 -28.821 16.7595 0 
-28.836 19.0958 0 -31.0891 15.9104 0 -29.1303 21.3622 0 
-29.3433 23.8538 0 -31.7324 24.938 0 -28.6632 8.8659 0 
-28.7113 10.8374 0 -31 12.0083 0 -27.3866 -11.6568 0 
-27.2698 -9.46122 0 -27.0097 -7.3581 0 -26.7301 -5.42225 0 
-28.6753 -8.51914 0 -27.767 -20.4606 0 -27.7454 -18.1868 0 
-27.8033 -25.28 0 -27.8664 -22.7607 0 -29.6714 -21.4898 0 
-27.6454 -29.5964 0 -27.7455 -27.5095 0 -29.7131 -26.0194 0 
-27.3278 -33.467 0 -27.4235 -31.5712 0 -29.4334 -30.2237 0 
-27.1305 -37.1379 0 -27.1491 -35.4027 0 -29.0327 -34.1342 0 
-27.1115 -40.3958 0 -27.1297 -38.8757 0 -28.8532 -37.8077 0 
-27.0181 -43.351 0 -27.0905 -42.0264 0 -28.8313 -41.1762 0 
-42.5658 7.60004 0 -43.1409 8.4731 0 -43.5219 24.9021 0 
-42.3537 24.8228 0 -32.512 -44.589 0 -31.0991 -44.5597 0 
-26.4484 -44.7649 0 -35.0714 -44.496 0 -33.7705 -44.496 0 
-33.1428 -43.4172 0 -37.76 -44.5693 0 -36.4248 -44.5308 0 
-35.7547 -43.3588 0 -40.5708 -44.5204 0 -39.1669 -44.5503 0 
-38.515 -43.3746 0 -43.424 -44.4847 0 -41.9961 -44.4841 0 
-41.3473 -43.3193 0 -46.0462 -44.4748 0 -44.7317 -44.4754 0 
-44.0805 -43.2737 0 -48.8421 -44.4628 0 -47.4467 -44.4621 0 
-46.7887 -43.2516 0 -51.5133 -44.4292 0 -50.1977 -44.4662 0 
-49.5449 -43.2423 0 -54.2239 -44.3871 0 -52.8399 -44.3978 0 
-52.2272 -43.2143 0 -56.9529 -44.3149 0 -55.5894 -44.344 0 
-54.9193 -43.1397 0 -59.6839 -44.2863 0 -58.3259 -44.3042 0 
-57.6578 -43.0858 0 -62.2471 -44.3541 0 -60.9624 -44.2999 0 
-60.3093 -43.0887 0 -64.9158 -44.4562 0 -63.599 -44.4041 0 
-62.9397 -43.1523 0 -67.5833 -44.5051 0 -66.2403 -44.5005 0 
-65.6161 -43.2466 0 -70.2068 -44.6477 0 -68.8899 -44.5868 0 
-68.2471 -43.3727 0 -72.8562 -44.7648 0 -71.4867 -44.7608 0 
-70.8334 -43.5677 0 -75.7089 -44.5227 0 -74.2627 -44.655 0 
-73.5198 -43.571 0 -76.1589 -43.1085 0 -46.1793 24.8838 0 
-44.9336 24.8562 0 -44.1128 26.0771 0 -46.9609 15.4696 0 
-47.4354 16.5261 0 -39.1986 19.3029 0 -38.7939 18.367 0 
-38.3882 17.2777 0 -37.9741 16.2792 0 -37.3951 18.3156 0 
-37.8099 15.2174 0 -37.3509 14.2303 0 -36.8251 16.1646 0 
-36.5845 13.4885 0 -36.0252 12.5726 0 -35.8945 14.3611 0 
-35.4206 11.547 0 -34.9225 10.626 0 -34.5236 12.5937 0 
-31.6988 6.45379 0 -30.8152 5.59708 0 -40.8408 23.2986 0 
-40.5464 22.1459 0 -47.9472 17.6111 0 -48.3561 18.7148 0 
-48.7977 16.6748 0 -44.8651 11.2884 0 -45.3747 12.2335 0 
-45.9586 13.3035 0 -46.4566 14.375 0 -46.6934 12.3306 0 
-40.0124 4.05731 0 -40.659 4.90082 0 -41.3168 5.79872 0 
-41.9353 6.69837 0 -41.8417 4.79377 0 -37.3307 0.507357 0 
-38.0284 1.37818 0 -38.6598 2.3068 0 -39.3211 3.14187 0 
-40.4926 2.98042 0 -39.1699 1.13636 0 -71.8478 48.5986 0 
-73.1388 48.7453 0 -73.7875 47.8139 0 -71.3177 47.2929 0 
-27.597 -15.9482 0 -27.5565 -13.702 0 -29.4236 -16.9512 0 
-40.2874 21.1498 0 -39.8768 20.1417 0 -38.4789 20.2436 0 
-39.4161 22.0785 0 -28.9367 -2.58006 0 -30.1294 -2.94824 0 
-43.7523 9.40042 0 -44.302 10.3329 0 -45.5464 10.3052 0 
-35.8199 -1.39334 0 -36.6142 -0.471458 0 -37.8221 -0.771077 0 
-28.2407 -44.2207 0 -27.3423 44.4333 0 -25.7913 44.8873 0 
-40.747 24.7715 0 -39.5815 24.5475 0 -31.1799 20.1936 0 
-34.3142 -3.39577 0 -35.0589 -2.38851 0 -36.3446 -2.74506 0 
-31.9878 30.5096 0 -29.5923 32.4123 0 -24.8029 49.0118 0 
-25.368 46.2477 0 -25.3944 47.3878 0 -26.099 -3.8789 0 
-26.3556 -1.97418 0 -26.1824 33.2804 0 -28.3794 7.1576 0 
-30.4237 8.41468 0 -29.1053 -12.6674 0 -28.6679 5.23148 0 
-48.8401 19.8182 0 -49.3074 20.8973 0 -49.7935 18.8632 0 
-27.7841 -4.87266 0 -44.3719 8.42232 0 -43.13 6.59334 0 
-41.0944 26.0717 0 -29.5621 -44.2079 0 -47.3273 24.8162 0 
-46.6725 25.9636 0 -47.7816 14.4952 0 -29.3432 4.12218 0 
-31.121 -3.65126 0 -32.2013 -4.10471 0 -30.3664 -4.4551 0 
-28.7113 3.10443 0 -27.696 2.35374 0 -32.8509 7.14894 0 
-31.2919 7.40153 0 -31.5757 9.10983 0 -33.6331 8.02135 0 
-34.7904 9.62292 0 -34.2384 8.75394 0 -33.0494 8.82927 0 
-27.8753 34.0243 0 -48.175 24.0041 0 -48.6683 25.0838 0 
-48.9267 23.0498 0 -30.2678 35.2151 0 -33.7869 10.565 0 
-26.8772 0.16592 0 -27.0285 -1.01354 0 -37.8645 24.6552 0 
-37.9582 23.1823 0 -62.0518 45.246 0 -63.4682 45.253 0 
-67.9292 45.5111 0 -69.3837 45.6139 0 -59.4065 45.2613 0 
-60.7069 45.2569 0 -61.427 43.8043 0 -56.7132 45.2804 0 
-58.0372 45.2873 0 -58.7128 43.8412 0 -54.1436 45.3948 0 
-55.4256 45.3309 0 -56.0559 43.9176 0 -51.2938 45.4153 0 
-52.7256 45.4184 0 -53.3503 43.9917 0 -48.534 45.419 0 
-49.9163 45.4209 0 -50.5549 44.0209 0 -45.7598 45.4032 0 
-47.1277 45.4064 0 -47.7711 44.0139 0 -43.1637 45.3866 0 
-44.4626 45.402 0 -45.0676 44.0002 0 -40.3733 45.2997 0 
-41.7834 45.3012 0 -42.3902 43.9136 0 -37.7672 45.2818 0 
-39.0412 45.2739 0 -39.6778 43.8023 0 -35.0639 45.5033 0 
-36.4235 45.4249 0 -37.0019 43.9196 0 -32.5154 45.6478 0 
-33.864 45.7099 0 -34.4582 44.2693 0 -30.055 44.8946 0 
-31.3238 45.084 0 -32.0667 43.9121 0 -33.8577 22.875 0 
-34.116 25.353 0 -32.7259 18.7079 0 -33.0201 20.9743 0 
-74.9382 46.9956 0 -76.112 46.5969 0 -76.244 45.3158 0 
-44.9236 27.4001 0 -43.5119 27.4459 0 -76.6899 -35.1755 0 
-76.6316 -36.479 0 -76.5864 -40.3618 0 -76.4231 -41.7774 0 
-75.1904 -42.13 0 -76.44 -27.3634 0 -76.5504 -28.6665 0 
-76.3392 -24.796 0 -76.3549 -26.1086 0 -75.2207 -26.8132 0 
-76.249 -22.1074 0 -76.2829 -23.4335 0 -75.0793 -24.1958 0 
-76.2018 -19.4395 0 -76.2312 -20.755 0 -75.0052 -21.4809 0 
-76.2001 -16.7412 0 -76.1799 -18.1124 0 -74.9655 -18.8014 0 
-76.248 -14.0194 0 -76.1909 -15.3747 0 -74.9344 -16.1078 0 
-76.2759 -11.2457 0 -76.2691 -12.631 0 -74.9462 -13.3531 0 
-76.2519 -8.47543 0 -76.279 -9.83503 0 -74.9704 -10.554 0 
-76.2578 -5.63982 0 -76.257 -7.07103 0 -74.9787 -7.73894 0 
-76.2772 -2.98382 0 -76.2626 -4.30875 0 -74.9886 -5.00347 0 
-76.3054 -0.218338 0 -76.2803 -1.6209 0 -74.9964 -2.30948 0 
-76.3059 2.52695 0 -76.3205 1.16202 0 -75.0146 0.433801 0 
-76.3448 5.25638 0 -76.3448 3.90342 0 -75.0686 3.19063 0 
-76.3092 8.12534 0 -76.3262 6.70241 0 -75.0889 6.01313 0 
-76.3013 10.737 0 -76.3185 9.42534 0 -75.0797 8.75917 0 
-76.2967 13.5379 0 -76.3149 12.1395 0 -75.1026 11.4617 0 
-76.3234 16.3487 0 -76.2823 14.9135 0 -75.1018 14.2398 0 
-76.2896 19.2221 0 -76.3201 17.8185 0 -75.084 17.0851 0 
-76.2427 21.9313 0 -76.2765 20.5733 0 -75.0676 19.9062 0 
-76.3056 24.6568 0 -76.2374 23.2735 0 -75.0491 22.5996 0 
-76.3449 27.4821 0 -76.3221 26.0818 0 -75.0603 25.3667 0 
-76.4267 30.3369 0 -76.4052 28.8981 0 -75.1373 28.2078 0 
-76.5441 33.129 0 -76.4875 31.763 0 -75.2584 31.0499 0 
-76.6726 35.8135 0 -76.6295 34.4593 0 -75.4046 33.8064 0 
-76.7303 38.5534 0 -76.7203 37.1663 0 -75.5378 36.4896 0 
-76.6535 41.368 0 -76.7129 39.9302 0 -75.5681 39.2192 0 
-34.2948 28.5742 0 -34.2919 31.6677 0 -76.719 -29.9442 0 
-76.8222 -31.282 0 -75.4744 -29.3457 0 -29.959 37.9473 0 
-29.7347 40.6616 0 -64.9093 45.3176 0 -66.3696 45.395 0 
-67.2135 44.0386 0 -64.2129 43.8579 0 -30.7618 -13.677 0 
-30.5919 -11.6319 0 -36.1835 19.4468 0 -35.7777 18.3575 0 
-31.7442 -27.0191 0 -31.802 -24.7896 0 -31.7715 -22.5287 0 
-31.672 -20.2286 0 -33.8026 -23.5284 0 -30.683 -34.908 0 
-30.8617 -32.9723 0 -30.4544 -38.5055 0 -30.4552 -36.7677 0 
-32.2842 -35.6058 0 -30.6516 -41.8097 0 -30.6726 -40.1791 0 
-32.2746 -39.139 0 -30.3474 -43.1585 0 -39.3171 -42.2001 0 
-37.9102 -42.2191 0 -33.4471 -42.0683 0 -32.1886 -42.1614 0 
-42.087 -42.0443 0 -40.6616 -42.0806 0 -40.0568 -40.9251 0 
-44.7602 -42.029 0 -43.4525 -42.0384 0 -42.7668 -40.7997 0 
-47.4742 -42.0101 0 -46.0737 -42.0228 0 -45.4457 -40.7875 0 
-50.2134 -41.9605 0 -48.8578 -41.9572 0 -48.1427 -40.7284 0 
-52.9284 -41.8827 0 -51.6018 -41.9141 0 -50.9147 -40.6289 0 
-55.647 -41.7761 0 -54.2815 -41.8192 0 -53.6561 -40.5191 0 
-58.3512 -41.7238 0 -56.9782 -41.7345 0 -56.3404 -40.414 0 
-60.994 -41.7318 0 -59.7155 -41.7182 0 -59.0359 -40.3668 0 
-63.6188 -41.8118 0 -62.267 -41.7618 0 -61.6731 -40.3912 0 
-66.3418 -41.9249 0 -65.0173 -41.8805 0 -64.3446 -40.49 0 
-69.0118 -42.1257 0 -67.7053 -42.0439 0 -67.1065 -40.6778 0 
-71.5432 -42.4207 0 -70.2634 -42.3076 0 -69.7216 -40.9788 0 
-48.6599 13.4264 0 -49.1642 14.5209 0 -27.8258 -2.36867 0 
-28.2639 -3.5407 0 -31.362 -18.0123 0 -31.2137 -15.7736 0 
-32.7002 -14.7381 0 -33.4621 -19.0511 0 -35.4178 15.6674 0 
-34.6514 14.9255 0 -31.676 36.3353 0 -36.4536 -42.2155 0 
-35.1002 -42.1808 0 -34.146 -40.925 0 -37.2557 -41.041 0 
-38.4846 -2.10037 0 -39.2011 -1.12155 0 -41.7604 27.6734 0 
-40.1537 27.6221 0 -31.3292 -31.1102 0 -31.5512 -29.1354 0 
-33.6401 -27.9056 0 -32.9795 -31.884 0 -47.6045 27.1397 0 
-46.4565 27.2073 0 -45.8555 28.5762 0 -30.2652 -9.57016 0 
-30.0051 -7.46705 0 -31.9217 -10.5798 0 -76.5327 -37.7031 0 
-76.5196 -39.0505 0 -75.3878 -39.4877 0 -75.4199 -36.9523 0 
-49.7728 15.6648 0 -50.2846 16.7498 0 -50.6511 14.596 0 
-45.0271 7.40602 0 -45.6385 8.33334 0 -76.8884 -32.5854 0 
-76.8181 -33.9266 0 -75.6471 -34.4792 0 -75.7092 -31.9269 0 
-43.7533 5.56686 0 -44.3838 6.46852 0 -45.6504 6.37953 0 
-46.2609 9.29803 0 -46.824 10.2535 0 -46.9161 8.28172 0 
-47.4568 11.2382 0 -48.0407 12.3082 0 -49.4233 12.3339 0 
-48.1712 10.2311 0 -42.4272 3.72736 0 -43.0851 4.62527 0 
-44.3388 4.50045 0 -70.4074 44.3769 0 -71.018 45.8361 0 
-72.3414 46.0559 0 -36.4201 26.5112 0 -35.4037 21.3893 0 
-49.8098 25.739 0 -48.9621 26.5511 0 -51.7935 16.8454 0 
-50.8184 17.8553 0 -51.3023 18.9587 0 -36.0708 33.4013 0 
-33.7638 35.3367 0 -76.3999 44.0699 0 -76.5052 42.7621 0 
-75.4025 41.9901 0 -75.0984 44.63 0 -33.5526 -4.77629 0 
-34.8221 -5.12075 0 -32.7093 -5.82969 0 -42.5712 28.9964 0 
-32.3132 10.8455 0 -32.6058 12.7308 0 -73.7918 46.6943 0 
-32.7336 15.0627 0 -32.5301 17.0795 0 -50.8313 21.1896 0 
-49.8613 22.1204 0 -50.4506 23.3422 0 -37.0092 -4.06909 0 
-37.7702 -3.07392 0 -39.1493 -3.4244 0 -37.021 21.3474 0 
-33.455 38.0689 0 -48.7461 27.7948 0 -33.2104 13.7564 0 
-28.6686 44.3483 0 -29.4887 42.802 0 -34.3704 17.8603 0 
-41.809 2.75818 0 -43.0524 2.58968 0 -41.1177 1.84274 0 
-74.0711 -42.5569 0 -72.6646 -42.6668 0 -72.0945 -41.4067 0 
-74.3352 -41.2259 0 -28.895 -5.08405 0 -31.1211 41.208 0 
-29.8866 -5.78707 0 -32.1811 9.84242 0 -40.4849 -1.42457 0 
-39.8223 -0.0952827 0 -40.4537 0.833342 0 -60.7362 42.2932 0 
-62.0811 42.2822 0 -52.539 42.5104 0 -53.957 42.4868 0 
-49.7741 42.6027 0 -51.1516 42.5972 0 -51.7583 41.0922 0 
-46.9682 42.5558 0 -48.3746 42.5683 0 -48.9713 41.1446 0 
-44.3225 42.5002 0 -45.6196 42.5014 0 -46.2231 41.0558 0 
-41.6984 42.5421 0 -43.0786 42.6275 0 -43.6307 41.1287 0 
-38.8882 41.7782 0 -40.2204 41.804 0 -40.9088 40.518 0 
-36.1197 42.5721 0 -37.4634 42.429 0 -38.006 40.4307 0 
-33.4655 42.9317 0 -34.6654 42.7251 0 -35.1269 41.2345 0 
-50.9249 24.7364 0 -51.2188 26.2037 0 -51.8595 23.8069 0 
-31.4765 -6.8381 0 -38.3537 31.8799 0 -37.8256 35.5489 0 
-73.7216 -23.642 0 -73.7779 -25.0045 0 -73.8835 -26.3992 0 
-73.9686 -27.6541 0 -72.5258 -25.8454 0 -73.5929 -18.1928 0 
-73.6147 -19.5199 0 -73.4928 -15.4781 0 -73.5021 -16.8445 0 
-72.1513 -17.563 0 -73.5247 -12.6494 0 -73.5037 -14.0378 0 
-72.0713 -14.7744 0 -73.5644 -9.81504 0 -73.5613 -11.2257 0 
-72.1187 -11.9104 0 -73.6054 -7.07847 0 -73.6003 -8.48286 0 
-72.1912 -9.15457 0 -73.6586 -4.34757 0 -73.6538 -5.67864 0 
-72.2755 -6.42256 0 -73.6285 -1.62918 0 -73.6255 -2.9921 0 
-72.2907 -3.66727 0 -73.6464 1.09058 0 -73.6313 -0.28978 0 
-72.2603 -0.972401 0 -73.7487 3.83006 0 -73.7098 2.45359 0 
-72.3265 1.73001 0 -73.7372 6.74185 0 -73.7557 5.29582 0 
-72.397 4.55878 0 -73.7645 9.44362 0 -73.7552 8.14361 0 
-72.422 7.4263 0 -73.7605 12.1538 0 -73.7469 10.7513 0 
-72.4224 10.1357 0 -73.7557 14.9425 0 -73.7701 13.5669 0 
-72.4145 12.8565 0 -73.7576 17.7885 0 -73.7609 16.3187 0 
-72.4293 15.6458 0 -73.7551 20.616 0 -73.7682 19.2648 0 
-72.4451 18.4983 0 -73.7687 23.2963 0 -73.7741 21.9541 0 
-72.4747 21.3127 0 -73.7744 26.0933 0 -73.7578 24.6683 0 
-72.4828 24.0228 0 -73.8512 28.9492 0 -73.7909 27.5331 0 
-72.4884 26.8347 0 -73.9911 31.8399 0 -73.9303 30.4138 0 
-72.584 29.7392 0 -74.1856 34.5163 0 -74.1001 33.186 0 
-72.7721 32.5499 0 -74.3647 37.2041 0 -74.317 35.8512 0 
-73.0125 35.2308 0 -74.3595 39.9385 0 -74.377 38.5617 0 
-73.1562 37.9234 0 -34.6077 39.2289 0 -32.5199 40.2275 0 
-73.4921 45.2375 0 -46.3472 5.28964 0 -46.9905 6.22713 0 
-35.8576 -24.6762 0 -35.8271 -22.4154 0 -51.5999 13.4477 0 
-52.2084 14.5916 0 -35.582 16.7291 0 -30.8601 0.686897 1 
-33.7599 -39.6007 0 -33.5417 -37.9271 0 -35.413 -39.7131 0 
-33.5433 -36.5225 0 -33.7711 -34.6629 0 -35.0285 -36.9842 0 
-46.0529 -39.5448 0 -44.7394 -39.551 0 -43.4417 -39.4342 0 
-42.0762 -39.4402 0 -44.0489 -38.1915 0 -40.7537 -39.5144 0 
-39.4091 -39.6339 0 -41.4286 -38.1489 0 -48.831 -39.4094 0 
-47.4474 -39.4624 0 -46.7411 -38.2259 0 -51.5106 -39.1818 0 
-50.1223 -39.2282 0 -49.427 -37.9622 0 -54.2787 -39.0633 0 
-52.9256 -39.1267 0 -52.1333 -37.726 0 -56.9869 -38.943 0 
-55.6556 -38.9846 0 -54.9251 -37.5922 0 -59.7395 -38.8797 0 
-58.3753 -38.8853 0 -57.6905 -37.4558 0 -62.3253 -38.9175 0 
-61.0524 -38.8875 0 -60.3918 -37.4059 0 -65.1231 -39.0901 0 
-63.7246 -39.0214 0 -63.1039 -37.5177 0 -67.9517 -39.3903 0 
-66.5883 -39.2712 0 -65.9683 -37.8026 0 -70.6047 -39.7822 0 
-69.353 -39.6003 0 -68.8348 -38.1938 0 -55.367 42.4552 0 
-56.6546 42.4047 0 -54.5557 40.9739 0 -58.0119 42.3322 0 
-59.3812 42.3063 0 -60.0353 40.7842 0 -57.323 40.8698 0 
-43.7535 30.1239 0 -42.002 30.3513 0 -50.1292 28.9681 0 
-48.7716 29.5567 0 -74.1344 -28.9189 0 -74.303 -30.1966 0 
-72.7973 -28.5049 0 -73.6669 -20.9032 0 -73.6847 -22.2556 0 
-72.3833 -23.0643 0 -72.2943 -20.2946 0 -46.9207 29.8547 0 
-45.3878 30.0474 0 -44.8186 31.4023 0 -38.0433 27.8764 0 
-38.7093 29.4781 0 -40.4641 31.6256 0 -33.5735 -11.6501 0 
-33.2468 -9.58835 0 -44.9929 3.38666 0 -45.6611 4.32825 0 
-47.0012 4.17585 0 -37.6992 22.1862 0 -47.6499 7.19185 0 
-48.2723 8.15655 0 -48.3467 6.10196 0 -32.8278 -7.50967 0 
-74.1234 -38.6996 0 -74.1902 -40.0109 0 -73.0708 -40.4378 0 
-52.7274 26.764 0 -51.6123 27.7666 0 -51.6378 29.5284 0 
-52.8549 15.7434 0 -53.3887 16.8489 0 -53.8037 14.5951 0 
-35.8849 -26.9115 0 -37.9095 -25.7985 0 -35.6919 -29.0279 0 
-41.3202 -2.81232 0 -41.9414 -1.78605 0 -52.8995 19.1539 0 
-51.8746 20.1618 0 -52.4285 21.3848 0 -35.4625 -6.30404 0 
-36.2241 -4.92353 0 -37.6497 -5.25239 0 -34.4795 -8.57995 0 
-74.3861 41.2487 0 -73.1949 40.5912 0 -74.2378 42.6427 0 
-37.6598 -21.2148 0 -35.6047 -20.067 0 -66.3925 42.4743 0 
-67.952 42.5905 0 -50.8755 12.3197 0 -52.4328 12.3152 0 
-50.2562 11.2015 0 -35.2947 -17.8506 0 -63.4863 42.3283 0 
-64.9273 42.3929 0 -65.6659 40.9448 0 -62.7956 40.8173 0 
-39.7697 36.9037 0 -37.4868 38.4251 0 -41.7701 0.611095 0 
-69.5405 42.6209 0 -71.1748 42.8431 0 -68.7194 41.0566 0 
-34.7613 -15.5984 0 -34.3094 -13.5018 0 -36.9039 -16.6142 0 
-34.8736 -33.0675 0 -35.3411 -31.2053 0 -37.586 -30.2113 0 
-39.9269 -4.91423 0 -40.6414 -3.94067 0 -42.0978 -4.30215 0 
-48.3038 31.028 0 -73.3423 -30.8906 0 -74.6822 -31.3175 0 
-74.7484 -32.6209 0 -32.2738 42.3679 0 -38.1407 -39.9747 0 
-36.6841 -39.9711 0 -36.298 -38.6468 0 -38.8376 -38.5639 0 
-44.3218 2.41867 0 -45.6441 2.24646 0 -43.7036 1.44948 0 
-35.6345 -12.5103 0 -71.9495 -40.1917 0 -73.9856 -36.0333 0 
-73.8867 -37.2575 0 -72.689 -37.7807 0 -74.6966 -33.6894 0 
-74.5683 -34.9383 0 -73.0351 -35.2435 0 -73.6697 -33.08 0 
-48.9077 9.16644 0 -49.5405 10.1511 0 -50.9926 10.1368 0 
-49.6415 8.07656 0 -71.5809 -38.8133 0 -73.648 43.9916 0 
-50.8811 39.4715 0 -52.2685 39.3847 0 -42.5893 39.582 0 
-43.8331 39.4546 0 -52.9791 22.7137 0 -53.4535 24.1079 0 
-54.0224 21.6858 0 -49.3192 32.6867 0 -47.4683 32.9847 0 
-71.1292 -25.4019 0 -71.2348 -26.7966 0 -45.4927 32.8988 0 
-43.8584 32.9753 0 -70.4113 -14.0918 0 -70.4004 -15.5321 0 
-70.5348 -16.9618 0 -70.6256 -18.3101 0 -68.8748 -16.2791 0 
-70.7692 -8.49836 0 -70.7333 -9.83054 0 -70.8951 -5.72737 0 
-70.8467 -7.12719 0 -69.3889 -7.80317 0 -70.8035 -2.99654 0 
-70.8367 -4.35201 0 -69.4079 -5.05664 0 -70.7859 -0.334105 0 
-70.7832 -1.6735 0 -69.3291 -2.35824 0 -70.857 2.3875 0 
-70.7935 1.02449 0 -69.3164 0.323388 0 -70.9231 5.30483 0 
-70.9161 3.83907 0 -69.3831 3.13355 0 -71.0676 8.13618 0 
-71.0495 6.73441 0 -69.5687 6.0147 0 -71.0715 10.787 0 
-71.0891 9.47934 0 -69.7166 8.78745 0 -71.0555 13.5873 0 
-71.0459 12.1742 0 -69.7125 11.5178 0 -71.0212 16.3197 0 
-71.016 14.9435 0 -69.6474 14.2612 0 -71.0646 19.269 0 
-71.054 17.7927 0 -69.6407 17.0904 0 -71.0925 21.974 0 
-71.0735 20.6359 0 -69.6824 19.9303 0 -71.0603 24.7788 0 
-71.0712 23.4068 0 -69.6701 22.73 0 -71.1031 27.613 0 
-71.0866 26.1732 0 -69.675 25.5571 0 -71.24 30.586 0 
-71.1609 29.1214 0 -69.7591 28.4599 0 -71.5023 33.3957 0 
-71.3933 32.0496 0 -69.9702 31.4318 0 -71.8106 36.1015 0 
-71.6792 34.7666 0 -70.3004 34.2663 0 -72.0908 38.7197 0 
-72.0785 37.3621 0 -70.7452 36.8979 0 -40.099 -22.321 0 
-39.8766 -19.9726 0 -36.062 39.0759 0 -71.3442 -37.3712 0 
-70.5218 -11.1767 0 -70.4852 -12.6004 0 -68.8143 -13.3581 0 
-69.0998 -10.5205 0 -44.7658 -36.9909 0 -43.468 -36.8741 0 
-36.4201 -37.2681 0 -36.4218 -35.8635 0 -37.6912 -37.526 0 
-49.8091 -36.2955 0 -48.5177 -36.4767 0 -42.4494 -0.63603 0 
-43.1135 0.373369 0 -44.3829 0.202356 0 -43.2847 -2.02378 0 
-47.3029 -36.9826 0 -45.9084 -37.0651 0 -45.3275 -35.7476 0 
-42.082 -36.2535 0 -40.7595 -36.3277 0 -42.799 -35.0528 0 
-39.3286 -17.5526 0 -38.7951 -15.3003 0 -41.7677 -18.6587 0 
-52.5979 -36.0964 0 -51.1829 -36.1515 0 -50.2737 -34.666 0 
-55.4808 -35.9343 0 -54.1038 -36.013 0 -53.1535 -34.4386 0 
-58.3184 -35.7824 0 -56.93 -35.8401 0 -56.1087 -34.2609 0 
-61.0552 -35.7984 0 -59.7424 -35.7905 0 -58.9818 -34.1749 0 
-63.8555 -35.9816 0 -62.4562 -35.8777 0 -61.8068 -34.2623 0 
-66.882 -36.3061 0 -65.4169 -36.125 0 -64.7692 -34.4851 0 
-69.8023 -36.8237 0 -68.401 -36.6136 0 -67.8496 -34.936 0 
-41.6464 32.7531 0 -53.6842 39.4351 0 -55.0941 39.4036 0 
-52.807 37.8144 0 -71.462 -28.2867 0 -71.6278 -29.5515 0 
-70.0654 -27.8432 0 -48.1403 39.788 0 -49.5399 39.8224 0 
-50.0501 38.1149 0 -45.4202 39.4382 0 -46.7688 39.4926 0 
-47.3374 38.1704 0 -44.3788 37.8914 0 -37.9153 -12.9849 0 
-37.1794 -11.1332 0 -47.7089 2.99539 0 -48.395 3.95678 0 
-49.1327 4.9169 0 -49.792 5.88162 0 -49.8403 3.73644 0 
-70.9104 -35.7911 0 -42.3205 34.2496 0 -54.0317 25.6688 0 
-54.4252 27.2316 0 -59.3476 39.131 0 -60.7026 39.1179 0 
-55.1513 24.5756 0 -54.8485 13.3817 0 -55.4949 14.5336 0 
-46.5081 34.5576 0 -71.0595 -23.9132 0 -69.7686 -24.8644 0 
-71.0227 -22.5268 0 -43.2085 -5.93426 0 -43.8873 -4.80591 0 
-40.3399 -13.9232 0 -41.4501 35.9677 0 -43.6621 36.1898 0 
-45.5241 -4.94873 0 -44.4134 -3.31662 0 -44.9215 -2.1666 0 
-69.2035 -19.0887 0 -70.8199 -19.6899 0 -70.8721 -21.0732 0 
-71.7381 40.184 0 -70.6605 39.6227 0 -40.1832 -24.7289 0 
-42.4 -23.4867 0 -40.2105 -26.9642 0 -47.685 -35.3159 0 
-64.9706 39.3336 0 -66.4358 39.415 0 -70.722 -30.9877 0 
-72.0574 -31.206 0 -72.4365 -32.3269 0 -38.1821 -6.81956 0 
-38.9672 -5.96513 0 -40.4593 -6.4814 0 -71.7647 41.4942 0 
-36.1327 -33.9842 0 -53.3452 11.0829 0 -54.0696 12.2109 0 
-55.7608 12.1494 0 -55.0504 16.9141 0 -53.9889 18.0161 0 
-54.5611 19.2191 0 -35.9273 -9.63687 0 -35.5082 -7.55819 0 
-62.1301 39.1799 0 -63.5353 39.226 0 -64.3052 37.6962 0 
-61.4424 37.5267 0 -67.8287 39.535 0 -69.4171 39.5655 0 
-69.7698 38.1011 0 -67.1335 37.9238 0 -72.6316 43.2502 0 
-39.6054 -31.316 0 -39.9561 -29.1385 0 -42.2299 -28.0688 0 
-53.6999 29.9186 0 -52.2168 31.1201 0 -56.585 39.3224 0 
-57.9423 39.2499 0 -58.6096 37.5835 0 -55.7135 37.7836 0 
-47.004 2.00404 0 -48.3978 1.78498 0 -46.333 1.03605 0 
-51.2377 5.7138 0 -50.4518 6.89885 0 -51.0872 7.90874 0 
-51.1251 32.5326 0 -53.1872 32.9227 0 -37.5243 -34.268 0 
-38.208 -10.1114 0 -39.6131 -35.2897 0 -39.3241 -33.4105 0 
-41.6943 -32.3377 0 -56.4715 23.3377 0 -57.0497 24.8986 0 
-41.1113 38.8439 0 -54.7686 36.3162 0 -56.2595 36.235 0 
-47.2248 36.2592 0 -45.2492 36.1734 0 -38.9597 -37.1852 0 
-42.2257 -7.34025 0 -44.0152 -7.844 0 -41.266 -8.39115 0 
-56.315 27.7731 0 -55.0107 28.8683 0 -55.5898 30.46 0 
-67.7902 -4.47222 0 -67.8487 -5.84758 0 -68.1207 -7.12355 0 
-68.0432 -8.49473 0 -66.503 -6.53914 0 -67.7379 1.03048 0 
-67.7304 -0.328118 0 -67.8827 3.87125 0 -67.8236 2.41968 0 
-66.2376 1.76817 0 -68.1559 6.73613 0 -68.0294 5.30655 0 
-66.4699 4.59267 0 -68.2214 9.51789 0 -68.1999 8.17472 0 
-66.6606 7.46657 0 -68.1592 12.2293 0 -68.1849 10.8421 0 
-66.6682 10.2294 0 -68.102 14.9855 0 -68.1415 13.6293 0 
-66.6139 12.9536 0 -68.0307 17.8176 0 -67.9979 16.3446 0 
-66.492 15.7128 0 -68.1928 20.6313 0 -68.1838 19.2644 0 
-66.541 18.5187 0 -68.1837 23.5005 0 -68.205 22.0677 0 
-66.7064 21.4018 0 -68.1219 26.3255 0 -68.0956 24.9312 0 
-66.6305 24.2689 0 -68.2314 29.4253 0 -68.1737 27.9169 0 
-66.5942 27.291 0 -68.6153 32.438 0 -68.4619 30.9744 0 
-66.8765 30.4315 0 -69.0648 35.3924 0 -68.8879 34.0214 0 
-67.3796 33.5641 0 -69.5018 36.8406 0 -50.4548 -32.9661 0 
-49.0809 -33.1101 0 -47.1875 -33.7141 0 -45.9726 -34.2199 0 
-47.3685 -32.0141 0 -53.6147 -32.9353 0 -52.1087 -33.0187 0 
-50.916 -31.4628 0 -45.0907 -0.941629 0 -45.6808 0.134482 0 
-47.0408 -0.107937 0 -46.2194 -2.23447 0 -55.2145 20.5488 0 
-55.7651 21.8777 0 -56.3038 19.4109 0 -43.1059 -14.9017 0 
-42.2261 -12.5863 0 -44.6053 -19.7347 0 -44.0573 -17.3146 0 
-56.4984 -32.34 0 -55.0492 -32.4342 0 -54.0044 -31.0143 0 
-59.5814 -32.2925 0 -58.1574 -32.2844 0 -57.0979 -30.4576 0 
-62.5512 -32.5447 0 -61.1502 -32.4653 0 -60.3258 -30.5748 0 
-65.6723 -32.9162 0 -64.1109 -32.7729 0 -63.4543 -30.9759 0 
-68.8296 -33.5731 0 -67.3106 -33.2655 0 -66.6523 -31.5533 0 
-57.2873 14.5189 0 -56.2425 15.7323 0 -56.8427 16.8994 0 
-50.6283 2.42509 0 -51.3659 3.38521 0 -68.584 -27.4248 0 
-68.8111 -28.9148 0 -57.6764 35.5293 0 -59.0816 35.4105 0 
-56.7316 34.0619 0 -71.802 -34.4904 0 -70.2601 -33.9429 0 
-67.7437 -1.72663 0 -67.764 -3.04966 0 -66.1652 -1.01954 0 
-66.9652 -15.6989 0 -67.0996 -17.1287 0 -51.8283 8.96618 0 
-52.544 10.0165 0 -54.1808 9.91224 0 -52.6386 7.78847 0 
-69.7211 -32.2724 0 -48.5963 36.5546 0 -57.6635 22.2007 0 
-44.0122 -11.4074 0 -41.2463 -10.4289 0 -69.2916 -30.6179 0 
-69.5483 -21.9221 0 -57.5891 26.5284 0 -58.1746 28.165 0 
-58.9093 25.2906 0 -49.9375 36.2037 0 -66.2048 -3.84061 0 
-68.223 -24.2742 0 -68.2927 -25.7629 0 -67.0384 -26.8345 0 
-36.9102 -7.36097 0 -43.444 -33.5252 0 -43.7253 -31.4306 0 
-47.2106 -6.3988 0 -47.7367 -4.90951 0 -67.3689 -18.6664 0 
-67.5632 -20.0462 0 -65.4593 -18.0862 0 -66.3199 -9.03203 0 
-67.588 -9.71164 0 -67.3765 -11.0578 0 -68.0893 36.5957 0 
-44.8136 -24.8098 0 -44.7294 -22.402 0 -47.019 -21.0579 0 
-38.2278 -8.07371 0 -60.7821 35.7503 0 -62.2097 35.8123 0 
-59.8489 33.6961 0 -52.9858 3.14357 0 -52.1979 4.45493 0 
-52.8577 5.47216 0 -39.4799 -9.57004 0 -45.9435 -15.9777 0 
-58.3927 13.2149 0 -59.1403 14.4137 0 -49.7249 1.52246 0 
-51.2505 1.17123 0 -49.0201 0.531114 0 -67.8102 -30.1995 0 
-51.7434 36.0496 0 -53.159 36.1 0 -53.7051 34.5514 0 
-57.5607 11.9597 0 -59.4137 11.8544 0 -56.7819 10.7889 0 
-44.1454 -29.294 0 -44.3997 -27.1197 0 -45.8951 -30.4814 0 
-66.9987 -14.0819 0 -65.2235 -14.9314 0 -67.0726 -12.5905 0 
-66.6964 36.4756 0 -46.4732 -8.29732 0 -48.6858 -8.25811 0 
-45.4904 -9.70332 0 -58.8151 20.9163 0 -59.5215 22.3764 0 
-64.7429 5.47683 0 -64.5963 4.04152 0 -64.5263 2.59428 0 
-64.4406 1.20508 0 -62.7993 3.47844 0 -64.7009 10.9656 0 
-64.7374 9.64136 0 -64.4375 16.4577 0 -64.5416 15.0986 0 
-65.3585 22.0549 0 -65.3463 20.6186 0 -64.5585 24.9582 0 
-64.6466 23.5275 0 -63.2865 22.7442 0 -64.9327 28.3229 0 
-64.8808 26.7315 0 -62.897 25.9901 0 -65.4799 31.5665 0 
-65.2495 30.0174 0 -63.5361 29.4579 0 -66.1552 34.8639 0 
-65.8825 33.2804 0 -64.2555 32.8663 0 -65.1993 36.192 0 
-47.7886 -29.8775 0 -68.1129 -21.3372 0 -68.2635 -22.7908 0 
-66.7876 -23.6893 0 -66.2783 -20.9149 0 -57.4625 -28.2218 0 
-55.8034 -28.2774 0 -63.764 36.0845 0 -61.3664 14.4766 0 
-60.261 15.7805 0 -66.1719 -29.8502 0 -50.2896 34.4894 0 
-63.1038 34.3081 0 -65.6239 -27.9516 0 -64.466 -29.3054 0 
-62.9064 -29.0773 0 -57.5245 31.383 0 -56.2137 32.4333 0 
-57.6063 18.157 0 -58.2596 19.4867 0 -60.1176 19.6624 0 
-58.7984 16.9752 0 -64.3621 -0.34829 0 -64.3754 -1.7468 0 
-62.6508 0.477825 0 -61.1305 -28.5777 0 -59.5616 -28.4048 0 
-58.2671 -26.2247 0 -44.83 -34.1457 0 -65.2849 8.25659 0 
-65.2409 6.818 0 -63.3672 6.26685 0 -63.3177 8.99279 0 
-64.5901 -6.48902 0 -64.862 -7.76499 0 -58.6534 29.8923 0 
-59.2773 31.8656 0 -60.9778 32.2054 0 -59.9275 28.6476 0 
-51.9688 -29.418 0 -50.3149 -29.3654 0 -46.4703 -11.8607 0 
-55.8587 9.58572 0 -57.6586 9.39602 0 -55.0576 8.51938 0 
-60.676 10.4884 0 -61.5079 11.7436 0 -63.5171 -17.7935 0 
-63.7864 -19.3312 0 -49.464 -4.42879 0 -47.7775 -2.97872 0 
-64.4069 -8.98191 0 -54.7968 33.1389 0 -65.1717 13.7088 0 
-65.1894 12.3088 0 -64.9575 19.3243 0 -64.8043 17.8775 0 
-62.7012 32.5941 0 -46.7291 -26.035 0 -49.9013 -22.495 0 
-49.7773 -19.8277 0 -48.8415 -27.8327 0 -72.3847 -33.3954 0 
-53.9575 1.68695 0 -54.7895 2.75668 0 -53.3313 6.6304 0 
-54.0724 7.68783 0 -55.7503 7.36131 0 -54.2915 5.37153 0 
-65.3326 -26.2898 0 -49.095 -16.5972 0 -48.1436 -14.1842 0 
-63.2779 -15.8387 0 -61.605 -17.0837 0 -63.3114 -14.2217 0 
-53.4033 -28.9169 0 -53.7679 -26.6811 0 -62.5887 -2.63811 0 
-64.3918 -3.30936 0 -64.4181 -4.73192 0 -51.8998 -0.541763 0 
-52.8031 0.360864 0 -54.6068 -0.0260348 0 -63.2587 11.7208 0 
-65.5609 -11.7817 0 -51.9774 -18.0343 0 -49.6218 -12.4802 0 
-62.7771 -5.95777 0 -63.6096 19.9774 0 -62.8539 17.2633 0 
-62.1422 -26.9073 0 -63.5777 -25.184 0 -61.8018 -24.6844 0 
-64.9922 -24.0669 0 -59.4407 9.09048 0 -61.5349 8.97967 0 
-62.0823 7.5949 0 -58.5175 7.88732 0 -62.5408 -20.9998 0 
-64.483 -21.2925 0 -60.4723 23.9388 0 -61.0117 25.5686 0 
-61.6239 22.6544 0 -61.0393 1.47 0 -60.9607 -0.0833703 0 
-63.1172 14.4537 0 -63.8197 -10.731 0 -63.5158 -12.2637 0 
-61.5702 -13.171 0 -62.3619 -9.46394 0 -62.1296 30.7636 0 
-49.2554 -25.5229 0 -52.0137 -24.2927 0 -47.9467 -1.75375 0 
-48.5989 -0.852186 0 -50.4516 -9.99621 0 -51.1889 -8.09768 0 
-60.2654 -1.65815 0 -60.2818 -3.22071 0 -58.6538 -0.665972 0 
-52.1249 -12.3198 0 -54.1166 -13.8659 0 -54.9464 -11.3819 0 
-61.9964 13.0868 0 -53.5792 -7.61516 0 -51.8135 -5.87707 0 
-51.8543 -3.94628 0 -61.0246 17.0381 0 -60.8796 -4.99397 0 
-61.0516 -6.75107 0 -58.5563 -4.01401 0 -61.334 27.3418 0 
-61.8127 29.0691 0 -59.4911 -24.2528 0 -57.3919 -24.0698 0 
-61.3914 18.458 0 -60.9266 -22.5295 0 -58.5387 -7.37887 0 
-60.4363 -8.34267 0 -31.0878 -7.10543e-15 1 -57.4308 -10.9492 0 
-55.439 -9.40312 0 -53.8281 -3.37334 0 -51.4786 -1.92506 0 
-61.5844 6.25373 0 -49.926 -1.1147 0 -55.6377 -21.6814 0 
-54.4138 -23.6532 0 -59.2385 -16.3827 0 -59.4777 -18.3374 0 
-61.9469 19.8876 0 -56.0811 -3.81765 0 -55.7054 -1.79644 0 
-57.8635 -19.8671 0 -54.8854 -19.4506 0 -60.23 -20.5682 0 
-56.6789 -5.59091 0 -62.3358 21.1818 0 -60.564 4.69608 0 
-60.494 3.24884 0 -58.8039 2.68765 0 -59.2791 6.02414 0 
-54.2031 -16.2201 0 -57.0246 -15.2822 0 -57.01 2.88327 0 
-56.0383 4.33989 0 -56.0636 -7.18251 0 -57.5552 1.10443 0 
-57.4971 6.32967 0 -59.152 -14.0285 0 -59.3564 -12.0705 0 
-56.512 5.49813 0 -65.0327 -22.5835 0 -56.8599 -0.470349 0 
-59.849 -10.0917 0 -22.3239 50.9473 1 -22.3239 -46.8027 1 
-22.3239 -45.6027 1 -22.3239 49.7973 1 -22.3239 48.6473 1 
-22.3239 47.0473 1 -22.3239 45.5473 1 -22.3239 43.8473 1 
-22.3239 42.0973 1 -22.3239 40.0973 1 -22.3239 38.1473 1 
-22.3239 35.7973 1 -22.3239 33.6473 1 -22.3239 11.3473 1 
-22.3239 9.29731 1 -22.3239 3.14731 1 -22.3239 1.39731 1 
-22.3239 -0.252694 1 -22.3239 -1.90269 1 -22.3239 -31.3027 1 
-22.3239 -33.2027 1 -22.3239 -35.2527 1 -22.3239 -36.9527 1 
-22.3239 -38.5027 1 -22.3239 -40.1027 1 -22.3239 -41.5527 1 
-22.3239 -42.9527 1 -22.3239 -44.3027 1 -22.3239 5.09731 1 
-22.3239 -7.40269 1 -22.3239 -5.65269 1 -22.3239 -11.5027 1 
-22.3239 -9.55269 1 -22.3239 -29.0527 1 -22.3239 7.14731 1 
-22.3239 31.0473 1 -22.3239 28.6473 1 -22.3239 20.8473 1 
-22.3239 18.3473 1 -22.3239 15.8973 1 -22.3239 13.6473 1 
-22.3239 -3.80269 1 -22.3239 23.1973 1 -22.3239 -13.9527 1 
-22.3239 -16.4527 1 -22.3239 -18.8027 1 -22.3239 -21.4527 1 
-22.3239 -24.1527 1 -22.3239 -26.6527 1 -22.3239 25.9973 1 
-82.3239 -46.8027 1 -82.3239 50.9973 1 -82.3239 49.8973 1 
-82.3239 -45.6527 1 -82.3239 -44.5027 1 -82.3239 -43.1527 1 
-82.3239 -42.0527 1 -82.3239 -40.7027 1 -82.3239 -39.6527 1 
-82.3239 -38.3027 1 -82.3239 -37.1527 1 -82.3239 -35.7527 1 
-82.3239 -33.5027 1 -82.3239 -32.0527 1 -82.3239 -31.0027 1 
-82.3239 -29.7527 1 -82.3239 -28.7527 1 -82.3239 -27.4527 1 
-82.3239 -26.3027 1 -82.3239 -24.8027 1 -82.3239 -22.6527 1 
-82.3239 -21.4027 1 -82.3239 -20.3527 1 -82.3239 -19.0527 1 
-82.3239 -18.0027 1 -82.3239 -16.6527 1 -82.3239 -15.6027 1 
-82.3239 -14.2527 1 -82.3239 -12.0527 1 -82.3239 -10.6527 1 
-82.3239 -9.60269 1 -82.3239 -8.25269 1 -82.3239 -7.20269 1 
-82.3239 -5.85269 1 -82.3239 -4.75269 1 -82.3239 -3.30269 1 
-82.3239 -1.15269 1 -82.3239 0.247306 1 -82.3239 1.39731 1 
-82.3239 2.74731 1 -82.3239 3.79731 1 -82.3239 5.09731 1 
-82.3239 6.14731 1 -82.3239 7.49731 1 -82.3239 9.79731 1 
-82.3239 11.0973 1 -82.3239 12.2973 1 -82.3239 13.7473 1 
-82.3239 17.2973 1 -82.3239 18.7473 1 -82.3239 21.0473 1 
-82.3239 22.4473 1 -82.3239 23.4973 1 -82.3239 24.7973 1 
-82.3239 25.8473 1 -82.3239 27.2473 1 -82.3239 29.7473 1 
-82.3239 28.2973 1 -82.3239 31.9473 1 -82.3239 33.2473 1 
-82.3239 36.9473 1 -82.3239 38.3473 1 -82.3239 40.3973 1 
-82.3239 41.7473 1 -82.3239 42.8473 1 -82.3239 44.1473 1 
-82.3239 45.2473 1 -82.3239 46.5973 1 -82.3239 47.6973 1 
-82.3239 48.8973 1 -82.3239 14.7473 1 -82.3239 16.1973 1 
-82.3239 30.9473 1 -82.3239 34.2973 1 -82.3239 35.8473 1 
-82.3239 -34.6527 1 -82.3239 -23.7027 1 -82.3239 -13.2027 1 
-82.3239 -2.20269 1 -82.3239 8.69731 1 -82.3239 19.8473 1 
-82.3239 39.3973 1 -81.2439 52.0473 1 -23.3139 52.0473 1 
-24.3339 52.0473 1 -80.0439 52.0473 1 -78.7839 52.0473 1 
-76.6539 52.0473 1 -75.3039 52.0473 1 -74.1939 52.0473 1 
-72.7839 52.0473 1 -71.7639 52.0473 1 -70.4439 52.0473 1 
-68.3439 52.0473 1 -66.9639 52.0473 1 -65.8839 52.0473 1 
-64.5039 52.0473 1 -63.4539 52.0473 1 -62.1639 52.0473 1 
-61.1439 52.0473 1 -59.9439 52.0473 1 -57.7539 52.0473 1 
-56.4039 52.0473 1 -55.4139 52.0473 1 -54.0939 52.0473 1 
-52.9839 52.0473 1 -51.5439 52.0473 1 -50.4639 52.0473 1 
-49.1139 52.0473 1 -46.9239 52.0473 1 -45.4839 52.0473 1 
-44.4939 52.0473 1 -43.2339 52.0473 1 -42.1239 52.0473 1 
-40.7439 52.0473 1 -39.5439 52.0473 1 -38.2239 52.0473 1 
-36.0939 52.0473 1 -34.7139 52.0473 1 -33.6639 52.0473 1 
-32.3139 52.0473 1 -31.2339 52.0473 1 -29.9139 52.0473 1 
-28.8939 52.0473 1 -27.6339 52.0473 1 -26.5839 52.0473 1 
-25.4439 52.0473 1 -77.7339 52.0473 1 -69.4239 52.0473 1 
-58.9239 52.0473 1 -48.0639 52.0473 1 -37.2039 52.0473 1 
-44.2098 20.3306 2 -43.888 19.2683 2 -43.5224 18.2337 2 
-43.179 17.2725 2 -42.7873 16.3162 2 -42.3786 15.3254 2 
-41.8907 14.286 2 -41.4049 13.2597 2 -40.9319 12.3696 2 
-40.4184 11.4143 2 -39.8572 10.4715 2 -39.331 9.59686 2 
-38.7229 8.68354 2 -38.1048 7.76158 2 -37.514 6.96071 2 
-36.9126 6.15185 2 -36.2444 5.3303 2 -35.5812 4.52116 2 
-34.8299 3.68677 2 -34.1373 2.91975 2 -33.4178 2.19579 2 
-32.6987 1.47141 2 -31.8978 0.740123 2 -44.19 20.27 0 
-43.8801 19.244 0 -43.1558 17.2131 0 -43.4839 18.1391 0 
-42.3108 15.174 0 -42.711 16.1545 0 -41.4443 13.3398 0 
-41.8748 14.2653 0 -40.4372 11.4477 0 -40.9603 12.4411 0 
-39.3446 9.61849 0 -39.8979 10.5512 0 -38.2221 7.92866 0 
-38.7994 8.80121 0 -36.9518 6.20221 0 -37.6016 7.08635 0 
-35.5561 4.49222 0 -36.2997 5.40044 0 -34.1808 2.96642 0 
-34.8928 3.75029 0 -32.6802 1.4538 0 -33.3926 2.16683 0 
-31.8518 0.695981 0 -45.2207 20.3273 1 -44.904 19.3168 1 
-32.8978 0.721292 1 -33.7171 1.48909 1 -44.1424 17.1773 1 
-44.55 18.2781 1 -43.3064 15.162 1 -43.759 16.2175 1 
-42.3819 13.2141 1 -42.8261 14.1189 1 -41.4249 11.4253 1 
-41.9169 12.3197 1 -40.3242 9.58605 1 -40.8728 10.477 1 
-39.1709 7.85547 1 -39.7261 8.6661 1 -38.5597 7.00623 1 
-37.3012 5.38279 1 -37.9596 6.2123 1 -35.9843 3.83964 1 
-36.6393 4.58898 1 -34.4445 2.20524 1 -35.2249 3.0125 1 
-38.2001 7.89732 1 -38.7449 8.71487 1 -39.2901 9.53216 1 
-39.8163 10.4068 1 -79.1057 30.1305 1 -80.1684 30.6807 1 
-79.0863 31.5604 1 -80.1489 32.1106 1 -37.5062 6.95062 1 
-36.9048 6.14176 1 -40.3556 11.3033 1 -42.4145 15.4072 1 
-41.9266 14.3678 1 -44.2098 20.3306 1 -43.2063 17.3441 1 
-42.8147 16.3877 1 -40.869 12.2585 1 -37.2387 -40.242 1 
-37.8102 -41.3119 1 -36.3537 -41.3083 1 -43.9 19.3046 1 
-43.5344 18.2701 1 -34.0846 2.86426 1 -34.7966 3.64813 1 
-33.365 2.1403 1 -36.2527 5.34 1 -35.5895 4.53087 1 
-32.6526 1.42726 1 -31.8518 0.695981 1 -24.1083 10.4165 1 
-26.3039 11.7687 1 -24.0061 8.1007 1 -26.2017 9.45291 1 
-41.3531 13.1572 1 -41.4961 13.4423 1 -81.3618 -43.8934 1 
-81.3618 -45.2434 1 -80.3418 -46.3934 1 -81.3039 -46.8027 1 
-79.9615 -44.8997 1 -34.9262 3.78893 1 -37.6927 10.5833 1 
-60.2926 35.6978 1 -58.3894 36.445 1 -59.3594 33.6436 1 
-57.4562 34.3908 1 -24.5402 14.9695 1 -24.1083 12.4665 1 
-26.3245 13.7887 1 -42.5499 5.693 1 -43.1804 6.59467 1 
-43.8037 5.56819 1 -43.8578 7.53194 1 -44.4811 6.50546 1 
-36.3015 -7.33011 1 -34.8995 -7.52733 1 -36.3472 -8.58426 1 
-64.0085 51.0254 1 -65.2712 50.7617 1 -64.7758 49.7398 1 
-66.7799 16.4556 1 -65.3311 15.8078 1 -66.884 15.0965 1 
-65.4352 14.4487 1 -41.8639 -39.8098 1 -41.2162 -38.5185 1 
-42.5388 -38.4443 1 -44.2461 -23.909 1 -46.5755 -22.8243 1 
-44.1618 -21.5012 1 -60.7401 -3.89718 1 -59.0146 -4.69048 1 
-61.9061 -5.32872 1 -60.1805 -6.12202 1 -67.3054 -20.8812 1 
-68.5903 -20.0125 1 -66.7557 -19.5902 1 -75.4457 6.44185 1 
-75.4643 4.99582 1 -74.2198 7.03606 1 -74.2383 5.59003 1 
-80.1582 -29.8737 1 -79.1156 -30.4285 1 -79.0001 -29.1859 1 
-77.9575 -29.7407 1 -24.103 -29.8956 1 -72.917 5.19556 1 
-72.9101 3.72981 1 -74.2688 4.46685 1 -24.0404 -15.2668 1 
-25.7973 -14.1361 1 -25.8378 -16.3824 1 -51.6932 49.7369 1 
-50.9892 51.0266 1 -52.2479 50.7576 1 -66.3387 -44.7127 1 
-67.6817 -44.7173 1 -66.7343 -45.8124 1 -68.0773 -45.817 1 
-53.2588 -3.59413 1 -52.5769 -1.38188 1 -54.3648 -2.0221 1 
-41.2856 48.739 1 -41.8943 49.7974 1 -40.7829 49.8112 1 
-44.34 26.3454 1 -45.8595 26.3391 1 -45.0919 24.9472 1 
-42.5858 9.55334 1 -43.1354 10.4858 1 -42.006 10.4849 1 
-44.3596 -46.8195 1 -47.4608 51.0414 1 -46.6953 49.7553 1 
-48.1236 49.7615 1 -25.3857 35.8469 1 -23.9651 36.7509 1 
-25.4657 37.8856 1 -62.8016 48.6929 1 -61.7395 48.6756 1 
-62.1256 47.302 1 -61.0635 47.2847 1 -35.5728 35.4652 1 
-33.7939 33.7316 1 -33.6739 36.4893 1 -31.8949 34.7557 1 
-60.4655 48.653 1 -46.6456 44.8578 1 -45.5266 44.8802 1 
-46.0406 46.2596 1 -44.9217 46.2821 1 -49.7473 26.8306 1 
-48.3897 27.4192 1 -48.6057 26.1754 1 -38.1358 11.4091 1 
-81.2646 -29.2297 1 -81.1956 -28.0491 1 -80.1363 -28.5262 1 
-54.5128 16.4022 1 -53.9347 15.0794 1 -55.641 15.2407 1 
-36.9509 11.4885 1 -70.0838 15.0442 1 -71.4919 14.3703 1 
-71.4971 15.7465 1 -74.8059 41.2864 1 -73.6413 41.9391 1 
-74.6577 42.6805 1 -23.9641 -8.67644 1 -37.0082 -42.4864 1 
-38.1819 -42.6197 1 -38.9839 -41.4453 1 -76.6332 47.9946 1 
-75.4594 48.3933 1 -76.1704 49.3012 1 -50.302 49.7467 1 
-49.2394 49.7564 1 -49.7868 48.7064 1 -48.666 48.7024 1 
-47.9165 47.3644 1 -47.2376 48.6962 1 -26.3584 3.54752 1 
-23.9224 2.29288 1 -23.9224 4.04288 1 -73.0663 33.4563 1 
-71.6876 32.956 1 -71.7826 34.0473 1 -70.4039 33.547 1 
-33.9539 48.8194 1 -34.6378 47.5333 1 -32.9061 48.868 1 
-33.59 47.582 1 -47.7291 42.2009 1 -48.2096 40.9688 1 
-48.5319 43.659 1 -49.0125 42.4269 1 -81.2823 -1.68321 1 
-54.6087 43.7328 1 -55.5989 43.6723 1 -55.1528 44.9049 1 
-78.0838 41.7543 1 -76.9336 41.2746 1 -77.0508 42.3612 1 
-26.8025 -8.71386 1 -28.4681 -9.8749 1 -28.208 -7.77178 1 
-26.7716 0.407575 1 -26.7926 -1.32931 1 -28.0904 1.19255 1 
-28.1114 -0.54434 1 -48.4352 -3.74622 1 -49.5928 -3.06193 1 
-48.0455 -2.17852 1 -28.4327 -46.9255 1 -29.5537 -46.9533 1 
-27.7162 -45.7666 1 -28.8373 -45.7943 1 -80.1978 28.4866 1 
-79.1567 29.0238 1 -80.2067 29.5706 1 -68.2567 -12.3125 1 
-66.7449 -11.5036 1 -68.5947 -11.3384 1 -67.0829 -10.5295 1 
-75.8528 -35.8026 1 -76.9656 -36.5535 1 -75.8306 -36.8812 1 
-76.9434 -37.6321 1 -78.8301 -18.5925 1 -77.7483 -19.1258 1 
-80.0895 -19.2239 1 -79.0077 -19.7572 1 -42.5542 11.4263 1 
-70.0031 -19.4796 1 -70.0226 -20.5206 1 -70.0366 -21.6519 1 
-68.6633 -21.09 1 -35.0792 42.3134 1 -36.072 43.6511 1 
-33.9539 42.6347 1 -34.9466 43.9724 1 -28.2628 -1.7238 1 
-27.5899 -2.68444 1 -63.8531 -46.9443 1 -64.9486 -46.9404 1 
-81.257 5.6691 1 -77.8244 -1.20491 1 -77.8496 0.197654 1 
-76.6832 -1.71972 1 -76.7083 -0.317152 1 -81.1656 4.41658 1 
-80.0987 4.98837 1 -43.6865 11.4577 1 -31.7184 -21.8502 1 
-29.6184 -20.8113 1 -29.7178 -23.1114 1 -37.6151 46.1839 1 
-37.1489 47.4151 1 -36.4677 46.3039 1 -23.9411 -1.18587 1 
-25.4068 -0.430011 1 -23.7897 0.503167 1 -33.7467 44.1789 1 
-32.406 44.066 1 -32.6132 42.5218 1 -42.1349 20.1882 1 
-42.4567 21.2505 1 -41.2936 21.2556 1 -81.3235 36.3915 1 
-81.1809 35.0749 1 -80.1805 35.6191 1 -31.2347 47.5279 1 
-32.2414 47.5199 1 -31.6779 46.573 1 -58.9675 -46.9226 1 
-57.6125 -46.743 1 -58.286 -45.7129 1 -65.1756 -44.6997 1 
-65.5867 -45.8191 1 -77.3279 51.1727 1 -76.6839 50.1146 1 
-76.0099 50.9892 1 -61.6312 51.0132 1 -62.2811 49.7297 1 
-61.0071 49.7071 1 -78.457 51.1413 1 -32.963 50.7816 1 
-51.622 44.7609 1 -52.6488 44.8345 1 -52.2052 43.3915 1 
-33.3672 45.2779 1 -33.9729 46.5119 1 -32.6243 46.4498 1 
-57.8357 -44.6058 1 -56.712 -44.6138 1 -57.1566 -45.6981 1 
-64.7641 34.1286 1 -65.2501 35.8514 1 -63.6683 35.6905 1 
-25.3834 49.8131 1 -24.787 48.9661 1 -26.1187 48.45 1 
-25.5223 47.6031 1 -24.2991 46.7182 1 -23.2388 46.216 1 
-24.5826 45.2439 1 -60.5941 -29.9073 1 -61.2119 -31.677 1 
-62.3 -30.3733 1 -37.0974 -17.9718 1 -36.5639 -15.7196 1 
-38.9886 -16.6579 1 -57.1676 -43.3874 1 -58.5406 -43.3767 1 
-71.7532 -28.4182 1 -72.9888 -27.7369 1 -71.689 -27.2958 1 
-53.1157 -39.6324 1 -54.4688 -39.569 1 -52.507 -40.9417 1 
-53.8602 -40.8783 1 -75.7707 -31.0322 1 -75.8369 -32.3357 1 
-76.9499 -31.6908 1 -39.4163 -46.9727 1 -43.0411 12.3554 1 
-24.1214 -17.5683 1 -25.9285 -18.7334 1 -25.1021 -4.06297 1 
-26.1561 -3.51338 1 -26.3049 -5.04527 1 -27.3588 -4.49568 1 
-31.2292 44.8373 1 -30.4091 46.3836 1 -31.4204 -19.493 1 
-33.5205 -20.5318 1 -29.3672 46.1797 1 -29.0194 47.3598 1 
-29.9659 47.3385 1 -77.0239 -35.25 1 -76.9169 -34.2096 1 
-75.7458 -34.7622 1 -64.0107 13.8039 1 -63.3807 15.1936 1 
-29.7979 -8.82281 1 -31.3921 -9.67275 1 -30.0623 -10.7248 1 
-27.2027 -46.9255 1 -77.7553 -22.5897 1 -77.7886 -21.4657 1 
-76.6136 -22.0636 1 -78.0766 39.2536 1 -76.9931 39.8367 1 
-78.1432 40.3164 1 -35.0697 37.5033 1 -36.9088 37.0182 1 
-50.0546 5.90617 1 -50.7144 6.9234 1 -49.2687 7.09122 1 
-46.1649 22.5101 1 -45.7467 23.7998 1 -44.9192 22.4825 1 
-44.501 23.7722 1 -75.4418 -25.2415 1 -75.3855 -23.8789 1 
-76.6454 -24.4791 1 -77.1419 44.6643 1 -75.9963 43.9785 1 
-75.8404 45.2244 1 -72.9031 8.84239 1 -74.2276 9.45794 1 
-74.2183 8.15794 1 -23.5339 -40.883 1 -25.0755 -39.8596 1 
-25.0573 -41.3797 1 -72.8839 9.9622 1 -71.6139 9.46134 1 
-29.6406 -42.1499 1 -28.2568 -41.9549 1 -28.9129 -43.2568 1 
-35.9515 9.65149 1 -35.1813 10.601 1 -34.8634 9.68607 1 
-70.2629 10.1126 1 -71.5963 10.769 1 -26.1536 7.48146 1 
-74.589 -47.1981 1 -60.763 -45.7041 1 -61.4064 -46.9317 1 
-62.0477 -45.7584 1 -40.1342 -45.8389 1 -38.7303 -45.8688 1 
-56.0393 35.0965 1 -56.9842 36.5639 1 -55.4933 36.6451 1 
-31.0618 -34.5586 1 -29.2328 -35.7205 1 -30.834 -36.4183 1 
-72.8663 11.2699 1 -53.6023 -43.4089 1 -54.2056 -42.256 1 
-54.6785 -43.4386 1 -80.1147 19.6553 1 -81.3103 20.3854 1 
-80.1045 18.5851 1 -81.3002 19.3152 1 -30.1873 44.6334 1 
-27.9899 -6.03904 1 -26.5844 -6.98112 1 -71.5419 11.8574 1 
-72.8457 12.3524 1 -77.758 13.7179 1 -78.838 14.2566 1 
-78.9786 12.9893 1 -80.0585 13.5281 1 -76.7144 0.761615 1 
-80.1236 3.87559 1 -78.911 3.20253 1 -79.0299 4.44523 1 
-77.8173 3.77217 1 -52.98 7.84719 1 -53.6666 9.0832 1 
-52.0846 9.12559 1 -80.1395 -8.45502 1 -81.1525 -8.97384 1 
-80.1368 -9.52376 1 -32.7685 26.5813 1 -34.8938 24.5182 1 
-32.5102 24.1033 1 -67.1999 13.9274 1 -67.2177 12.5273 1 
-68.7453 13.203 1 -39.5888 -42.6008 1 -40.1158 -43.6172 1 
-40.7493 -42.4935 1 -54.0236 18.7072 1 -55.113 17.5693 1 
-53.4513 17.5042 1 -40.2168 48.7233 1 -66.2686 -46.9404 1 
-44.4207 -37.1404 1 -45.0015 -38.4578 1 -43.7038 -38.341 1 
-56.3903 -34.8442 1 -57.4885 -35.2055 1 -57.4736 -33.3804 1 
-77.8483 1.343 1 -72.9765 23.3947 1 -72.9656 24.7667 1 
-74.2515 24.0401 1 -24.082 29.6362 1 -24.2052 27.0992 1 
-36.1009 31.7963 1 -77.8983 29.4392 1 -77.9199 30.878 1 
-72.9412 -45.9661 1 -73.9166 -46.1462 1 -73.3116 -46.9008 1 
-73.9917 -45.0931 1 -75.4378 -44.9609 1 -75.3628 -46.014 1 
-67.5524 51.067 1 -68.9324 51.067 1 -58.8471 2.24386 1 
-60.702 1.24215 1 -60.5372 2.80505 1 -62.3921 1.80335 1 
-33.0533 5.14569 1.49805 -32.5422 5.37871 1 -33.7689 5.96819 0.498045 
-33.8324 5.99959 1.49805 -33.3214 6.23261 1 -36.7198 18.6636 1 
-35.1025 18.7055 1 -37.0528 19.8658 1 -35.4355 19.9077 1 
-74.1931 22.926 1 -75.5018 23.4639 1 -66.2283 42.0154 1 
-67.4096 42.1052 1 -66.9548 40.6687 1 -75.5048 24.5636 1 
-74.3276 25.0962 1 -31.1608 5.52802 1 -30.0512 4.67714 1 
-31.6586 4.52199 1 -76.7636 24.1789 1 -76.7666 25.2786 1 
-76.6954 22.7957 1 -75.5071 22.1217 1 -38.4141 49.7739 1 
-37.7487 51.0878 1 -39.0687 51.0878 1 -81.3049 33.8302 1 
-80.1373 33.2139 1 -80.1618 34.6078 1 -35.1081 46.3823 1 
-61.4866 40.4318 1 -60.7988 38.7786 1 -60.3321 40.6789 1 
-59.6444 39.0257 1 -35.5501 -5.88366 1 -34.1481 -6.08088 1 
-34.7658 22.0041 1 -33.9283 20.1035 1 -32.3823 21.5891 1 
-66.9941 -3.38098 1 -65.6341 -2.7111 1 -67.0204 -4.80354 1 
-65.6603 -4.13366 1 -37.4265 12.3847 1 -37.9858 13.3006 1 
-38.7216 12.4122 1 -67.2031 49.803 1 -66.4428 51.0486 1 
-65.8301 49.763 1 -56.3332 47.3259 1 -55.2929 47.3343 1 
-55.8102 46.2677 1 -57.3644 -38.1431 1 -58.7529 -38.0854 1 
-56.8606 -36.8789 1 -58.2491 -36.8212 1 -41.4433 9.55099 1 
-41.9627 8.57785 1 -40.8436 8.61294 1 -41.3875 7.70479 1 
-41.3189 5.82467 1 -41.8842 4.78267 1 -64.6397 -27.7164 1 
-63.3118 -28.7029 1 -63.1829 -27.3045 1 -35.1483 -45.8288 1 
-36.2461 -45.8197 1 -35.6027 -46.8104 1 -71.3245 -16.2848 1 
-69.6644 -15.6021 1 -69.7988 -17.0318 1 -70.5423 27.1624 1 
-69.1485 27.1247 1 -70.1433 28.2002 1 -28.1252 12.7741 1 
-30.1213 12.0597 1 -27.8191 10.3389 1 -29.8152 9.62454 1 
-49.0401 23.1021 1 -48.4367 24.1083 1 -48.4509 21.8802 1 
-47.8475 22.8864 1 -48.3686 18.8657 1 -46.9979 18.6829 1 
-47.3811 19.7411 1 -45.7386 18.4761 1 -46.1632 19.5237 1 
-80.1718 -27.503 1 -46.9166 21.5559 1 -47.0958 23.8406 1 
-55.7387 29.0538 1 -53.8488 28.5123 1 -54.4279 30.104 1 
-69.8088 -18.0998 1 -68.396 -18.6327 1 -68.3622 -17.5495 1 
-56.8865 43.6218 1 -56.4404 44.8543 1 -32.088 19.3228 1 
-35.3531 -19.3313 1 -33.2105 -18.3155 1 -34.9547 -16.9559 1 
-30.372 18.2963 1 -30.6662 20.5627 1 -54.0109 47.3981 1 
-54.668 48.7168 1 -58.7069 47.3109 1 -58.175 46.2324 1 
-59.2002 46.2015 1 -67.0389 -43.5031 1 -68.3455 -43.5849 1 
-80.26 41.5821 1 -81.371 42.3276 1 -81.2129 41.0018 1 
-47.7776 28.8707 1 -49.1607 30.044 1 -49.1352 28.2821 1 
-38.1934 44.6786 1 -38.889 46.176 1 -35.9973 47.4549 1 
-27.4049 48.239 1 -28.0365 46.7411 1 -26.7102 46.8261 1 
-32.0132 17.1086 1 -33.8534 17.8893 1 -68.8676 -44.7385 1 
-69.1564 -45.8563 1 -77.8083 -26.3277 1 -76.6772 -26.8822 1 
-76.6611 -25.7917 1 -75.4578 -26.332 1 -70.1872 -23.1055 1 
-68.8139 -22.5436 1 -74.1703 -1.55814 1 -74.1905 -0.495932 1 
-75.4024 -1.04537 1 -71.9191 -29.683 1 -73.1546 -29.0017 1 
-69.2842 35.5573 1 -69.1074 34.1864 1 -67.8717 35.3125 1 
-25.8589 -28.3544 1 -25.7588 -30.4412 1 -40.4224 22.1843 1 
-41.5879 22.4083 1 -80.1116 -5.92616 1 -78.9929 -6.48031 1 
-79.0232 -5.38318 1 -77.8186 -4.67874 1 -78.9935 -4.00985 1 
-76.6686 8.23333 1 -77.8039 7.65226 1 -76.6857 6.8104 1 
-77.821 6.22933 1 -73.1182 34.5648 1 -71.9163 35.4355 1 
-70.5807 34.918 1 -38.9151 48.6757 1 -39.486 47.3516 1 
-55.8522 38.3052 1 -56.7238 39.844 1 -57.3432 38.224 1 
-41.9649 47.3687 1 -43.1333 47.3805 1 -42.4539 48.7508 1 
-51.0105 2.0673 1 -49.485 2.41854 1 -50.1072 1.16467 1 
-77.7608 14.7819 1 -77.802 16.2171 1 -76.6541 15.3579 1 
-76.6953 16.7932 1 -42.6272 51.0637 1 -43.2538 49.7782 1 
-34.4056 5.09911 1.49805 -35.0689 5.90824 1.49805 -31.5861 37.4879 1 
-23.8485 -10.5698 1 -25.6054 -11.8891 1 -24.0808 -12.8221 1 
-76.6918 45.6191 1 -76.5598 46.9002 1 -77.9888 45.2498 1 
-77.8569 46.5309 1 -34.3115 8.81708 1 -33.1224 8.89242 1 
-33.7278 9.62501 1 -69.5641 36.8301 1 -68.5887 38.0334 1 
-68.3088 36.7606 1 -75.5945 -47.084 1 -80.1146 -26.1606 1 
-81.1384 -25.5567 1 -80.1106 -25.0558 1 -51.1875 -38.2341 1 
-50.5915 -39.6813 1 -51.9798 -39.6348 1 -36.8929 -7.44452 1 
-38.0392 -9.25101 1 -27.1542 -10.8546 1 -28.8508 -11.9641 1 
-52.5425 -43.4222 1 -53.1325 -42.2419 1 -50.7213 -42.2571 1 
-51.8058 -42.2733 1 -51.4226 -40.9255 1 -54.0243 -10.0825 1 
-56.5086 -9.64988 1 -54.6488 -7.86192 1 -34.8755 -39.9689 1 
-33.6084 -41.1808 1 -35.2616 -41.2932 1 -44.4432 -44.6996 1 
-43.846 -45.8348 1 -44.9257 -45.8064 1 -72.0254 36.5034 1 
-73.2496 35.8997 1 -70.6921 36.0392 1 -39.1846 41.3436 1 
-38.2945 40.0168 1 -37.7597 41.9944 1 -36.8697 40.6676 1 
-69.4231 43.8391 1 -70.1905 42.3052 1 -68.2306 43.6695 1 
-68.998 42.1356 1 -25.4886 -9.69353 1 -55.7178 -19.2672 1 
-53.492 -21.0814 1 -56.2169 -16.4357 1 -53.9912 -18.2499 1 
-31.2634 -17.2453 1 -32.7896 -15.972 1 -45.3335 42.2085 1 
-45.8034 40.9316 1 -44.7689 41.1302 1 -26.4828 49.9359 1 
-27.769 49.7249 1 -59.8758 44.7554 1 -58.5065 44.7814 1 
-55.2462 -23.4698 1 -53.3323 -25.0685 1 -51.5781 -22.6801 1 
-63.8347 -9.22068 1 -63.2475 -10.9697 1 -65.2925 -10.4877 1 
-75.4236 1.41375 1 -75.4279 2.53721 1 -76.6997 2.12654 1 
-76.7041 3.25 1 -53.3089 -15.0193 1 -32.2265 -8.32516 1 
-30.8739 -7.8289 1 -48.7581 -43.4455 1 -50.1137 -43.4488 1 
-49.4109 -44.6694 1 -76.7016 5.6851 1 -76.7016 4.33214 1 
-57.6005 -18.0453 1 -58.7056 -16.4043 1 -57.0945 -24.1587 1 
-57.8611 -25.7137 1 -55.8147 -26.4192 1 -45.0472 -41.0006 1 
-45.6544 -39.7579 1 -46.3607 -40.9944 1 -50.9322 -25.708 1 
-55.2803 40.5184 1 -54.4088 38.9796 1 -30.4855 6.63733 1 
-29.5314 7.91624 1 -29.376 5.78645 1 -60.7238 -2.33462 1 
-58.4168 -2.91722 1 -32.9167 -5.76487 1 -33.4592 -7.31675 1 
-31.5655 -5.0933 1 -32.108 -6.64518 1 -38.5283 -37.9362 1 
-39.7967 -37.5954 1 -37.9136 -39.2201 1 -39.182 -38.8792 1 
-60.3727 13.9645 1 -61.4934 15.3314 1 -59.2672 15.2685 1 
-29.2933 -0.704012 1 -30.4859 -1.0722 1 -30.7554 -6.14892 1 
-65.7924 26.2282 1 -65.6986 24.3332 1 -67.2443 25.2347 1 
-77.7883 -5.77587 1 -76.6414 -5.22153 1 -78.0146 -37.0515 1 
-77.9956 -38.136 1 -79.1546 -37.8374 1 -79.1356 -38.9219 1 
-34.1059 0.30751 1 -33.2775 -0.450308 1 -43.2383 8.51003 1 
-43.8167 9.50256 1 -44.4692 8.45926 1 -39.8346 33.5557 1 
-41.0415 35.3873 1 -39.1917 35.4968 1 -27.3019 -12.9987 1 
-29.0207 -14.0092 1 -27.516 -15.1467 1 -60.8896 11.143 1 
-62.2961 9.47507 1 -62.6414 11.1921 1 -72.7588 -7.19827 1 
-74.1371 -6.45435 1 -72.8072 -5.79845 1 -72.8228 -4.69329 1 
-74.1575 -4.01812 1 -72.7896 -3.33782 1 -53.6345 -5.61534 1 
-54.7405 -4.04332 1 -48.7579 -45.797 1 -49.885 -45.797 1 
-29.4734 -18.4229 1 -27.6468 -17.4199 1 -29.325 -16.1842 1 
-39.3133 24.7313 1 -38.2791 25.7895 1 -39.7019 26.2293 1 
-38.154 3.36507 1 -39.3474 3.18076 1 -38.8855 4.23132 1 
-53.7974 42.2515 1 -53.1907 43.7564 1 -40.9719 29.4108 1 
-42.1542 30.5383 1 -42.7234 29.1833 1 -46.2176 11.4253 1 
-45.6539 10.4113 1 -46.9818 10.379 1 -81.2416 -36.4204 1 
-75.5706 29.6168 1 -74.2425 30.1775 1 -75.5255 30.7451 1 
-32.9819 38.502 1 -31.3468 39.5143 1 -76.7055 -13.7651 1 
-77.8449 -13.1977 1 -77.8333 -14.3065 1 -36.9991 -1.60775 1 
-37.7156 -0.628939 1 -36.5077 -0.329321 1 -43.9949 30.5189 1 
-45.6291 30.4424 1 -44.564 29.1639 1 -54.3593 7.92513 1 
-53.6728 6.68912 1 -55.2551 6.54532 1 -27.7551 -19.7363 1 
-48.0519 44.8703 1 -47.4085 46.2629 1 -49.1024 44.8044 1 
-48.459 46.1969 1 -29.1419 0.475445 1 -29.1057 1.94324 1 
-30.1572 1.22614 1 -32.0003 -2.50834 1 -31.4859 -1.0722 1 
-32.6022 -1.43615 1 -62.6849 -14.24 1 -60.5513 -13.6411 1 
-60.833 -15.1506 1 -43.7391 27.7143 1 -33.0806 -2.9618 1 
-33.8254 -1.95454 1 -38.2902 -1.87804 1 -39.6692 -2.22852 1 
-37.5907 -2.85147 1 -38.9697 -3.20195 1 -41.7254 44.7154 1 
-42.253 43.5566 1 -41.1188 43.3892 1 -67.4253 8.96115 1 
-67.3964 10.0712 1 -65.9307 9.54885 1 -40.5548 47.3672 1 
-39.9616 46.1419 1 -41.3717 46.1433 1 -33.9434 13.5144 1 
-35.2224 13.5759 1 -34.7823 12.5686 1 -72.5843 45.3911 1 
-74.0347 46.0296 1 -73.3333 44.4405 1 -74.7837 45.0789 1 
-38.6419 43.3418 1 -37.4157 43.5079 1 -36.5335 42.1604 1 
-39.266 44.6444 1 -81.3371 -40.2094 1 -80.1873 -39.4838 1 
-81.1741 -38.9271 1 -80.1039 -10.8637 1 -81.3082 -10.1526 1 
-31.1777 -42.5016 1 -32.2501 -42.8262 1 -31.5903 -43.6957 1 
-30.1587 -45.7815 1 -30.6989 -46.7809 1 -48.0494 -37.2128 1 
-47.2166 -36.052 1 -48.4315 -35.5461 1 -29.417 -31.8563 1 
-27.491 -33.1887 1 -29.4115 -33.7848 1 -31.3291 -45.8172 1 
-76.6496 -16.1881 1 -77.7762 -15.6619 1 -77.76 -16.7111 1 
-81.2591 8.13492 1 -81.2724 9.2563 1 -79.0012 -1.52091 1 
-79.0057 -0.460009 1 -77.8198 -2.26581 1 -78.9469 -23.1927 1 
-77.7892 -23.9158 1 -38.6504 -36.5575 1 -81.1238 -0.47907 1 
-80.1019 0.108948 1 -80.0822 -1.00959 1 -41.9876 27.9417 1 
-77.7991 -8.30467 1 -78.9141 -7.76129 1 -77.7875 -7.20708 1 
-43.4682 -35.8174 1 -44.8626 -35.6995 1 -70.2559 7.61741 1 
-70.2773 8.96057 1 -71.6283 8.3093 1 -33.4666 14.8207 1 
-33.6577 16.2609 1 -34.7456 14.8822 1 -61.6359 -42.1718 1 
-60.9632 -43.3983 1 -62.0889 -43.4004 1 -67.167 20.1846 1 
-67.1792 21.6209 1 -68.6656 20.8504 1 -57.4138 -40.8387 1 
-56.7204 -42.2008 1 -58.0934 -42.1901 1 -55.1602 11.4784 1 
-56.1875 10.1437 1 -56.9601 11.2887 1 -57.9874 9.95402 1 
-79.023 -14.949 1 -37.6665 -27.4991 1 -39.5625 -28.7733 1 
-39.8555 -26.3324 1 -71.4096 16.875 1 -72.834 16.2474 1 
-59.8956 -40.8163 1 -58.5313 -40.8219 1 -59.2109 -42.1733 1 
-40.5402 -46.9758 1 -56.4701 -21.498 1 -58.3184 -22.1868 1 
-51.8988 27.061 1 -52.2923 28.6238 1 -50.7837 28.0635 1 
-73.659 -32.4328 1 -74.81 -31.7263 1 -73.577 -31.2715 1 
-74.6441 40.125 1 -75.8309 40.5025 1 -46.1818 -5.71622 1 
-44.892 -4.97423 1 -46.7079 -4.22694 1 -45.4181 -3.48495 1 
-35.2062 -30.6566 1 -33.4882 -29.542 1 -33.3762 -31.607 1 
-23.3139 50.9473 1 -23.8458 49.8074 1 -36.874 -33.7051 1 
-37.163 -35.5843 1 -35.7715 -35.3005 1 -34.5306 26.4873 1 
-34.5111 28.3444 1 -36.8347 27.6455 1 -36.8151 29.5026 1 
-75.3721 -4.58518 1 -75.377 -3.46439 1 -37.4405 -20.4514 1 
-37.1002 -31.8401 1 -35.2703 -32.7905 1 -32.9087 -33.4691 1 
-36.1194 12.5293 1 -57.7308 -27.5542 1 -57.3662 -29.79 1 
-59.0253 -29.7344 1 -65.6486 -0.205937 1 -63.9373 0.620177 1 
-65.93 0.802276 1 -64.2187 1.62839 1 -45.0997 -43.4886 1 
-44.6014 -42.2894 1 -45.6752 -42.2359 1 -43.7919 -43.4979 1 
-43.2936 -42.2988 1 -70.1829 12.5882 1 -68.8875 12.0711 1 
-55.1531 27.4171 1 -32.0445 6.38474 1 -42.6079 -41.0601 1 
-43.9734 -41.0541 1 -60.3378 -44.5958 1 -59.644 -45.695 1 
-30.7693 8.34563 1 -31.6376 7.33248 1 -54.1948 31.8168 1 
-52.8714 30.2155 1 -59.89 37.4288 1 -30.296 2.58034 1 
-60.1481 -22.3286 1 -59.9479 -21.1177 1 -52.351 31.8841 1 
-50.8092 29.8254 1 -50.2889 31.494 1 -50.8231 40.2818 1 
-49.6092 41.0032 1 -49.9921 38.9252 1 -48.7782 39.6466 1 
-43.0804 -46.9679 1 -42.4182 -45.8341 1 -29.6646 -44.658 1 
-30.805 -44.7451 1 -31.9841 -46.9891 1 -56.0439 -43.3954 1 
-37.6324 -5.33594 1 -38.1648 -6.90312 1 -36.8472 -6.19038 1 
-42.9125 -4.17364 1 -44.0232 -5.80575 1 -43.7813 -3.34213 1 
-53.8992 -46.9083 1 -54.7342 -45.7276 1 -55.139 -46.772 1 
-33.8783 -9.39543 1 -55.7931 -45.7272 1 -56.5181 -46.9078 1 
-40.4579 -6.03156 1 -38.9658 -5.51528 1 -41.0431 -5.01303 1 
-39.5511 -4.49676 1 -75.7317 -38.1053 1 -72.8554 13.7655 1 
-72.8288 14.8711 1 -57.9491 40.9814 1 -58.9771 40.692 1 
-58.5832 42.0576 1 -48.8146 35.1517 1 -50.6205 34.9976 1 
-50.2684 36.712 1 -46.4276 20.5481 1 -71.4715 45.2601 1 
-70.4479 46.4971 1 -71.7712 46.7169 1 -31.7656 51.1217 1 
-32.4146 49.856 1 -31.1131 49.8094 1 -69.36 49.821 1 
-69.9797 51.0666 1 -70.765 49.8853 1 -23.9797 -31.8483 1 
-25.703 -32.5613 1 -63.4317 44.6494 1 -62.8381 43.3703 1 
-64.0487 43.399 1 -79.329 -46.9302 1 -78.099 -46.9302 1 
-78.9487 -45.4366 1 -68.7204 44.9613 1 -75.4668 3.91368 1 
-48.8988 -1.27547 1 -50.6031 -1.95482 1 -72.6719 -15.7574 1 
-72.676 -16.8293 1 -44.2295 44.8791 1 -43.1057 44.8009 1 
-43.6227 46.2667 1 -42.499 46.1885 1 -37.1115 9.61345 1 
-59.6798 41.9327 1 -52.5731 4.32841 1 -53.1991 5.53089 1 
-54.2597 4.02087 1 -46.0786 43.7084 1 -46.6821 42.2629 1 
-47.6491 39.6779 1 -47.152 40.986 1 -32.4208 45.4011 1 
-73.1979 -30.1506 1 -74.4007 -29.4834 1 -75.8741 -33.5133 1 
-74.6859 -33.0422 1 -55.9208 51.0275 1 -55.1953 49.7332 1 
-54.6885 50.753 1 -55.2074 42.2199 1 -56.1976 42.1594 1 
-74.2116 -24.723 1 -74.1553 -23.3605 1 -52.479 35.1612 1 
-52.1269 36.8756 1 -31.2144 43.5023 1 -71.1134 -32.348 1 
-70.6838 -30.6935 1 -69.6829 -31.9782 1 -68.5796 -4.0126 1 
-68.6381 -5.38796 1 -49.2128 -37.0032 1 -49.595 -35.3365 1 
-80.1196 -7.03452 1 -34.8371 1.17236 1 -35.2319 -0.103847 1 
-34.5007 -0.9687 1 -42.4511 1.6079 1 -41.144 1.88163 1 
-41.7048 0.749323 1 -45.6631 33.4649 1 -47.6387 33.5507 1 
-46.6233 31.8919 1 -74.1605 15.544 1 -75.4417 14.9613 1 
-75.4592 16.0598 1 -49.4533 33.4507 1 -34.1732 51.104 1 
-33.4722 49.8383 1 -48.9272 37.0629 1 -76.6366 14.2595 1 
-75.4562 13.5857 1 -75.4474 10.0092 1 -74.2084 10.5778 1 
-75.948 41.5892 1 -68.3128 49.8214 1 -76.9454 43.669 1 
-75.7998 42.9832 1 -36.4663 48.7766 1 -35.9155 49.8255 1 
-37.0285 49.8192 1 -34.833 49.8354 1 -35.3147 48.8165 1 
-32.427 -38.5704 1 -30.9491 -38.0493 1 -32.5517 -37.046 1 
-70.201 29.7085 1 -69.2062 28.6331 1 -68.3739 30.1104 1 
-34.1678 -34.3859 1 -75.3911 -19.3009 1 -75.3853 -20.3268 1 
-74.1407 -19.8257 1 -80.0653 -3.45711 1 -78.9801 -2.92185 1 
-38.4852 -40.29 1 -63.0032 -39.5411 1 -64.2281 -39.6053 1 
-63.7817 -38.1413 1 -65.0066 -38.2055 1 -63.474 -40.8724 1 
-71.6941 -42.6182 1 -72.9288 -42.8246 1 -72.2454 -41.6042 1 
-73.4801 -41.8106 1 -70.2515 22.2682 1 -69.0306 21.8719 1 
-70.2302 23.701 1 -69.0093 23.3047 1 -75.4031 -21.6792 1 
-75.3875 -22.7895 1 -76.6291 -20.9533 1 -77.7762 12.3194 1 
-61.8239 -39.5175 1 -61.2031 -38.0137 1 -62.3825 -38.0374 1 
-74.3433 33.9884 1 -75.6478 34.6087 1 -74.4227 35.1852 1 
-55.3486 -44.6428 1 -37.2958 14.1732 1 -36.5276 15.2479 1 
-35.9888 14.3177 1 -67.019 31.1166 1 -66.7885 29.5675 1 
-65.3919 30.7025 1 -72.8203 -20.6004 1 -72.7681 -19.2171 1 
-59.0435 -33.3865 1 -58.5805 -34.9436 1 -60.4675 -33.3946 1 
-60.0045 -34.9517 1 -71.497 -21.1253 1 -72.8174 -21.6494 1 
-59.9651 49.7249 1 -43.8048 -10.2763 1 -46.2628 -10.7296 1 
-44.7846 -12.4337 1 -49.5326 -7.38988 1 -49.552 -4.99273 1 
-51.2442 -6.09786 1 -54.3097 25.8018 1 -56.2033 26.3133 1 
-41.722 -3.88469 1 -42.2337 -5.30199 1 -53.442 46.2376 1 
-52.9251 47.3578 1 -75.572 -28.6326 1 -74.3259 -28.1509 1 
-75.5429 -27.5868 1 -39.3111 -8.70961 1 -35.1477 -11.3876 1 
-35.8836 -13.2393 1 -33.8225 -12.3791 1 -77.8188 19.8213 1 
-79.0359 19.1203 1 -77.7844 18.7539 1 -79.0015 18.0529 1 
-49.9041 8.10111 1 -49.0655 9.29192 1 -48.43 8.28203 1 
-71.6666 -26.1647 1 -72.9699 -26.6653 1 -39.4982 -7.08246 1 
-40.8134 -7.68502 1 -41.773 -6.63412 1 -45.2808 -6.84558 1 
-43.5625 -7.13788 1 -80.1333 -40.8942 1 -44.2249 -26.8392 1 
-46.5543 -25.7545 1 -72.9009 2.64085 1 -74.2596 3.37789 1 
-63.8662 19.3326 1 -63.1251 18.0362 1 -65.4498 18.5269 1 
-64.7087 17.2306 1 -31.6673 -24.2352 1 -33.6985 -25.2349 1 
-29.7439 -25.4816 1 -31.775 -26.4813 1 -71.6116 4.33676 1 
-71.6185 5.80252 1 -37.451 -29.6626 1 -71.561 -24.77 1 
-71.5478 -23.6429 1 -70.2003 -24.2325 1 -79.078 -28.014 1 
-77.8315 -27.3706 1 -77.9418 -28.6738 1 -74.3071 -27.0793 1 
-56.2298 -38.1509 1 -71.511 -22.2565 1 -27.5904 2.59539 1 
-81.339 -35.2587 1 -41.9202 -46.9758 1 -41.258 -45.842 1 
-71.6697 3.20566 1 -80.0819 -4.55283 1 -36.3141 17.5744 1 
-34.9067 17.0771 1 -65.9886 32.8288 1 -66.2612 34.4122 1 
-67.5586 32.4674 1 -67.8313 34.0509 1 -79.0245 -8.99841 1 
-75.3679 -8.417 1 -76.6463 -7.74909 1 -75.3935 -9.46201 1 
-76.6718 -8.7941 1 -47.5557 36.7675 1 -77.9323 25.8214 1 
-76.7628 26.3681 1 -77.955 27.2217 1 -76.7855 27.7684 1 
-71.9441 27.8239 1 -71.5451 28.8617 1 -70.1941 21.1698 1 
-70.0639 18.7593 1 -70.0728 20.1263 1 -71.455 19.4649 1 
-38.7029 19.9039 1 -38.0248 19.0651 1 -39.4226 18.9632 1 
-77.8262 -9.66427 1 -74.3747 29.0634 1 -51.3334 38.5743 1 
-36.7407 -38.7458 1 -36.8629 -37.3671 1 -59.8299 -27.7373 1 
-41.3725 32.2814 1 -43.2706 32.1763 1 -59.9603 -25.8967 1 
-59.0851 -23.7418 1 -53.5168 11.3806 1 -52.6044 12.613 1 
-51.88 11.485 1 -46.4624 7.35637 1 -47.8185 7.23119 1 
-47.0847 8.32106 1 -46.724 -46.8189 1 -43.2535 35.6095 1 
-45.0652 35.0597 1 -43.9446 33.6728 1 -37.394 17.0412 1 
-37.2298 15.9795 1 -38.3788 16.0941 1 -47.0408 35.1456 1 
-48.3338 -33.8062 1 -48.5149 -32.1063 1 -50.0086 -33.8476 1 
-50.1897 -32.1476 1 -46.0052 -35.7736 1 -47.1189 -34.3121 1 
-48.7673 -38.4544 1 -48.1939 -39.6971 1 -47.5518 -38.4253 1 
-74.2854 32.7463 1 -75.5863 32.1712 1 -75.5623 33.2784 1 
-55.4502 -28.655 1 -45.1238 1.09463 1 -46.4838 0.852207 1 
-45.8955 2.01992 1 -47.2555 1.7775 1 -47.3407 -0.531221 1 
-47.9929 0.370345 1 -45.8316 -0.0493594 1 -34.5024 45.1483 1 
-48.7801 1.42719 1 -28.7008 -2.89583 1 -30.0956 -3.05057 1 
-29.5121 -4.08284 1 -54.2478 12.7107 1 -48.5767 51.0363 1 
-46.5137 5.24801 1 -45.8276 4.28662 1 -47.2526 3.94931 1 
-46.5665 2.98792 1 -78.0034 36.787 1 -76.8628 36.3146 1 
-76.9231 37.3698 1 -54.4677 10.1495 1 -52.8309 10.2538 1 
-81.3525 39.8945 1 -80.2415 40.4989 1 -72.8866 6.31874 1 
-44.0842 -34.1196 1 -37.8557 33.9438 1 -70.1958 3.95172 1 
-70.1377 5.08281 1 -34.3988 -14.7356 1 -45.5077 -34.1718 1 
-44.7292 -32.5919 1 -46.6214 -32.7103 1 -64.9611 -17.5555 1 
-65.2304 -19.0932 1 -66.4526 -16.9693 1 -66.7219 -18.507 1 
-61.407 -26.8049 1 -61.5413 -25.5689 1 -50.5332 9.24587 1 
-64.7331 7.80567 1 -64.3509 6.76437 1 -62.8436 8.0903 1 
-40.6611 4.92676 1 -41.2264 3.88476 1 -40.0569 4.06987 1 
-27.904 4.31155 1 -41.3712 38.9271 1 -41.1688 40.6011 1 
-39.6908 39.8631 1 -26.52 31.2233 1 -28.4146 29.7893 1 
-28.1284 32.4259 1 -48.2177 38.3557 1 -47.9603 2.76885 1 
-48.8198 -23.9103 1 -45.4435 -37.0169 1 -46.7191 -37.2645 1 
-46.1573 -38.5077 1 -24.0473 -33.9158 1 -70.2924 -26.8523 1 
-69.0143 -27.5697 1 -68.9521 -26.4134 1 -76.9815 -41.2112 1 
-76.8182 -42.6268 1 -78.0211 -40.6185 1 -77.8578 -42.0341 1 
-70.27 -25.7212 1 -69.896 -37.5118 1 -69.066 -38.6681 1 
-70.3653 -38.7883 1 -50.5042 -36.822 1 -50.9688 -35.1925 1 
-55.9391 12.6492 1 -57.7743 12.6143 1 -58.7954 11.2538 1 
-63.382 -33.6912 1 -62.7254 -31.8942 1 -64.2851 -32.1223 1 
-67.2313 0.205683 1 -68.9131 10.6839 1 -70.2085 11.201 1 
-66.9446 19.0612 1 -68.4343 18.3601 1 -68.6566 19.4835 1 
-76.6474 -23.3897 1 -71.1241 -41.3581 1 -72.1003 -40.3892 1 
-70.7338 -40.1668 1 -71.7101 -39.1978 1 -40.7647 -44.7819 1 
-56.5232 49.7346 1 -57.5802 49.7383 1 -56.9778 51.0312 1 
-66.8999 -5.96112 1 -65.4912 -5.41916 1 -30.6935 23.0082 1 
-67.569 26.4987 1 -65.8443 27.8196 1 -67.6209 28.0901 1 
-78.9943 -24.5294 1 -37.6392 -25.2638 1 -37.6629 -22.7998 1 
-39.8282 -24.0971 1 -73.1124 -39.2983 1 -73.2575 -40.5133 1 
-57.0054 17.852 1 -55.5947 19.024 1 -69.4822 -39.9849 1 
-63.542 47.309 1 -64.658 47.3127 1 -64.128 46.1091 1 
-34.0215 7.03315 1 -33.6146 7.98089 1 -32.9145 7.18035 1 
-45.1493 -30.4553 1 -47.0414 -30.5736 1 -35.9414 7.82252 1 
-34.8037 7.90556 1 -35.3995 8.78251 1 -45.7819 36.7614 1 
-68.6245 -41.1023 1 -69.8761 -41.2841 1 -51.3435 8.06815 1 
-52.8334 1.57757 1 -51.93 0.674944 1 -55.7135 -6.01744 1 
-52.2389 6.78976 1 -43.7834 3.46609 1 -44.4346 2.32589 1 
-45.1057 3.29388 1 -68.2278 -16.1198 1 -51.2489 10.2962 1 
-58.0492 -39.5726 1 -59.4135 -39.567 1 -53.4082 22.4958 1 
-52.2886 23.5891 1 -53.7315 24.2409 1 -52.6119 25.3342 1 
-43.9806 14.225 1 -64.6994 -33.9322 1 -65.6025 -32.3633 1 
-47.4934 -6.80636 1 -46.756 -8.70489 1 -51.5048 -19.9704 1 
-28.4209 26.8023 1 -26.6494 25.6994 1 -26.6431 28.6863 1 
-48.7465 -21.2005 1 -48.6224 -18.5333 1 -46.4515 -20.1571 1 
-36.2068 -5.00708 1 -27.8657 -24.5391 1 -25.9612 -23.5099 1 
-27.8133 -22.0821 1 -51.8437 -32.2002 1 -53.3091 -31.6849 1 
-51.3824 -33.7036 1 -52.8479 -33.1882 1 -58.3528 -20.2761 1 
-59.967 -18.7464 1 -51.7432 -36.6941 1 -66.9159 36.6405 1 
-67.1957 37.9133 1 -31.4947 12.475 1 -31.2021 10.5897 1 
-32.8079 11.3122 1 -68.8495 -23.7449 1 -68.9192 -25.2336 1 
-67.3736 -24.6433 1 -51.2851 -4.16707 1 -60.5509 -39.4874 1 
-59.8903 -38.0059 1 -67.1073 -0.841737 1 -68.1942 40.8902 1 
-68.8919 39.3991 1 -67.6525 39.1776 1 -24.1311 -19.9678 1 
-25.9501 -21.0071 1 -24.1429 -22.4921 1 -63.3172 -26.0685 1 
-51.7411 3.25869 1 -35.6794 11.5219 1 -34.1777 11.543 1 
-64.6247 -26.503 1 -69.9964 16.1727 1 -68.4015 16.8871 1 
-70.0291 17.6457 1 -35.3384 41.1858 1 -35.589 39.5089 1 
-36.3505 38.662 1 -38.8529 38.373 1 -57.036 48.7098 1 
-55.7082 48.7084 1 -75.38 -2.10147 1 -53.8704 40.55 1 
-81.3549 30.3168 1 -81.3166 31.4269 1 -43.8605 50.7618 1 
-44.3572 49.7584 1 -74.0304 47.1492 1 -72.884 46.8479 1 
-52.8576 21.167 1 -54.5053 20.1619 1 -55.056 21.4907 1 
-57.7672 -1.00598 1 -56.6179 -2.46642 1 -63.8063 2.75021 1 
-23.6677 44.5752 1 -80.0652 8.81096 1 -79.0207 9.39978 1 
-80.0785 9.93233 1 -46.0208 51.0414 1 -44.9907 51.0439 1 
-80.2124 44.0911 1 -81.376 44.7276 1 -81.1603 43.5108 1 
-72.6827 -14.3171 1 -71.3495 -15.1436 1 -71.3603 -13.7033 1 
-67.5442 22.6424 1 -67.3324 23.804 1 -65.7867 22.9025 1 
-70.5837 -29.4648 1 -69.3221 -30.3373 1 -74.3033 31.6036 1 
-39.4812 49.7635 1 -40.1358 51.0775 1 -34.0386 -36.1031 1 
-35.6079 -21.6519 1 -24.9849 -42.7043 1 -24.7236 -43.9136 1 
-25.8446 -43.7848 1 -34.2746 -3.26093 1 -35.5441 -3.60539 1 
-35.0194 -2.25367 1 -24.8516 50.953 1 -63.9635 10.2851 1 
-65.8942 10.8731 1 -81.1511 -17.3465 1 -81.2839 -18.5435 1 
-80.1111 -17.8873 1 -66.6288 -42.3054 1 -67.8598 -42.3493 1 
-67.3934 -41.0583 1 -80.1132 -16.8113 1 -81.286 -16.1175 1 
-80.0991 -15.4323 1 -52.3394 15.0759 1 -51.2928 16.0782 1 
-52.8881 16.0817 1 -81.1295 -19.733 1 -29.7638 -5.44591 1 
-30.5739 -4.39028 1 -57.5034 29.9637 1 -58.7775 28.719 1 
-56.7889 27.95 1 -58.0629 26.7053 1 -23.8111 -45.7697 1 
-23.3739 -46.8027 1 -25.2643 -46.0135 1 -24.8271 -47.0465 1 
-63.8597 -30.6015 1 -31.0673 -32.6301 1 -31.5348 -30.7679 1 
-81.1211 13.051 1 -77.784 11.1909 1 -78.9953 10.4832 1 
-78.9864 11.8608 1 -23.6622 43.1555 1 -81.311 -7.73387 1 
-77.8266 8.79585 1 -68.7975 24.4663 1 -68.8238 25.8607 1 
-80.1942 -38.3532 1 -81.344 -37.7287 1 -40.5333 37.437 1 
-71.6103 6.90753 1 -70.2641 6.51239 1 -81.304 -31.559 1 
-80.2059 -32.2885 1 -80.1976 -30.953 1 -71.5533 -1.69488 1 
-71.5079 -2.76153 1 -72.7993 -2.24076 1 -81.3679 47.1077 1 
-80.1508 46.4605 1 -81.421 48.0796 1 -80.2038 47.4324 1 
-79.2144 44.6591 1 -79.1609 45.9985 1 -79.017 -12.4865 1 
-80.0884 -13.0432 1 -80.1183 -11.9343 1 -81.2865 -2.7298 1 
-79.0854 47.1842 1 -78.0211 -33.5481 1 -76.9783 -32.8518 1 
-78.0914 -32.2069 1 -75.386 47.2988 1 -75.3903 46.1792 1 
-79.0173 -11.3652 1 -79.0502 -10.0253 1 -27.6154 6.23767 1 
-68.1827 -13.8038 1 -68.1355 -14.9725 1 -69.6894 -14.461 1 
-32.4336 3.68712 1 -31.703 2.76321 1 -76.6463 -4.10075 1 
-76.6608 -2.77582 1 -25.6368 -38.2336 1 -27.3603 -37.1656 1 
-27.3595 -38.9034 1 -23.2652 48.9561 1 -68.942 9.57388 1 
-81.421 49.2796 1 -67.3599 11.3954 1 -71.6452 2.09082 1 
-71.5817 0.727806 1 -72.8374 1.27784 1 -72.8297 17.371 1 
-48.0124 -46.93 1 -49.2594 -46.8197 1 -61.0421 -40.8013 1 
-43.6801 24.9931 1 -56.2412 16.4079 1 -51.2158 -43.4536 1 
-51.8286 -44.6371 1 -81.2747 11.6742 1 -80.072 12.4278 1 
-35.6147 -26.3768 1 -35.733 -28.548 1 -33.6812 -27.4257 1 
-42.7511 22.4032 1 -40.3679 27.831 1 -41.3086 26.2806 1 
-77.8173 5.12513 1 -76.6462 11.7744 1 -29.4193 3.6594 1 
-24.0061 6.0507 1 -26.4421 5.55534 1 -57.6588 19.1817 1 
-56.248 20.3537 1 -58.5924 20.8637 1 -42.9283 26.3913 1 
-81.1411 21.6967 1 -59.6847 -43.3847 1 -39.0067 -0.899228 1 
-26.7676 41.5723 1 -25.379 40.1528 1 -25.2166 42.0263 1 
-23.884 -35.7941 1 -23.8655 -37.5293 1 -40.3883 0.97157 1 
-39.8275 2.10388 1 -42.9795 -31.4044 1 -41.582 -29.8779 1 
-41.0613 -31.8807 1 -38.6911 -32.9535 1 -40.7799 -33.9752 1 
-70.8677 47.6033 1 -72.1911 47.8231 1 -71.2292 50.8659 1 
-25.8981 -26.0293 1 -68.9238 48.7887 1 -70.3287 48.853 1 
-69.7986 47.5473 1 -59.763 47.2891 1 -31.6045 48.8214 1 
-30.5978 48.8294 1 -66.3603 -15.8221 1 -39.2118 -30.9508 1 
-38.9802 -34.8328 1 -49.9267 51.0363 1 -79.717 51.1413 1 
-79.4005 49.771 1 -34.3723 5.06047 0.498045 -59.9917 26.212 1 
-44.4322 47.3959 1 -45.6651 49.7578 1 -80.1274 21.0347 1 
-80.1243 22.1548 1 -49.0374 47.3684 1 -59.341 -36.5593 1 
-59.2987 22.3238 1 -61.4011 22.6018 1 -60.4503 21.0394 1 
-68.4855 -9.02251 1 -68.5631 -7.65134 1 -69.9815 -8.43628 1 
-70.0591 -7.06511 1 -47.3575 13.5497 1 -46.8015 12.4953 1 
-48.1784 12.5383 1 -66.7915 17.6144 1 -36.7949 1.65918 1 
-35.6257 1.85873 1 -36.0262 0.818033 1 -74.1527 -5.3492 1 
-80.1038 7.48861 1 -79.0592 8.07743 1 -79.0366 6.93383 1 
-46.204 -43.4683 1 -56.4141 -31.5536 1 -54.7435 -31.1838 1 
-56.0244 -33.4746 1 -54.3538 -33.1048 1 -77.815 17.3504 1 
-78.9847 16.6424 1 -77.8236 22.2537 1 -77.8539 23.34 1 
-42.4744 40.8128 1 -42.6769 39.1387 1 -60.6539 -36.5671 1 
-39.7856 14.3141 1 -38.5267 14.209 1 -39.2085 13.2802 1 
-81.1371 -14.9175 1 -80.1059 -14.3969 1 -80.0986 17.4977 1 
-41.8073 42.1032 1 -47.002 15.6274 1 -46.1514 16.5637 1 
-48.3644 15.7422 1 -47.5138 16.6785 1 -31.3285 -3.58643 1 
-32.4088 -4.03989 1 -32.7795 -35.1863 1 -50.0587 -38.2732 1 
-54.0886 35.3774 1 -53.5426 36.926 1 -39.0997 6.93973 1.49714 
-38.5011 6.12877 0.497142 -39.1217 6.97107 0.497142 -38.5089 6.13886 1.49714 
-39.5944 6.00649 1.49714 -80.2074 42.9912 1 -25.4959 46.463 1 
-40.3293 41.3651 1 -41.8363 -27.7036 1 -42.1293 -25.2628 1 
-40.883 20.2475 1 -41.7243 19.1801 1 -25.006 43.8834 1 
-31.1673 -39.7229 1 -32.6452 -40.2439 1 -63.3684 49.7419 1 
-62.2264 38.8406 1 -61.3467 37.1327 1 -62.7742 37.1947 1 
-39.532 5.07483 1 -48.3944 -5.67701 1 -46.8446 47.3985 1 
-45.4767 47.3952 1 -46.1657 48.7303 1 -36.6357 51.0941 1 
-39.3608 -44.8119 1 -38.2057 -44.7787 1 -30.0533 -43.3439 1 
-35.8557 -39.8122 1 -32.5543 -41.4774 1 -52.2078 -35.0646 1 
-44.5226 15.3725 1 -47.8485 20.8202 1 -51.6129 5.58728 1 
-56.6144 21.9594 1 -55.4223 23.0964 1 -42.0822 -35.1968 1 
-42.7513 -37.0181 1 -42.0186 -11.4552 1 -39.9196 -12.9631 1 
-39.2913 -10.7473 1 -48.7953 -9.28841 1 -37.0105 -10.2728 1 
-23.5339 -42.283 1 -60.4894 -42.1869 1 -67.4162 -46.9337 1 
-68.435 -46.8359 1 -42.5798 -8.54387 1 -37.736 4.39902 1 
-38.4042 5.22057 1 -40.5188 3.01931 1 -80.2616 -36.9964 1 
-42.4453 -2.87966 1 -41.947 -44.7445 1 -48.4742 31.594 1 
-38.6861 2.34569 1 -43.0688 0.390645 1 -42.4047 -0.618754 1 
-41.0407 -0.260076 1 -79.0853 35.138 1 -77.9939 35.7819 1 
-79.0891 36.263 1 -62.9768 -23.8455 1 -79.0345 -13.8402 1 
-67.5567 44.8728 1 -65.9971 44.7566 1 -66.7128 46.2291 1 
-77.7814 47.7166 1 -77.3186 49.0232 1 -34.9097 -4.70036 1 
-41.61 -1.49191 1 -40.9888 -2.51818 1 -51.2592 33.2966 1 
-47.589 24.9204 1 -46.441 24.988 1 -78.0404 44.1423 1 
-78.1458 42.8345 1 -63.5307 38.7972 1 -71.0574 44.0612 1 
-70.1353 39.4563 1 -69.832 38.0906 1 -32.4995 40.6743 1 
-34.1347 39.6619 1 -69.7826 40.9207 1 -36.8497 44.8218 1 
-35.7023 44.9418 1 -37.8519 48.7312 1 -76.6484 -15.1205 1 
-79.1546 -32.8924 1 -80.2436 -33.4266 1 -61.0233 -24.4835 1 
-62.4588 -22.7602 1 -74.1042 -15.0207 1 -75.3838 -15.5547 1 
-75.3827 -14.4872 1 -62.3602 4.8955 1 -62.2902 3.44826 1 
-63.8762 4.19745 1 -76.6055 -18.612 1 -75.3692 -17.9739 1 
-75.3931 -16.9212 1 -76.6294 -17.5593 1 -72.7127 -10.6677 1 
-74.1218 -9.996 1 -74.1187 -11.4067 1 -71.4444 17.9887 1 
-74.187 14.4384 1 -64.7632 41.934 1 -63.5525 41.9053 1 
-57.4334 15.2261 1 -80.0809 11.0502 1 -67.1972 1.31838 1 
-68.7833 1.96989 1 -67.2829 2.70758 1 -81.2724 10.5563 1 
-27.7709 8.36746 1 -33.6679 -22.974 1 -43.9192 22.4825 1 
-33.1456 4.47098 1 -81.2613 14.2244 1 -80.0489 14.9839 1 
-68.9206 8.23072 1 -68.9035 7.10602 1 -67.4083 7.83646 1 
-64.3616 32.4146 1 -23.2726 -43.4923 1 -63.246 30.6397 1 
-30.9279 3.59808 1 -32.0256 13.6516 1 -30.4139 13.9451 1 
-42.7236 -43.5435 1 -42.1747 -42.4572 1 -80.0876 -20.2536 1 
-79.0186 -20.7816 1 -61.8685 -33.474 1 -62.8918 40.4779 1 
-64.1961 40.4345 1 -46.8894 -42.2268 1 -47.6045 -43.4556 1 
-72.375 51.104 1 -80.797 50.0913 1 -30.81 27.8865 1 
-40.5982 44.6703 1 -61.8501 -36.5894 1 -61.2007 -34.974 1 
-70.4143 -42.505 1 -73.2487 -44.0091 1 -74.6552 -43.8992 1 
-74.3353 -42.7147 1 -81.3001 -26.9066 1 -71.9276 26.3841 1 
-66.0457 13.3415 1 -64.6213 12.6966 1 -76.6406 -6.65274 1 
-62.8893 -12.282 1 -60.7557 -11.6831 1 -30.9672 1.96626 1 
-30.1779 36.3677 1 -28.8039 35.2287 1 -30.5209 33.6167 1 
-24.3255 47.8583 1 -43.6333 43.6421 1 -24.7682 24.5975 1 
-26.6436 23.401 1 -24.082 32.0362 1 -25.5026 33.2821 1 
-55.3445 8.75667 1 -57.0643 8.75085 1 -72.1982 -44.8821 1 
-74.9395 43.833 1 -73.9231 43.0916 1 -42.3831 37.3275 1 
-40.7917 23.4101 1 -41.9573 23.6341 1 -44.7814 43.7073 1 
-44.1853 42.1432 1 -54.7333 5.1791 1 -44.883 39.825 1 
-45.1974 14.4352 1 -42.9415 42.2706 1 -54.0667 44.811 1 
-76.6989 -10.1537 1 -71.3978 48.909 1 -63.6651 -7.9024 1 
-65.123 -9.16943 1 -77.7777 -20.4413 1 -75.7709 39.4227 1 
-60.2019 9.58588 1 -74.1562 16.6676 1 -62.8139 50.7639 1 
-52.8119 41.8865 1 -53.5404 51.0231 1 -37.5813 -45.8582 1 
-33.6402 -4.3559 1 -36.465 -43.6136 1 -35.1116 -43.5789 1 
-35.8105 -42.4356 1 -74.188 19.1866 1 -75.4541 18.6328 1 
-75.4808 19.6659 1 -73.7517 -34.6051 1 -72.5139 -34.3492 1 
-73.6072 -33.5013 1 -63.8588 -0.933196 1 -65.6619 -1.60444 1 
-63.831 -2.03985 1 -68.5175 -6.54554 1 -70.0687 -5.95548 1 
-50.7494 14.8795 1 -49.8512 15.8173 1 -49.2625 14.8045 1 
-62.1157 -1.22299 1 -76.6972 -28.0753 1 -57.0019 5.51368 1 
-56.2403 7.37686 1 -36.273 21.8083 1 -61.0438 28.5237 1 
-62.9291 28.9452 1 -61.877 26.6336 1 -66.6579 -35.4526 1 
-65.7442 -36.9491 1 -65.4418 -35.3017 1 -64.5281 -36.7982 1 
-70.9601 37.2998 1 -71.1168 38.4934 1 -64.1309 27.2601 1 
-32.4137 29.2064 1 -25.5396 1.3597 1 -23.7416 -2.87507 1 
-23.6845 -4.99059 1 -62.6017 -35.0534 1 -63.2494 -36.6933 1 
-33.0439 -10.743 1 -35.1159 5.96869 0.498045 -23.7202 -6.55178 1 
-25.0807 -5.88967 1 -25.3603 -7.82553 1 -32.0704 9.57652 1 
-32.6758 10.3091 1 -37.4285 -11.8622 1 -62.7949 -42.2129 1 
-43.9705 -29.0135 1 -46.1404 -28.0643 1 -39.3998 -19.1816 1 
-41.2909 -17.8677 1 -36.8873 -46.962 1 -60.1105 -46.7251 1 
-70.1845 -44.7993 1 -69.5313 -43.6061 1 -43.3993 -16.3867 1 
-40.7994 -15.2785 1 -47.0075 26.2715 1 -72.3741 -32.7481 1 
-64.452 11.6283 1 -75.7406 -29.9103 1 -76.8166 -29.2311 1 
-71.2808 -33.596 1 -71.9312 -35.4442 1 -80.178 27.0975 1 
-80.1401 25.9978 1 -79.1426 26.5239 1 -74.7022 -35.3949 1 
-36.2318 23.0901 1 -81.2259 -32.7821 1 -70.3893 -34.8967 1 
-69.9969 -33.3498 1 -69.1054 -34.6505 1 -68.1769 -35.7601 1 
-67.5864 -34.343 1 -57.4813 44.8122 1 -75.4195 -11.982 1 
-74.1172 -12.5223 1 -71.4359 -11.2167 1 -71.4376 -10.1248 1 
-69.8372 45.0379 1 -43.1254 23.7134 1 -62.114 35.4183 1 
-61.0599 33.9834 1 -74.1398 -8.94636 1 -72.7307 -9.61807 1 
-70.0156 -9.46863 1 -71.4735 -8.79266 1 -66.0635 11.9414 1 
-43.7183 40.6855 1 -70.0102 -4.58012 1 -71.4975 -5.25086 1 
-61.5547 24.8603 1 -42.6982 -33.499 1 -76.6896 20.3331 1 
-77.8574 20.8957 1 -71.3993 -12.6404 1 -72.6746 -13.207 1 
-75.4558 17.5296 1 -63.8086 25.4869 1 -54.9795 13.866 1 
-53.2882 13.9276 1 -67.8765 46.3176 1 -69.331 46.4204 1 
-53.1581 -36.639 1 -28.3432 -44.6708 1 -64.6425 29.5047 1 
-73.3279 36.9359 1 -72.9574 32.1102 1 -62.3905 -4.12308 1 
-37.8367 15.0816 1 -37.6901 23.3661 1 -39.407 23.2584 1 
-67.2093 -37.1302 1 -66.4717 -38.3866 1 -65.6266 -39.6741 1 
-64.4266 22.1192 1 -63.7147 23.5918 1 -68.3899 15.7284 1 
-70.5195 -28.3424 1 -65.4898 43.4635 1 -54.5281 46.3315 1 
-49.8404 24.1042 1 -51.2493 24.569 1 -50.775 23.1747 1 
-37.4926 2.53 1 -37.0747 3.56394 1 -63.8502 -6.64501 1 
-63.6782 -4.88791 1 -65.7631 -6.69513 1 -64.9886 -12.0204 1 
-66.441 -13.0363 1 -56.8511 46.2256 1 -33.9122 -39.0321 1 
-62.7639 22.0294 1 -50.4197 47.3703 1 -54.1349 49.7288 1 
-52.8044 49.7334 1 -73.4529 39.4676 1 -73.4794 40.7777 1 
-48.4059 -26.2201 1 -48.5152 -28.6725 1 -51.0415 -28.1604 1 
-49.9886 -30.2052 1 -79.266 43.5516 1 -53.7137 -34.9811 1 
-39.8797 -21.5576 1 -42.045 -22.8549 1 -62.1234 13.9416 1 
-51.6425 -30.2578 1 -80.0245 48.9593 1 -44.196 12.4027 1 
-44.6995 13.3636 1 -43.5367 13.2615 1 -58.4625 0.568805 1 
-41.8515 2.74708 1 -43.1652 2.4969 1 -42.4698 3.71627 1 
-72.6888 49.0557 1 -47.6431 -13.4555 1 -45.2854 -15.0497 1 
-60.5041 -0.230813 1 -27.629 -31.2289 1 -62.3136 0.249976 1 
-65.6029 19.9737 1 -47.3625 -45.7963 1 -46.8619 -44.6787 1 
-46.2401 -45.8058 1 -71.8403 49.9226 1 -49.4266 -42.1637 1 
-50.0342 -40.9719 1 -75.5779 28.4941 1 -75.5175 27.078 1 
-74.3143 27.6473 1 -67.1718 -7.2371 1 -67.2174 -8.3429 1 
-44.8578 48.7309 1 -28.1457 14.7941 1 -49.32 0.107829 1 
-51.0243 -0.571521 1 -46.4874 -1.43427 1 -46.3181 -2.65924 1 
-54.1387 -12.5353 1 -56.1304 -14.0815 1 -56.016 -11.6287 1 
-51.6245 -11.591 1 -61.0753 6.22355 1 -60.0549 4.66591 1 
-50.8225 -16.7398 1 -50.7947 -14.075 1 -29.6389 -29.8815 1 
-33.8841 41.3387 1 -61.0604 -10.1965 1 -61.6476 -8.44741 1 
-28.7268 44.6977 1 -29.5468 43.1515 1 -48.4369 -15.6692 1 
-46.2369 -17.4626 1 -74.1557 -22.2271 1 -65.5781 -7.95252 1 
-75.434 11.0966 1 -57.5909 -4.44054 1 -58.1887 -6.2138 1 
-28.1605 42.6051 1 -77.9509 34.4277 1 -79.0275 33.8975 1 
-77.9498 33.345 1 -49.9747 22.1726 1 -28.3878 48.8577 1 
-51.0471 12.6174 1 -27.4005 44.7827 1 -77.7398 -18.0824 1 
-79.0209 -17.3772 1 -36.394 2.8131 1 -77.9593 -43.1492 1 
-48.105 -44.5731 1 -40.4502 -35.7 1 -70.7641 39.9577 1 
-71.0001 41.2372 1 -70.6982 -43.6512 1 -41.0988 17.2298 1 
-41.3896 18.22 1 -39.8823 17.2045 1 -40.1732 18.1946 1 
-73.0283 28.3887 1 -80.1017 6.37278 1 -28.3224 19.465 1 
-28.3073 17.1286 1 -78.8861 5.66828 1 -59.3892 51.031 1 
-60.5892 51.031 1 -76.7782 28.8911 1 -76.7997 30.3299 1 
-74.8142 51.1743 1 -74.1605 50.1396 1 -75.5202 50.1161 1 
-48.9417 11.4459 1 -47.5648 11.4028 1 -45.4828 12.3981 1 
-44.9308 11.4299 1 -40.2655 -3.52321 1 -38.9457 5.13704 0.497142 
-74.8092 49.2082 1 -73.5402 51.0126 1 -78.1402 -44.7201 1 
-79.0252 -44.254 1 -77.8012 9.87928 1 -72.4569 41.6443 1 
-64.356 37.3556 1 -73.1313 50.0693 1 -45.5873 -2.25998 1 
-44.2894 -2.19211 1 -23.8655 -39.0793 1 -61.3884 -44.5065 1 
-62.7482 -44.6522 1 -37.7309 20.7045 1 -38.9257 21.0656 1 
-37.4679 22.1694 1 -65.7266 5.97435 1 -67.3219 5.31846 1 
-67.3642 6.39787 1 -35.2557 51.0941 1 -58.5388 13.9221 1 
-65.6032 3.3133 1 -58.3019 4.0227 1 -56.4801 4.14747 1 
-51.8143 22.1948 1 -62.5924 20.537 1 -66.1528 8.45424 1 
-64.511 8.90028 1 -45.3887 17.3853 1 -32.7364 -43.7395 1 
-32.1143 -44.7678 1 -33.364 -44.8183 1 -32.742 -45.8466 1 
-61.0349 41.9196 1 -79.222 -36.4806 1 -80.2566 -35.9264 1 
-73.7346 49.1439 1 -49.4535 25.3633 1 -74.1134 -16.3872 1 
-70.0538 -3.44627 1 -70.0335 -2.12323 1 -64.4912 -45.823 1 
-63.1743 -45.7709 1 -74.0961 -13.9106 1 -42.6856 -13.9416 1 
-72.7668 -18.1775 1 -74.1176 -17.459 1 -74.1189 -18.4986 1 
-65.1876 -29.615 1 -65.3152 -30.9632 1 -75.3903 -10.8727 1 
-53.7383 -38.1766 1 -64.1534 -23.0647 1 -65.9083 -24.1706 1 
-64.2844 -24.28 1 -66.0392 -25.3859 1 -81.2961 -24.3017 1 
-70.3067 26.1663 1 -71.692 25.388 1 -68.8097 -0.501404 1 
-68.8173 0.857189 1 -70.1358 30.87 1 -71.559 31.4878 1 
-70.2892 32.3335 1 -70.2804 24.7719 1 -54.7127 33.4455 1 
-53.1031 33.2293 1 -79.037 -16.328 1 -72.8755 19.8964 1 
-72.8403 18.8472 1 -74.1528 18.1374 1 -62.3151 -40.8313 1 
-26.4101 16.0025 1 -36.4528 10.5675 1 -69.8024 -11.9067 1 
-69.7634 -12.9696 1 -80.1589 45.4304 1 -29.284 -6.77787 1 
-25.7969 45.607 1 -65.8759 -43.4901 1 -65.3043 -42.261 1 
-64.5514 -43.4458 1 -30.5814 50.735 1 -71.449 -6.65068 1 
-69.2414 -29.0598 1 -74.2056 0.884424 1 -72.8223 0.160843 1 
-74.2207 2.00142 1 -78.9457 0.766611 1 -71.5411 -4.117 1 
-81.1028 -4.03001 1 -81.303 -5.27552 1 -74.5487 37.5742 1 
-75.728 36.9906 1 -75.7884 38.0458 1 -72.9753 30.9675 1 
-71.6242 30.3263 1 -34.7177 30.3646 1 -28.5627 24.402 1 
-30.9519 25.4862 1 -38.0798 31.4082 1 -40.5779 19.1306 1 
-39.0179 18.0272 1 -36.3051 -2.61022 1 -36.8297 -3.84665 1 
-60.9408 44.7112 1 -60.3807 43.4417 1 -78.9061 48.711 1 
-38.1379 -46.8489 1 -23.2726 -44.7923 1 -64.1467 -42.2629 1 
-69.1664 -42.4311 1 -43.7206 1.43689 1 -44.3382 0.219632 1 
-26.5369 -41.1746 1 -25.917 -42.4602 1 -27.6368 -43.2405 1 
-51.2006 -45.76 1 -50.5878 -44.5765 1 -46.589 17.5792 1 
-76.6596 10.687 1 -52.8884 -44.6238 1 -52.2507 -45.7473 1 
-49.561 12.5641 1 -48.7401 13.5754 1 -50.1408 13.7357 1 
-59.2562 30.4463 1 -60.4883 32.1529 1 -61.5226 30.251 1 
-66.1088 7.01565 1 -63.9176 48.6965 1 -57.9148 43.5924 1 
-38.2121 47.3595 1 -29.4015 51.1173 1 -28.8054 49.812 1 
-30.069 49.805 1 -63.1299 12.5353 1 -71.556 -0.355486 1 
-31.4819 -41.1528 1 -27.0672 -44.6545 1 -76.628 13.1729 1 
-76.6768 9.37541 1 -72.817 -22.7828 1 -75.4298 7.56715 1 
-28.2778 -40.3243 1 -29.6617 -40.5193 1 -72.8539 -24.1692 1 
-62.4452 -46.7793 1 -50.4895 -46.93 1 -72.1685 44.2423 1 
-74.1378 -20.8747 1 -72.8643 -25.2706 1 -76.3683 -45.8998 1 
-77.0345 -47.084 1 -49.4627 -39.7204 1 -75.4084 0.0333975 1 
-75.8497 -41.6484 1 -59.4094 48.6748 1 -66.03 -40.9393 1 
-78.0729 -35.748 1 -79.2066 -35.431 1 -78.0574 -34.6984 1 
-39.1848 22.0617 1 -37.619 17.9759 1 -53.4276 2.95115 1 
-55.2313 2.56425 1 -45.1244 7.44295 1 -79.1369 27.6347 1 
-68.7809 31.8761 1 -79.0342 -40.0453 1 -42.9533 -1.72964 1 
-43.7481 -0.856479 1 -59.667 7.07796 1 -61.0608 8.07718 1 
-80.1131 2.54216 1 -26.4251 18.3389 1 -77.9493 28.3325 1 
-71.6527 22.945 1 -72.918 22.2805 1 -51.7943 20.6532 1 
-51.2404 19.4302 1 -52.8376 19.6254 1 -72.3983 -32.0327 1 
-74.1749 20.5378 1 -75.4676 21.0172 1 -67.76 -28.6414 1 
-31.1007 41.6547 1 -29.7144 41.1084 1 -27.0785 36.5908 1 
-76.8112 32.8242 1 -76.7872 33.9314 1 -77.8337 2.70793 1 
-58.7484 38.1051 1 -76.7546 31.4582 1 -78.9297 25.2952 1 
-80.115 24.633 1 -24.0798 -27.5114 1 -81.1563 32.631 1 
-27.111 34.4848 1 -23.8245 39.282 1 -49.322 17.9106 1 
-50.3177 17.0881 1 -48.8762 16.8272 1 -59.1122 -1.34244 1 
-64.7544 -16.2775 1 -47.8618 14.6442 1 -60.5006 46.1971 1 
-48.329 10.3565 1 -49.7968 10.3105 1 -81.308 25.283 1 
-81.156 26.5621 1 -48.2207 -42.2449 1 -47.5056 -41.0161 1 
-48.8893 -40.9631 1 -54.9333 -40.8924 1 -55.5834 -39.6219 1 
-26.6095 43.0592 1 -72.9046 7.72051 1 -76.9303 -38.9794 1 
-76.8517 -40.1213 1 -75.6531 -39.2472 1 -74.6615 38.7482 1 
-77.8933 31.979 1 -79.0597 32.6614 1 -37.9635 1.46576 1 
-39.105 1.22395 1 -38.4736 0.295326 1 -39.757 0.0429456 1 
-40.2904 -1.20225 1 -30.8502 -2.24672 1 -36.6559 24.4243 1 
-38.2595 27.6466 1 -41.7327 33.4506 1 -81.1068 45.9502 1 
-58.6416 49.7381 1 -53.0054 26.897 1 -74.3833 48.2125 1 
-54.6371 1.19067 1 -81.2439 50.9473 1 -53.3374 48.7214 1 
-69.0669 32.9248 1 -28.5461 37.5536 1 -28.3219 40.2679 1 
-26.9332 38.8484 1 -71.0041 -36.4792 1 -69.4622 -35.9317 1 
-66.3455 -28.2612 1 -66.4732 -29.6094 1 -57.6571 47.3328 1 
-76.6243 -45.0296 1 -77.0743 -43.6154 1 -31.5924 -28.6556 1 
-29.6861 -27.7111 1 -59.2841 43.5665 1 -52.6024 -38.179 1 
-68.4947 -37.3018 1 -67.6646 -38.4581 1 -81.1686 6.85099 1 
-79.0487 20.4997 1 -79.0872 21.5741 1 -78.9718 15.5092 1 
-76.5997 -19.6379 1 -66.0157 2.19148 1 -71.5762 20.5085 1 
-72.8195 -1.17855 1 -47.9604 5.03776 1 -68.8062 -9.99219 1 
-69.8041 -10.8148 1 -70.0789 -1.05659 1 -68.6858 -1.54882 1 
-25.6074 -34.4572 1 -66.2608 -34.0756 1 -62.1712 -28.9749 1 
-74.9035 -36.3773 1 -52.2653 18.4223 1 -51.8266 17.1837 1 
-56.1926 31.014 1 -52.2106 40.195 1 -74.1984 21.5838 1 
-63.2098 33.8564 1 -32.2167 15.0918 1 -81.2943 16.7778 1 
-81.1283 18.0172 1 -71.4448 -19.742 1 -71.4253 -18.701 1 
-65.325 48.6944 1 -66.4298 48.6923 1 -67.8028 48.7323 1 
-45.046 -0.924353 1 -62.2586 -21.5493 1 -64.0206 -21.8911 1 
-61.5621 -19.588 1 -63.3241 -19.9298 1 -54.9411 -34.9384 1 
-79.2217 -42.5825 1 -79.1201 -41.4674 1 -77.9825 -39.4834 1 
-66.8194 -39.7456 1 -68.1829 -39.8647 1 -62.0781 -7.08582 1 
-67.1207 -2.24024 1 -81.1551 2.03315 1 -80.1332 1.47117 1 
-80.1142 23.5554 1 -79.0771 22.9747 1 -74.2014 13.0628 1 
-74.222 11.9803 1 -75.4476 12.4991 1 -81.302 0.835324 1 
-81.3549 28.8668 1 -81.346 27.7828 1 -72.0191 -30.9117 1 
-64.8725 -40.9412 1 -67.8408 -29.9189 1 -81.2277 37.5571 1 
-80.2273 37.0013 1 -80.255 38.0665 1 -39.4682 16.2059 1 
-38.9857 15.1961 1 -40.1533 15.2937 1 -30.2104 15.9619 1 
-53.01 -7.83595 1 -25.9971 -47.0465 1 -81.3512 38.8567 1 
-27.3123 -35.1244 1 -25.6554 -36.4984 1 -71.3345 -17.3527 1 
-71.978 -43.7643 1 -71.3514 -44.8443 1 -78.0607 -31.0784 1 
-45.6769 15.5073 1 -46.5367 14.5241 1 -35.3186 -9.60602 1 
-77.4328 -45.7461 1 -80.0402 -22.6061 1 -78.9802 -22.0687 1 
-72.4671 -38.0984 1 -73.6069 -38.1246 1 -32.285 8.2472 1 
-35.3685 7.03365 1 -34.5326 6.80014 1.49805 -50.8309 18.0062 1 
-40.1362 5.93172 1 -28.3651 51.0302 1 -27.1051 51.0302 1 
-52.4153 46.1639 1 -50.9835 46.1609 1 -58.3278 51.0312 1 
-25.9616 50.953 1 -52.2517 48.6811 1 -81.2176 -30.3967 1 
-81.3227 -12.6232 1 -78.9977 -25.6287 1 -80.0633 -23.7191 1 
-77.7926 -25.0152 1 -57.8849 7.3835 1 -79.0358 2.04756 1 
-77.922 24.7233 1 -55.7624 -36.5176 1 -41.4288 -37.0923 1 
-24.1993 22.0008 1 -80.2563 39.1043 1 -57.3207 23.4194 1 
-62.2857 44.7003 1 -61.5657 46.1529 1 -39.5923 5.98055 0.497142 
-76.7213 -12.6483 1 -76.7281 -11.263 1 -28.3497 21.9104 1 
-26.4306 20.9094 1 -44.3944 -39.7005 1 -65.7913 37.4632 1 
-40.1633 21.1882 1 -62.8581 6.23667 1 -65.7499 4.7486 1 
-78.9253 -26.8596 1 -62.9821 46.1599 1 -65.2524 46.1517 1 
-50.2446 44.7664 1 -49.7363 43.488 1 -58.0858 48.6879 1 
-74.8045 -37.6015 1 -74.31 -38.7751 1 -81.3416 -34.1472 1 
-58.0732 -31.498 1 -76.8814 -30.4198 1 -59.6431 -31.5041 1 
-35.2845 15.8124 1 -29.6576 -1.87853 1 -71.4394 -7.76031 1 
-72.7666 -8.28588 1 -76.6935 17.8964 1 -76.6629 19.2999 1 
-66.7472 36.1351 1 -72.7584 42.8934 1 -27.7687 -29.0937 1 
-70.4734 -45.9171 1 -70.862 -46.8968 1 -71.5716 -45.9621 1 
-64.255 20.6268 1 -43.2294 -39.8039 1 -58.1976 16.6702 1 
-78.0134 38.174 1 -76.9331 38.7568 1 -49.4057 4.81742 1 
-48.6197 6.00248 1 -47.6963 9.3719 1 -46.3684 9.40415 1 
-58.9612 17.9278 1 -61.5005 -16.3751 1 -59.3732 -17.6289 1 
-40.6979 24.883 1 -39.9741 43.3677 1 -74.3769 -40.0864 1 
-63.8473 -3.60242 1 -32.4107 32.2999 1 -31.4167 9.26035 1 
-73.2368 47.9113 1 -33.3388 12.4888 1 -27.7763 -26.9718 1 
-42.3046 24.9343 1 -62.1473 41.8592 1 -61.2958 17.811 1 
-60.0309 16.5261 1 -62.7583 16.6164 1 -43.3749 -44.7451 1 
-61.7241 19.835 1 -59.8948 19.6098 1 -51.655 -46.7827 1 
-68.3212 -31.622 1 -58.9909 -44.4839 1 -48.688 19.909 1 
-49.1553 20.9881 1 -50.1253 20.0574 1 -30.5072 -12.9737 1 
-31.7188 -11.7345 1 -71.5952 21.8466 1 -51.4933 47.3548 1 
-69.8153 -46.9731 1 -81.282 -20.8733 1 -59.7501 -7.48361 1 
-38.9255 29.2483 1 -72.2625 37.7322 1 -72.1944 39.0547 1 
-73.3402 38.2935 1 -40.1901 31.1539 1 -63.4126 -17.0849 1 
-61.7397 -18.3299 1 -38.3748 -14.3402 1 -71.1223 -37.689 1 
-72.2304 -36.6564 1 -63.8804 -35.1583 1 -40.6986 16.2494 1 
-38.7929 17.0926 1 -62.8423 -15.5678 1 -43.9472 -18.8067 1 
-38.2553 -4.1755 1 -53.077 -29.7567 1 -41.8389 -20.2877 1 
-77.8519 -10.6911 1 -74.5072 36.3523 1 -75.6803 35.6378 1 
-29.347 -39.0894 1 -66.9536 -31.3125 1 -34.5626 -42.4365 1 
-33.5085 -42.7331 1 -33.8474 -45.8287 1 -48.668 3.85731 1 
-50.2226 3.37866 1 -41.9517 6.69809 1 -45.0908 9.45576 1 
-44.4096 10.439 1 -74.222 -25.8245 1 -80.0492 -21.5406 1 
-40.225 -38.9205 1 -43.8134 48.7315 1 -81.2819 3.25631 1 
-68.8424 3.42146 1 -68.7347 4.59703 1 -58.1273 31.937 1 
-73.0417 25.8228 1 -73.0582 27.2626 1 -71.867 42.9932 1 
-41.489 -41.2185 1 -38.9607 -43.584 1 -44.298 -8.25157 1 
-56.6685 0.764429 1 -55.5192 -0.696013 1 -50.8624 25.828 1 
-53.4826 -0.135416 1 -51.2984 -9.12798 1 -56.6858 14.0273 1 
-63.4408 -43.4503 1 -63.8588 -44.6476 1 -55.1152 -38.0979 1 
-50.9531 4.57004 1 -79.1909 -34.0428 1 -41.0774 -9.56845 1 
-79.1427 -31.6029 1 -68.7061 -2.87186 1 -59.6273 12.5091 1 
-33.8599 10.6281 1 -81.3072 22.9054 1 -79.1073 24.0611 1 
-81.273 -21.9387 1 -51.1138 43.4824 1 -81.273 -23.1887 1 
-81.2928 -13.7321 1 -57.0531 2.43948 1 -79.2566 41.0623 1 
-23.8784 40.9681 1 -64.6304 -13.3327 1 -64.7879 -14.6605 1 
-37.5538 -43.6029 1 -32.3377 -13.8754 1 -45.5822 -44.5954 1 
-70.1046 0.0267058 1 -70.1122 1.3853 1 -36.6918 16.3096 1 
-58.3374 -12.5406 1 -58.6191 -14.0501 1 -63.2882 -18.8005 1 
-67.4066 -25.8232 1 -67.6979 -27.485 1 -66.7622 -9.55981 1 
-36.9294 -44.6824 1 -51.1781 48.6966 1 -81.1201 -41.3875 1 
-80.1779 -41.9793 1 -81.3817 -42.6444 1 -79.0872 42.274 1 
-29.3479 -37.3516 1 -40.3285 -41.3258 1 -35.7817 -44.7509 1 
-45.5701 -46.9396 1 -73.3702 -36.6825 1 -50.3331 42.0643 1 
-80.0818 16.0872 1 -44.9048 16.3557 1 -47.9513 17.7279 1 
-25.3587 -2.15825 1 -47.1256 43.6465 1 -57.2807 42.5163 1 
-58.0811 39.7715 1 -25.8468 -44.9073 1 -24.7258 -45.0361 1 
-74.5378 -30.5774 1 -70.1233 13.688 1 -46.0969 28.9712 1 
-61.7256 43.4307 1 -67.2232 47.388 1 -49.806 19.014 1 
-68.3441 47.4445 1 -37.2657 0.594945 1 -35.7134 -1.2512 1 
-66.1183 47.3901 1 -78.2714 49.8024 1 -57.5235 25.0755 1 
-59.4523 24.5823 1 -56.1295 32.7398 1 -75.373 -7.0126 1 
-74.145 -7.54197 1 -65.4897 40.5873 1 -66.2596 39.0575 1 
-64.966 38.9047 1 -74.7954 -33.9724 1 -63.853 5.4232 1 
-77.8332 -3.35381 1 -81.131 24.1473 1 -67.4141 -23.16 1 
-67.3784 -21.9587 1 -74.1672 -2.92106 1 -24.1939 16.9303 1 
-72.8962 29.5029 1 -54.2724 -44.6131 1 -53.3502 -45.7383 1 
-52.7997 -46.9173 1 -74.3442 26.5212 1 -44.4516 4.40767 1 
-45.1736 5.40041 1 -49.8413 46.1988 1 -40.7547 6.83136 1 
-30.0182 31.1092 1 -23.7445 34.8933 1 -64.8727 44.714 1 
-56.9146 -39.5803 1 -56.0826 -40.8803 1 -34.4782 -44.6568 1 
-71.6418 24.317 1 -45.746 8.43946 1 -47.1592 6.26647 1 
-42.5822 7.59976 1 -28.4697 -4.70707 1 -56.0005 24.6572 1 
-75.5856 -42.9794 1 -53.4146 -27.0587 1 -33.9948 -43.6464 1 
-50.6792 21.2804 1 -35.4696 -38.4879 1 -74.5995 -41.3837 1 
-43.1355 4.6266 1 -77.8451 -12.0764 1 -72.4304 40.3342 1 
-66.0542 -26.5993 1 -58.6465 5.52032 1 -51.4245 41.9734 1 
-73.169 -35.7001 1 -75.3673 -5.91625 1 -46.8462 38.0603 1 
-46.3491 39.3684 1 -52.749 38.6247 1 -49.1213 -11.7514 1 
-65.816 -21.5136 1 -65.2663 -20.2225 1 -76.6559 21.6911 1 
-62.0942 32.0815 1 -24.5552 19.7559 1 -66.6711 43.5534 1 
-65.9487 -22.6872 1 -45.8169 6.33791 1 -65.7745 21.4661 1 
-57.5734 -7.8054 1 -59.1348 -9.07521 1 -58.8301 -10.5618 1 
-75.5214 25.9886 1 -67.1752 3.88316 1 -23.3842 47.5495 1 
-70.1367 2.50014 1 -40.8727 -40.2118 1 -79.9814 -43.6508 1 
-72.899 20.9424 1 -76.8114 35.1051 1 -34.037 -37.5077 1 
-38.9902 5.1496 1.49714 -43.8416 38.2782 1 -45.2586 27.708 1 
-45.4287 38.2618 1 -44.1948 36.7778 1 -39.8581 20.0713 1 
-68.777 5.67644 1 -79.2048 38.6049 1 -55.571 -42.2129 1 
-67.2409 -32.7126 1 -61.3791 12.5581 1 -68.5664 -32.98 1 
-79.1416 37.5254 1 -66.3938 -14.205 1 -26.4958 -46.0193 1 
-81.1115 15.5068 1 -72.2336 -47.018 1 -75.7199 -40.5585 1 
-58.8463 8.44531 1 -72.6761 -12.0914 1 -62.3742 -2.56052 1 
-75.8417 -43.968 1 -46.0182 13.4608 1 -71.5515 13.2705 1 
-81.1325 -6.50334 1 -56.5918 41.0539 1 -26.5551 -39.6545 1 
-36.6141 8.79476 1 -54.3855 -36.5963 1 -40.2984 7.79566 1 
-39.6656 6.92224 1 -68.7058 14.5592 1 -35.723 -24.1219 1 
-41.5412 -43.5809 1 -46.7915 27.5152 1 -29.6514 48.8507 1 
-24.1422 -25.1705 1 -41.3911 50.781 1 -80.2409 -34.5381 1 
-80.0612 -2.41052 1 -34.4695 -46.9711 1 -50.3939 11.4316 1 
-35.4713 -37.0833 1 -30.8512 -14.9109 1 -46.8636 -39.7442 1 
-47.3098 30.3419 1 -29.9543 38.6739 1 -33.2518 -46.8103 1 
-39.5282 -40.3313 1 -51.6982 13.7312 1 -81.3227 -11.2232 1 
-79.1899 39.9996 1 -36.6788 13.4452 1 -75.4392 8.86716 1 
-75.4037 -13.0988 1 -44.9048 32.0998 1 
CELLS 4498 49478
10 271 165 177 282 3963 6459 6516 6482 6517 6507 
10 165 164 281 270 1776 6519 6518 3974 3975 6480 
10 1067 1068 493 348 4484 6522 6520 6521 6523 2582 
10 166 283 167 272 6524 6525 1778 3933 6484 3932 
10 280 281 164 269 1901 6519 6526 6478 6481 4004 
10 267 162 173 161 4138 6452 6527 4139 1773 6451 
10 174 267 278 279 6528 6474 6502 6501 6477 1899 
10 15 13 276 171 1882 6470 1896 6493 6529 6494 
10 172 173 266 277 1786 6531 6530 6497 6500 6472 
10 269 164 270 281 4004 3975 1888 6481 6519 6480 
10 164 281 280 176 6519 1901 6526 6457 6505 6506 
10 281 164 165 176 6519 1776 6518 6505 6457 6458 
10 280 164 163 269 6526 1775 6532 6478 4004 4005 
10 652 1444 1324 1340 6533 5648 6534 6535 5649 5312 
10 166 283 272 271 6524 6484 3933 3962 6485 1890 
10 283 166 177 271 6524 6460 6509 6485 3962 6516 
10 177 166 283 178 6460 6524 6509 1791 6461 6511 
10 265 171 172 276 6536 1785 6537 6471 6494 6498 
10 12 265 171 160 4177 6536 6447 1771 4176 6448 
10 274 285 273 180 6488 6489 1892 6538 6515 6539 
10 170 181 274 169 6468 6540 3822 1781 6467 3823 
10 273 284 167 168 6486 6541 3570 3539 6542 1779 
10 166 283 178 167 6524 6511 6461 1778 6525 6462 
10 275 181 170 8 6543 6468 4193 6544 1795 6469 
10 180 181 274 286 1794 6540 6538 6514 6496 6491 
10 364 250 1082 365 6545 4523 6546 2201 6547 6548 
10 275 274 181 286 1893 6540 6543 6490 6491 6496 
10 274 181 180 169 6540 1794 6538 3823 6467 6466 
10 283 167 272 284 6525 3932 6484 1904 6541 6487 
10 266 172 265 160 6530 6537 1884 4165 6449 4176 
10 266 173 172 161 6531 1786 6530 4164 6451 6450 
10 267 278 266 173 6474 6475 1885 6527 6499 6531 
10 279 280 163 268 1900 6532 6549 6476 6479 4093 
10 181 274 275 170 6540 1893 6543 6468 3822 4193 
10 13 12 265 171 1913 4177 1883 6529 6447 6536 
10 174 267 279 268 6528 6477 6501 6550 1886 6476 
10 266 161 172 160 4164 6450 6530 4165 1772 6449 
10 267 173 266 161 6527 6531 1885 4139 6451 4164 
10 13 265 276 171 1883 6471 6470 6529 6536 6494 
10 174 267 268 162 6528 1886 6550 6453 4138 4094 
10 169 274 273 180 3823 1892 3538 6466 6538 6539 
10 277 266 172 265 6472 6530 6497 6473 1884 6537 
10 172 277 265 276 6497 6473 6537 6498 1897 6471 
10 163 268 162 174 4093 4094 1774 6454 6550 6453 
10 275 170 10 8 4193 1782 5516 6544 6469 1783 
10 13 15 12 171 1882 2042 1913 6529 6493 6447 
10 172 171 265 160 1785 6536 6537 6449 6448 4176 
10 283 167 179 178 6525 6463 6510 6511 6462 1792 
10 284 273 167 272 6486 3570 6541 6487 1891 3932 
10 283 179 167 284 6510 6463 6525 1904 6513 6541 
10 163 280 279 175 6532 1900 6549 6455 6503 6504 
10 275 181 8 9 6543 1795 6544 6492 6495 1911 
10 267 173 174 278 6527 1787 6528 6474 6499 6502 
10 271 283 282 177 6485 1903 6482 6516 6509 6507 
10 163 164 280 175 1775 6526 6532 6455 6456 6503 
10 313 205 92 204 6551 6320 2046 6552 1820 6319 
10 92 204 91 313 6319 6318 1700 2046 6552 2045 
10 280 269 163 268 6478 4005 6532 6479 1887 4093 
10 280 176 175 164 6506 1789 6503 6526 6457 6456 
10 313 91 37 204 2045 6554 6553 6552 6318 4398 
10 275 11 9 8 1894 1895 6492 6544 6229 1911 
10 175 279 163 174 6504 6549 6455 1788 6501 6454 
10 204 1040 37 313 4400 4500 4398 6552 6555 6553 
10 274 286 285 180 6491 1906 6488 6538 6514 6515 
10 275 181 9 286 6543 6495 6492 6490 6496 1907 
10 11 275 10 8 1894 5516 1912 6229 6544 1783 
10 204 37 3 91 4398 1643 1819 6318 6554 6315 
10 169 180 273 168 6466 6539 3538 1780 6465 3539 
10 180 285 168 179 6515 6556 6465 1793 6512 6464 
10 285 284 168 179 1905 6542 6556 6512 6513 6464 
10 285 180 168 273 6515 6465 6556 6489 6539 3539 
10 37 63 2 91 1958 1670 1915 6554 2044 1699 
10 91 3 2 37 6315 1620 1699 6554 1643 1915 
10 168 284 167 179 6542 6541 1779 6464 6513 6463 
10 165 282 281 177 6517 1902 6518 6459 6507 6508 
10 278 173 277 266 6499 6500 1898 6475 6531 6472 
10 285 273 168 284 6489 3539 6556 1905 6486 6542 
10 15 14 12 171 1910 1770 2042 6493 1784 6447 
10 279 268 163 174 6476 4093 6549 6501 6550 6454 
10 165 271 270 282 3963 1889 3974 6517 6482 6483 
10 174 173 267 162 1787 6527 6528 6453 6452 4138 
10 165 282 270 281 6517 6483 3974 6518 1902 6480 
10 176 165 281 177 6458 6518 6505 1790 6459 6508 
10 1040 205 313 204 4399 6551 6555 4400 1820 6552 
10 165 271 177 166 3963 6516 6459 1777 3962 6460 
10 165 410 164 270 2332 2333 1776 3974 6557 3975 
10 1499 928 881 1553 6558 3957 6559 5990 6560 6561 
10 144 364 249 1081 2196 6563 6305 6562 6564 4520 
10 1249 1217 559 1350 5069 6566 6565 5340 5341 6567 
10 1217 555 559 1350 6568 2772 6566 5341 6569 6567 
10 1433 813 1359 1511 6570 6571 5609 6018 6572 5858 
10 188 1024 71 294 4349 6574 6411 6573 6575 1984 
10 1531 1530 916 975 5928 6578 6576 6577 6579 4126 
10 767 1325 1407 1406 6580 5528 6581 6582 5526 5530 
10 1505 947 1562 1475 6583 6584 6030 5838 6585 6031 
10 1016 1602 998 1612 6586 6588 4305 6587 6218 6589 
10 1582 900 1504 1560 6590 6591 6091 6094 6592 6024 
10 616 737 1301 1300 3336 6595 6593 6594 6596 5192 
10 1045 320 1174 465 6597 6599 4801 6598 2498 6600 
10 154 374 155 259 2226 2227 1764 6298 6601 6284 
10 1387 1386 1300 736 5469 5464 5468 6602 6603 6604 
10 371 256 1087 1088 6605 4537 6606 6607 4541 4542 
10 300 77 1029 193 2002 6610 6608 6609 6421 4364 
10 539 1111 1112 398 6611 4614 6612 2716 6613 6614 
10 994 1603 941 991 6615 6616 4209 4215 6617 4201 
10 452 304 1033 305 2459 6619 6618 2460 2019 6620 
10 521 1236 560 404 6621 6622 2776 2663 6623 2774 
10 1134 1133 280 422 4676 4671 4675 6624 6625 6626 
10 23 24 1103 47 1629 4585 4586 1931 1932 6627 
10 422 176 175 280 2366 1789 2365 6626 6506 6503 
10 194 302 1031 1030 6628 6629 4371 4367 6630 4372 
10 1078 244 359 1077 4513 6632 6631 4514 4509 6633 
10 1025 442 443 1154 6634 2434 6635 4742 6636 6637 
10 715 594 1357 1260 3272 6640 6638 6639 6641 5364 
10 1025 443 1026 1154 6635 6642 4357 4742 6637 4741 
10 1276 586 1160 587 6643 6645 5117 6644 2878 6646 
10 1355 1344 1263 570 5386 5321 5359 6647 6648 6649 
10 1122 269 164 270 4640 4004 6650 4641 1888 3975 
10 210 99 1046 320 6331 6652 4417 6651 2066 6653 
10 794 782 1429 885 3519 6655 6654 3813 3814 6656 
10 410 1122 164 270 6657 6650 2333 6557 4641 3975 
10 1466 837 1390 1391 6658 6659 5715 5714 6660 5481 
10 1313 1434 753 1358 5613 6662 6661 5367 5615 6663 
10 255 254 150 1086 1871 6294 6297 4534 4535 6664 
10 652 1221 1324 653 6665 5259 6534 3065 6666 6667 
10 1150 1149 436 1020 4732 6669 6668 4729 4728 6670 
10 300 301 1030 448 2007 6672 6671 2447 2448 6673 
10 1030 1159 449 1031 4757 6675 6674 4372 4756 6676 
10 366 1084 252 251 6677 4529 6678 6679 4530 1868 
10 749 1397 1472 846 6680 5732 6681 3686 6682 6683 
10 455 1036 1164 456 6684 4771 6685 2473 6686 6687 
10 1368 707 808 1275 6688 3575 6689 5413 6690 6691 
10 111 220 333 112 6393 6692 2104 1720 6351 2105 
10 1273 704 703 582 6693 3241 6694 6695 3239 3237 
10 498 1200 632 633 6696 6697 3010 3012 6698 3014 
10 1086 512 1208 1209 6699 6700 4902 4903 6701 4905 
10 1142 432 433 1146 6702 2410 6703 5094 6704 6705 
10 937 938 1594 874 3995 6707 6706 3991 3994 6708 
10 18 380 381 1097 6709 2249 6710 4567 6711 6712 
10 346 1067 492 347 6713 6714 2578 2148 6715 2579 
10 903 904 1476 1561 3879 6718 6716 6717 6719 6028 
10 597 596 1286 1169 2906 6722 6720 6721 6723 5148 
10 1178 1049 325 470 4813 6726 6724 6725 6727 2513 
10 422 1133 280 175 6625 4671 6626 2365 6728 6503 
10 822 821 900 1504 3616 3865 3866 6729 6730 6591 
10 820 821 1504 899 3613 6730 6731 3862 3863 6732 
10 712 1373 713 1280 6733 6735 3268 6734 5428 6736 
10 433 1147 1261 1142 6737 5300 6738 6703 5095 5058 
10 396 56 31 397 2293 1961 6739 2297 2295 6740 
10 223 114 115 336 6356 1723 6357 6741 2113 2114 
10 479 1184 613 1185 6742 6744 2953 6743 4835 6745 
10 223 1058 114 336 4452 6746 6356 6741 6747 2113 
10 421 1133 422 175 6748 6625 2367 2364 6728 2365 
10 1320 1210 1211 515 5247 4910 5246 6749 6750 6751 
10 590 454 1163 591 2886 6753 6752 2890 2888 6754 
10 148 1142 252 367 6755 4700 6282 2206 6756 6757 
10 713 1281 1373 714 6758 5427 6735 3271 6759 6760 
10 160 12 1117 405 1771 6762 6761 2318 2319 6763 
10 234 1069 128 350 4485 6765 6389 6764 6766 2155 
10 457 456 593 1165 2476 2894 2895 6767 6768 6769 
10 29 1108 53 394 4600 6771 1942 6770 6772 2286 
10 1111 539 538 397 6611 2717 6773 6774 2715 2713 
10 1133 279 280 175 4672 1900 4671 6728 6504 6503 
10 288 66 183 1020 1967 6402 6775 6776 6777 4338 
10 189 1025 295 1026 4352 6779 6778 4356 4357 6780 
10 287 288 65 183 1968 1966 1965 6781 6775 6442 
10 199 200 1036 86 1814 4385 4386 6434 6435 6782 
10 584 583 705 1274 2869 3242 3243 6783 6784 6785 
10 1281 592 1164 1165 6786 6787 5133 5132 6788 4776 
10 535 534 1108 393 2705 6790 6789 2703 2701 6791 
10 980 943 1581 890 4150 6793 6792 4147 4047 6794 
10 312 1039 558 1074 6795 6797 2805 6796 5054 6798 
10 429 137 1075 357 2387 6800 6799 2408 2176 6801 
10 1547 990 933 987 6802 4195 6803 6804 4196 4188 
10 788 1435 1440 1483 6805 5636 6806 6807 5766 5767 
10 1228 535 1108 1229 6808 6789 4957 4962 6809 4961 
10 1377 817 721 818 6810 3600 6811 6812 3604 3602 
10 772 1329 1330 659 6813 5279 6814 3436 6815 6816 
10 1315 599 1349 1173 6817 6818 5339 5232 6819 5336 
10 44 22 385 45 1928 6820 2259 1651 1959 2260 
10 53 29 394 54 1942 6770 2286 1660 1943 2287 
10 1133 421 279 175 6748 6821 4672 6728 2364 6504 
10 152 371 372 1088 2218 2222 2220 6822 6607 6823 
10 368 511 1085 1261 2634 6826 6824 6825 6827 5057 
10 593 1282 1166 1165 6828 5135 6829 6769 5136 4779 
10 1210 1320 684 515 5247 6831 6830 6750 6749 3161 
10 686 1166 458 457 6832 6833 3168 3167 6834 2479 
10 597 598 1172 1286 2909 6836 6835 6720 6837 5147 
10 1595 1530 1576 975 6143 6074 6195 6838 6579 6839 
10 1345 512 1208 675 6840 6700 5324 6841 3131 6842 
10 17 380 40 18 6843 2245 1919 1623 6709 1920 
10 1177 468 469 603 6844 2511 6845 6846 2922 2923 
10 497 1199 632 498 6847 6848 3009 2598 6849 3010 
10 696 715 1357 800 3505 6638 6850 3550 3551 6851 
10 1497 1518 1426 785 5880 5881 5809 6852 6853 6854 
10 1144 1116 14 404 4707 6857 6855 6856 6858 2317 
10 1289 1290 602 1176 5159 6860 6859 5154 5158 6861 
10 1201 1358 634 1284 5365 6863 6862 5144 5368 6864 
10 738 1388 1302 1301 6865 5470 6866 6867 5471 5195 
10 262 1093 377 1094 4555 6869 6868 4559 4560 6870 
10 739 738 835 1388 3344 3653 3654 6871 6865 6872 
10 649 639 1216 522 3166 6874 6873 3052 3127 6875 
10 1123 411 548 549 6876 2741 6877 6878 2745 2746 
10 1464 1388 1389 835 5709 5475 5708 6879 6872 6880 
10 1082 365 250 1083 6548 6547 4523 4528 6881 4527 
10 35 60 61 401 1954 1667 1955 6882 2307 2308 
10 1109 30 1110 395 4603 4607 4608 6883 6884 6885 
10 22 385 1102 1101 6820 6886 4583 4579 6887 4584 
10 1520 881 1516 1491 6888 6889 5894 5893 6890 5876 
10 1321 518 1214 1322 6891 6892 5249 5253 6893 5252 
10 1388 739 1389 835 6871 6894 5475 6872 3654 6880 
10 533 660 534 1227 3084 3085 2702 6895 6896 6897 
10 343 342 1063 228 2136 6900 6898 6899 6901 4467 
10 1166 1282 593 686 5135 6828 6829 6832 6902 3169 
10 512 511 1209 1086 2819 6903 6701 6699 6904 4903 
10 739 836 740 1389 3656 3657 3347 6894 6905 6906 
10 77 192 1029 193 6420 4365 6610 6421 1807 4364 
10 1190 485 1061 340 6907 6909 4849 6908 2558 6910 
10 613 479 1185 614 2953 6743 6745 2957 2955 6911 
10 335 1058 1186 481 6912 4836 6913 2545 6914 6915 
10 880 882 1556 790 4006 6917 6916 3795 3804 6918 
10 330 1053 108 329 6919 6920 2095 2097 6921 2093 
10 1203 1268 677 1206 5139 6923 6922 4897 5138 6924 
10 1530 1529 1465 915 5925 5920 5924 6925 6926 6927 
10 1222 653 527 654 6928 3064 6929 6930 3068 3066 
10 794 1432 1510 1356 6931 5856 6932 6933 5606 5855 
10 452 453 305 1033 2464 2462 2460 6618 6934 6620 
10 31 397 32 1111 6740 6935 1637 4610 6774 4609 
10 1477 1405 768 1406 5749 6937 6936 5750 5527 6938 
10 1486 865 866 932 6939 3745 6940 6941 3970 3971 
10 480 479 614 1185 2544 2955 2956 6942 6743 6911 
10 745 1393 1394 1307 6943 5490 6944 6945 5485 5489 
10 246 360 141 361 6946 2185 6301 6947 2189 2187 
10 715 1357 1314 1260 6638 5363 6948 6639 5364 5230 
10 493 1067 1195 1196 6520 4863 6949 6950 4867 4868 
10 400 1114 401 60 6951 6952 2309 2305 6953 2307 
10 542 1114 401 400 6954 6952 2725 2724 6951 2309 
10 542 1114 1115 401 6954 4623 6955 2725 6952 6956 
10 70 187 186 292 6409 1801 6408 1979 6957 6958 
10 1606 1574 1004 999 6193 6961 6959 6960 6962 4329 
10 1114 35 1115 401 4618 4622 4623 6952 6882 6956 
10 414 1618 1125 413 6963 6965 6964 2346 6966 6967 
10 781 1238 1283 647 6968 5242 6969 3473 6970 6971 
10 744 624 1307 745 3358 6973 6972 3362 3360 6945 
10 699 698 801 1436 3226 3552 3553 6974 6975 6976 
10 745 625 1307 746 3361 6977 6945 3365 3363 6978 
10 551 552 1126 414 2755 6980 6979 2750 2754 6981 
10 1194 624 625 1307 6982 2990 6983 5208 6973 6977 
10 624 1193 1306 1307 6984 5205 6985 6973 5209 5210 
10 1034 198 306 197 4379 6987 6986 4380 1812 6988 
10 233 1068 349 1069 4482 6990 6989 4486 4487 6991 
10 455 591 592 1164 2889 2893 2891 6685 6992 6787 
10 803 804 1365 1499 3562 6995 6993 6994 6996 5816 
10 1433 813 687 1359 6570 3589 6997 5609 6571 6998 
10 636 1268 1283 1206 6999 5357 7000 7001 5138 5141 
10 1554 907 967 1523 7002 4101 7003 6014 7004 7005 
10 409 1122 1121 269 7006 4642 7007 7008 4640 4638 
10 17 380 18 1097 6843 6709 1623 4568 6711 4567 
10 1023 187 1024 293 4346 4350 4351 7009 7010 7011 
10 1156 445 446 582 7012 2443 7013 7014 2861 2862 
10 774 1411 866 1412 7015 7017 3744 7016 5545 7018 
10 1134 176 423 422 7019 2368 7020 6624 2366 2370 
10 1134 423 281 1135 7020 7021 4674 4720 7022 4678 
10 424 566 1249 559 2793 7024 7023 2771 2795 6565 
10 957 1584 987 1005 7025 7026 4219 4251 7027 4250 
10 383 1100 384 43 7028 7029 2258 2254 7030 2256 
10 1379 1455 1456 823 5684 5687 5685 7031 7032 7033 
10 843 1470 921 844 7034 7035 3929 3682 7036 3931 
10 509 510 1082 1207 2816 7039 7037 7038 7040 4899 
10 1267 434 430 1148 7041 2400 7042 5091 7043 7044 
10 563 418 417 1129 2785 2357 2784 7045 7046 7047 
10 276 418 1129 171 7048 7046 4661 6494 2355 7049 
10 320 99 1046 321 2066 6652 6653 2070 2068 7050 
10 1148 14 430 1144 7051 2389 7044 4719 6855 7052 
10 854 1522 1428 1515 7053 5902 7054 7055 5903 5871 
10 430 14 1148 434 2389 7051 7044 2400 2398 7043 
10 822 1456 900 901 7056 7057 3866 3868 7058 3870 
10 1272 1273 703 582 5110 6694 7059 7060 6695 3237 
10 1206 1205 1283 636 5048 5140 5141 7001 7061 7000 
10 1435 684 788 1338 7062 3489 6805 5623 7063 7064 
10 508 1205 1206 636 7065 5048 7066 3022 7061 7001 
10 1156 1157 446 1028 4752 7067 7013 4747 4751 7068 
10 1155 444 581 580 7069 2858 7070 7071 2856 2860 
10 1232 539 1112 1233 7072 6612 4969 4974 7073 4973 
10 353 1071 236 131 7074 4491 7075 2164 7076 6378 
10 1344 1420 648 1355 5568 7078 7077 5386 5567 7079 
10 1279 590 1162 1163 7080 7081 5127 5126 6752 4770 
10 592 456 1164 1165 2892 6687 6787 6788 6768 4776 
10 591 455 1163 1164 2889 7082 6754 6992 6685 4773 
10 511 1085 1261 1209 6826 5057 6827 6903 4904 5067 
10 558 1038 1166 1167 7083 4777 7084 7085 4781 4782 
10 1205 673 1283 636 7086 7087 5140 7061 3175 7000 
10 508 673 1205 636 3176 7086 7065 3022 3175 7061 
10 1112 540 398 399 7088 2718 6614 7089 2719 2303 
10 467 601 602 1175 2917 2921 2919 7090 7091 7092 
10 601 1289 602 1175 7093 6859 2921 7091 5155 7092 
10 1501 820 1504 899 7094 6731 6009 7095 3862 6732 
10 733 1298 734 613 7096 7097 3329 3325 7098 3327 
10 1421 1377 817 721 5571 6810 7099 7100 6811 3600 
10 924 1473 1472 1537 7101 5737 7102 7103 5944 5945 
10 374 1090 1091 259 7104 4551 7105 6601 4546 4550 
10 1117 1244 405 1143 5004 7106 6763 4724 5003 7107 
10 331 476 477 1054 2531 2535 2533 7108 7109 7110 
10 1183 477 1054 1055 7111 7110 4828 4827 7112 4445 
10 1188 617 1187 482 7113 7115 4844 7114 2964 7116 
10 750 1397 846 1473 7117 6682 3687 7118 5736 7119 
10 749 1397 846 750 6680 6682 3686 3377 7117 3687 
10 1034 453 1162 1033 7120 7121 4765 4381 6934 4766 
10 1491 1417 891 1516 5792 7123 7122 5876 5873 7124 
10 452 451 1161 1033 2461 7126 7125 6618 7127 4762 
10 1551 1496 1566 872 5985 6044 6045 7128 7129 7130 
10 486 1190 621 1191 7131 7133 2976 7132 4853 7134 
10 304 196 1032 1033 7135 4373 7136 6619 4377 4378 
10 168 1618 413 167 7137 6966 2341 1779 7138 2342 
10 594 1357 1260 1316 6640 5364 6641 7139 5385 5308 
10 370 255 1087 151 7140 4538 7141 2215 6296 7142 
10 595 1201 1150 500 7143 4884 7144 2901 7145 7146 
10 367 147 252 148 2205 6281 6757 2206 1757 6282 
10 1124 1265 549 1266 5084 7148 7147 5086 5087 7149 
10 1473 925 1513 924 7150 7151 5947 7101 3945 7152 
10 35 401 61 402 6882 2308 1955 7153 2312 2310 
10 321 100 1047 322 2069 7155 7154 2073 2071 7156 
10 1409 771 1328 1329 7157 7158 5535 5534 7159 5276 
10 364 145 250 365 2197 6279 6545 2201 2199 6547 
10 793 1511 889 813 7160 7161 3831 3591 6572 3832 
10 370 512 513 1208 2637 2640 2638 7162 6700 7163 
10 533 532 659 1227 2699 3081 3082 6895 7164 7165 
10 1226 658 659 1329 7166 3083 7167 5275 7168 6815 
10 1608 1014 1614 1611 7169 7170 6231 6214 7171 6256 
10 1403 651 1323 1340 7172 7173 5517 5519 7174 5311 
10 529 387 1103 388 2685 7176 7175 2686 2270 7177 
10 1398 847 1473 750 7178 7180 5735 7179 3689 7118 
10 1371 711 1372 812 7181 7183 5426 7182 3586 7184 
10 697 698 1270 1439 3223 7187 7185 7186 7188 5631 
10 255 150 370 1086 6297 2214 7140 4534 6664 7189 
10 1002 1003 1615 1597 4291 7192 7190 7191 7193 6244 
10 684 1338 514 669 7063 7194 3160 3186 7195 3113 
10 708 1369 809 810 7196 7197 3578 3580 7198 3582 
10 311 558 1039 1038 2804 6797 7199 7200 7083 4396 
10 1271 1155 1272 580 5102 5106 5107 7201 7071 7202 
10 1002 1583 985 1597 7203 7204 4243 7191 6237 7205 
10 1589 964 1607 1561 7206 7207 6199 6141 7208 6196 
10 1299 614 1186 615 7209 7211 5184 7210 2960 7212 
10 1003 1597 1600 1615 7193 6175 7213 7192 6244 6252 
10 716 638 1345 675 3276 7215 7214 3530 3134 6841 
10 531 1225 1226 1105 7216 4953 7217 7218 4948 4952 
10 616 1300 1187 1186 6594 5187 7219 7220 5188 4841 
10 1003 1018 1615 1010 4331 7221 7192 4326 4320 7222 
10 18 40 41 381 1920 1647 1921 6710 2247 2248 
10 1017 995 989 1583 4325 4216 4255 7223 7224 7225 
10 656 1326 1405 1327 7226 5524 7227 7228 5270 5523 
10 684 788 1338 669 3489 7064 7063 3186 3488 7195 
10 1597 985 1591 1583 7205 7229 6202 6237 7204 6166 
10 891 1417 1491 806 7123 5792 7122 4056 7230 7231 
10 1243 551 510 552 7232 3200 7233 7234 2755 2832 
10 1016 1586 1602 1609 7235 6167 6586 7236 6207 6208 
10 1359 569 1264 716 7237 7239 5371 7238 3275 7240 
10 859 1444 1407 765 7241 5651 7242 3821 7243 7244 
10 1565 1576 1550 954 6098 6099 6043 7245 7246 7247 
10 1144 430 1148 1267 7052 7044 4719 5089 7042 5091 
10 1147 11 10 1128 4715 1912 7248 4716 4659 7249 
10 638 716 1264 569 3276 7240 7250 3213 3275 7239 
10 1534 979 978 920 7251 4142 7252 7253 4140 4137 
10 477 476 611 1183 2535 2946 2947 7111 7254 7255 
10 1169 462 461 1042 7256 2490 7257 4786 7258 7259 
10 286 181 9 428 6496 6495 1907 7260 2381 7261 
10 1134 1256 422 555 5037 7263 6624 7262 7264 2761 
10 675 512 1208 513 3131 6700 6842 3132 2640 7163 
10 1375 795 894 800 7265 3986 7266 7267 3792 3849 
10 513 371 1087 1253 2639 6606 7268 7269 7270 5029 
10 1575 942 986 1000 7271 4182 7272 7273 4232 4233 
10 540 539 1112 398 2720 6612 7088 2718 2716 6614 
10 1382 731 1296 1383 7274 7275 5452 5457 7276 5456 
10 1383 732 1297 1384 7277 7278 5455 5460 7279 5459 
10 994 1603 991 1611 6615 6617 4215 7280 6232 7281 
10 531 389 1105 390 2691 7282 7218 2692 2276 7283 
10 514 1210 1088 1253 7284 4907 7285 7286 5030 5028 
10 520 1258 690 568 7287 7288 3188 2807 7289 3189 
10 1137 426 557 425 7290 2766 7291 7292 2378 2765 
10 1366 1274 704 1273 5407 7294 7293 5408 5113 6693 
10 1342 1419 694 1285 5566 7296 7295 5372 5565 7297 
10 1246 553 565 645 7298 2810 7299 7300 3044 3045 
10 95 207 1043 208 6325 4408 7301 6326 1823 4407 
10 627 748 628 1309 3369 3370 2999 7302 7303 7304 
10 696 594 635 1316 3218 3170 3217 7305 7139 7306 
10 607 473 472 1180 2935 2523 2934 7307 7308 7309 
10 1257 567 1250 1139 7310 7311 5042 5041 7312 5018 
10 1419 1423 680 1285 5578 7314 7313 5565 5577 7315 
10 882 880 1599 983 4006 7317 7316 4161 4162 7318 
10 1210 514 372 515 7284 2642 7319 6750 2645 2643 
10 586 585 1275 1159 2875 7322 7320 7321 7323 5114 
10 1146 432 10 1127 6704 2394 7324 4712 7325 7326 
10 1128 435 9 8 7327 7329 4660 7328 2401 1911 
10 963 996 1601 1010 4220 7331 7330 4271 4272 7332 
10 521 694 680 1285 3208 3212 3148 7333 7297 7315 
10 71 188 294 72 6411 6573 1984 1679 6412 1985 
10 435 1145 9 1140 7334 4710 7329 7335 4711 4690 
10 451 452 304 1033 2461 2459 2457 7127 6618 6619 
10 683 1257 1341 692 7336 5313 7337 3195 7338 7339 
10 588 1278 709 710 7340 7341 3255 3257 7342 3259 
10 913 914 1528 973 3909 7344 7343 4119 4120 7345 
10 452 589 1162 1161 2882 7347 7346 7125 7348 4767 
10 249 250 1082 364 1866 4523 4524 6563 6545 6546 
10 672 547 548 1241 3123 2743 3122 7349 7350 7351 
10 574 1354 1284 787 7352 5508 7353 3485 7354 7355 
10 1017 1002 1583 989 4257 7203 7223 4255 4256 7225 
10 1279 711 712 1372 7356 3265 7357 5425 7183 7358 
10 1279 589 590 711 7359 2887 7080 7356 3260 3261 
10 315 94 206 1042 2051 6323 7360 7361 7362 4405 
10 1052 217 1053 329 4434 4438 4439 7363 7364 6921 
10 649 650 523 1219 3056 3054 3053 7365 7366 7367 
10 18 381 41 1098 6710 2248 1921 4571 7368 7369 
10 862 1408 1481 1479 7370 5760 7371 7372 5755 5840 
10 517 375 1213 518 2650 7374 7373 2654 2652 7375 
10 41 381 382 1098 2248 2252 2250 7369 7368 7376 
10 606 1179 472 471 7377 7378 2932 2931 7379 2520 
10 116 224 337 338 6394 7380 2117 2119 7381 2121 
10 1056 478 479 1184 7382 2541 7383 4830 7384 6742 
10 1177 1048 468 1176 4810 7385 6844 4811 4806 7386 
10 859 1444 1478 1407 7241 5753 7387 7242 5651 5897 
10 1056 112 334 333 7388 2107 7389 7390 2105 2109 
10 1342 694 521 1285 7295 3208 7391 5372 7297 7333 
10 475 330 1182 476 2528 7393 7392 2532 2530 7394 
10 860 861 768 1477 3730 3728 3726 7395 7396 6936 
10 1463 1464 834 1388 5710 7398 7397 5705 5709 7399 
10 672 673 547 1339 3126 3124 3123 7400 7401 7402 
10 636 1268 1206 677 6999 5138 7001 3139 6923 6924 
10 663 536 1230 537 3093 7404 7403 3094 2711 7405 
10 1532 1533 918 1468 5934 7407 7406 5929 5933 7408 
10 1344 1355 648 570 5386 7079 7077 6648 6647 3051 
10 1331 661 1228 1229 7409 7410 5281 5280 7411 4962 
10 1509 875 944 1568 7412 4018 7413 6053 7414 7415 
10 1180 1179 1051 472 4820 4815 4819 7309 7378 7416 
10 1430 717 855 878 7417 3711 7418 7419 3782 3783 
10 837 838 741 1391 3664 3662 3660 6660 7420 7421 
10 1332 1331 1229 662 5285 5280 5284 7422 7423 7424 
10 45 22 386 46 1959 7425 2262 1652 1929 2263 
10 1002 1017 1583 1613 4257 7223 7203 7426 7427 6224 
10 662 661 1229 535 3092 7411 7424 3090 3088 6809 
10 1374 691 1428 1355 7428 7429 5595 5431 7430 5596 
10 1443 719 599 720 7431 3283 7432 7433 3287 3285 
10 752 1313 753 632 7434 6661 3386 3382 7435 3384 
10 1502 937 1503 876 7436 7438 5829 7437 3992 7439 
10 1343 760 642 643 7440 3401 7441 7442 3402 3040 
10 1199 1200 1313 632 4880 5226 5227 6848 6697 7435 
10 136 90 312 240 2041 2039 2043 6268 7443 7444 
10 761 1441 1478 1404 7445 5885 7446 7447 5850 5752 
10 1203 690 1314 754 7448 7450 5229 7449 3389 7451 
10 732 611 1297 612 3321 7452 7278 3322 2951 7453 
10 763 684 788 1435 3410 3489 3516 7454 7062 6805 
10 760 1441 761 643 7455 7445 3406 3402 7456 3404 
10 1441 1321 643 1343 5637 7457 7456 5638 5320 7442 
10 409 1122 410 547 7006 6657 2334 2739 7458 2738 
10 1583 990 1545 1546 7459 7460 6096 6095 7461 5972 
10 760 1441 643 1343 7455 7456 3402 7440 5638 7442 
10 968 969 1525 1574 4109 7464 7462 7463 7465 6069 
10 233 1069 349 128 4486 6991 6989 6388 6765 2153 
10 529 1224 655 656 7466 7467 3070 3072 7468 3074 
10 529 1223 655 1224 7469 7470 3070 7466 4947 7467 
10 836 914 915 1465 3908 3912 3910 7471 7472 6927 
10 1498 1522 1428 854 5901 5902 5814 7473 7053 7054 
10 1243 551 1126 1125 7232 6979 5002 5001 7474 4654 
10 1223 1325 655 1326 5262 7475 7470 5266 5267 7476 
10 536 394 1109 395 2706 7478 7477 2707 2291 6883 
10 551 1207 1265 1243 7479 5083 7480 7232 5061 5082 
10 796 854 691 1515 3708 3709 3526 7481 7055 7482 
10 881 928 1499 939 3957 6558 6559 4027 4028 7483 
10 432 1127 415 10 7325 7484 2395 2394 7326 2350 
10 1007 1017 1008 1613 4316 4317 4266 7485 7427 7486 
10 1515 691 762 1420 7482 3408 7487 5872 7488 7489 
10 19 18 41 1098 1624 1921 1922 4570 4571 7369 
10 1367 807 808 1493 7490 3576 7491 5798 7492 7493 
10 387 23 1102 1103 7494 4582 7495 7176 4586 4587 
10 522 523 381 1098 2669 2667 2665 7496 7497 7368 
10 19 41 382 1098 1922 2250 7498 4570 7369 7376 
10 534 535 1108 1228 2705 6789 6790 7499 6808 4957 
10 793 1361 1508 1433 7500 5847 7501 7502 5611 5846 
10 886 1431 876 1502 7503 7505 3818 7504 5825 7437 
10 392 27 1107 52 7506 4598 7507 2281 1939 7508 
10 27 28 1107 52 1633 4597 4598 1939 1940 7508 
10 1345 716 1424 1359 7214 7509 5583 5591 7238 5612 
10 1107 28 393 52 4597 7511 7510 7508 1940 2283 
10 1125 551 414 413 7474 2750 6964 6967 2751 2346 
10 6 182 7 239 6397 1796 1909 6316 4334 1855 
10 883 1442 1361 798 7512 5640 7513 3807 7514 7515 
10 1169 596 1286 1346 6723 6722 5148 5327 7516 5330 
10 837 740 1390 741 3659 7517 6659 3660 3350 7518 
10 805 804 1418 702 3565 7520 7519 3563 3561 7521 
10 1452 1567 1449 857 6101 6048 6013 7522 7523 7524 
10 15 171 1129 417 6493 7049 4662 7525 2354 7047 
10 575 1354 1151 1252 7526 5354 7527 7528 5355 5027 
10 309 200 1036 1037 7529 4385 7530 7531 4389 4390 
10 291 1023 186 1022 7532 4347 7533 7534 4348 4343 
10 155 374 375 1091 2227 2231 2229 7535 7105 7536 
10 1472 1473 924 846 5737 7101 7102 6683 7119 3940 
10 1269 578 700 699 7537 3227 7538 7539 3225 3229 
10 403 37 36 1040 7540 1642 7541 7542 4500 4708 
10 576 697 698 1270 3220 3223 3221 7543 7185 7187 
10 403 37 1040 313 7540 4500 7542 2411 6553 6555 
10 1300 616 615 1186 6594 2963 7544 5188 7220 7212 
10 938 853 941 1594 3993 4008 4009 6707 7545 7546 
10 403 37 313 63 7540 6553 2411 2314 1958 2385 
10 91 37 63 313 6554 1958 2044 2045 6553 2385 
10 727 726 823 1379 3308 3617 3618 7547 7548 7031 
10 1277 587 1161 588 7549 7551 5120 7550 2881 7552 
10 165 1123 270 271 7553 4643 3974 3963 4644 1889 
10 804 701 1418 702 3560 7554 7520 3561 3235 7521 
10 814 880 952 1564 3794 4051 4049 7555 7556 7557 
10 708 1276 1368 1369 7558 5412 7559 7196 5416 5417 
10 1368 892 808 809 7560 3838 6689 7561 3839 3579 
10 686 1166 457 593 6832 6834 3167 3169 6829 2895 
10 1281 592 593 714 6786 2896 7562 6759 3269 3270 
10 1421 720 600 721 7563 3286 7564 7100 3290 3288 
10 598 719 599 1349 3282 3283 2912 7565 7566 6818 
10 298 191 1028 76 7567 4362 7568 1997 6418 7569 
10 1273 704 1417 703 6693 7570 5558 6694 3241 7571 
10 1289 1290 723 602 5159 7573 7572 6859 6860 3294 
10 1567 850 1449 857 7574 7575 6048 7523 3801 7524 
10 1086 370 1087 1208 7189 7141 4539 4902 7162 4901 
10 1282 686 714 593 6902 3206 7576 6828 3169 3270 
10 1507 816 1492 1549 7577 7578 5843 6003 7579 6008 
10 907 1523 1459 1458 7004 5904 7580 7581 5905 5695 
10 863 1408 862 1479 7582 7370 3736 7583 5755 7372 
10 330 476 1054 1182 2530 7109 7584 7393 7394 4824 
10 286 1140 427 428 4691 7586 7585 7260 7587 2383 
10 676 557 1362 679 3136 7589 7588 3145 3143 7590 
10 837 741 1390 1391 3660 7518 6659 6660 7421 5481 
10 1454 1452 755 1423 5820 7592 7591 5681 5678 7593 
10 741 620 1304 621 3348 7595 7594 3349 2978 7596 
10 1190 1191 1304 621 4853 5199 5200 7133 7134 7596 
10 193 300 1030 1029 6609 6671 4368 4364 6608 4369 
10 762 1452 755 857 7597 7592 3409 3717 7522 3716 
10 308 199 1036 86 7598 4386 7599 2027 6434 6782 
10 1452 1449 1493 857 6013 5799 6004 7522 7524 7600 
10 1190 620 1304 1303 7601 7595 5200 5196 7602 5201 
10 738 618 1302 739 3340 7603 6866 3344 3342 7604 
10 1313 632 633 753 7435 3014 7605 6661 3384 3385 
10 187 1023 292 293 4346 7606 6957 7010 7009 1983 
10 1200 1201 1358 633 4883 5365 5366 6698 7607 7608 
10 454 1035 307 306 7609 7610 2466 2465 7611 2025 
10 1035 308 455 307 7612 2469 7613 7610 2028 2468 
10 759 519 644 1322 3400 3042 3399 7614 7615 7616 
10 844 921 922 1471 3931 3936 3934 7617 7618 7619 
10 1441 1321 1404 643 5637 5521 5850 7456 7457 7620 
10 605 1291 604 725 7621 7622 2930 3301 7623 3300 
10 477 332 1055 478 2534 7624 7112 2538 2536 7625 
10 761 1441 1404 643 7445 5850 7447 3404 7456 7620 
10 1444 652 1324 765 6533 6534 5648 7243 3415 7626 
10 1333 776 777 1414 7627 3453 7628 5550 7629 7630 
10 8 11 1128 10 6229 4659 7328 1783 1912 7249 
10 1333 664 777 776 7631 3451 7628 7627 3449 3453 
10 1234 667 668 1363 7632 3110 7633 5395 7634 7635 
10 1468 841 1469 919 7636 7638 5725 7637 3923 7639 
10 1290 1177 604 603 5157 7642 7640 7641 6846 2927 
10 1189 485 1061 1190 7643 6909 4845 4850 6907 4849 
10 1333 775 776 1413 7644 3450 7627 5546 7645 7646 
10 1397 629 1311 750 7647 7648 5497 7117 3375 7649 
10 534 1107 1108 393 7650 4602 6790 2701 7510 6791 
10 1045 210 1046 320 4413 4417 4418 6597 6651 6653 
10 454 1035 455 307 7609 7613 2470 2466 7610 2468 
10 409 546 1240 547 2736 7652 7651 2739 2740 7653 
10 1536 1535 922 1580 5943 7655 7654 6083 6084 7656 
10 1422 1378 725 1291 5575 7658 7657 5572 5442 7623 
10 1486 1487 933 867 5780 7661 7659 7660 7662 3976 
10 821 1422 725 724 7663 7657 3612 3611 7664 3302 
10 443 1026 296 295 6642 7665 2433 2432 6780 1992 
10 948 1521 1571 1543 7666 6063 7667 7668 6006 6131 
10 992 938 994 1559 4202 4210 4211 7669 7670 7671 
10 695 1498 854 887 7672 7473 3710 3825 7673 3824 
10 1431 1442 886 798 5642 7675 7503 7674 7514 3817 
10 1157 583 446 447 7676 2864 7067 7677 2865 2446 
10 600 1288 721 601 7678 7679 3288 2918 7680 3289 
10 1508 889 793 1511 7681 3831 7501 6033 7161 7160 
10 797 1424 1440 1318 7682 5655 7683 7684 5582 5635 
10 1433 813 1511 793 6570 6572 6018 7502 3591 7160 
10 488 487 1192 1063 2568 7687 7685 7686 7688 4855 
10 785 645 1448 1426 3478 7690 7689 6854 7691 5667 
10 1283 781 647 636 6969 3473 6971 7000 3542 3510 
10 818 1377 819 722 6812 7692 3607 3603 7693 3605 
10 1508 1442 883 945 5848 7512 7694 7695 7696 4022 
10 982 886 1502 945 4159 7504 7697 4237 4023 7698 
10 315 1041 1042 206 7699 4406 7361 7360 4401 4405 
10 1505 947 953 1562 6583 4058 7700 6030 6584 7701 
10 1386 1300 736 735 5464 6604 6603 7702 7703 3335 
10 1596 1531 977 976 6146 7706 7704 7705 7707 4133 
10 641 1211 1319 516 7708 5245 7709 3034 7710 7711 
10 1386 1387 833 736 5469 7713 7712 6603 6602 3647 
10 1368 707 809 808 6688 3577 7561 6689 3575 3579 
10 1430 1441 760 1343 5639 7455 7714 5603 5638 7440 
10 1376 819 820 1501 7715 3610 7716 5821 7717 7094 
10 1046 466 1175 1174 7718 7719 4804 4800 7720 4805 
10 1377 1288 722 721 5439 7721 7693 6811 7679 3293 
10 1411 773 774 866 7722 3444 7015 7017 3743 3744 
10 820 1422 821 724 7723 7663 3613 3609 7664 3611 
10 721 1288 722 601 7679 7721 3293 3289 7680 3291 
10 1146 432 1127 1084 6704 7325 4712 5080 7724 5079 
10 96 95 317 208 1704 2056 2057 6390 6326 7725 
10 1300 616 736 615 6594 3334 6604 7544 2963 3333 
10 386 23 1102 387 7726 4582 7727 2267 7494 7495 
10 832 1386 833 736 7728 7712 3649 3645 6603 3647 
10 332 331 477 1055 2103 2533 2534 7624 7729 7112 
10 1239 781 1283 1339 7730 6969 5243 5515 7731 5390 
10 980 1536 1537 923 7732 5946 7733 4181 7734 7735 
10 330 475 1182 1053 2528 7392 7393 6919 7736 4825 
10 610 609 1295 1182 2945 7739 7737 7738 7740 5172 
10 857 1494 1493 1452 7741 5802 7600 7522 5895 6004 
10 1194 491 1195 626 7742 7744 4865 7743 2991 7745 
10 843 1470 844 1395 7034 7036 3682 7746 5726 7747 
10 840 841 1468 919 3673 7636 7748 3922 3923 7637 
10 839 1467 1468 1392 7749 5722 7750 7751 5717 5721 
10 1254 561 1238 1118 7752 7753 5033 5032 7754 4987 
10 475 1181 1182 1053 7755 4826 7392 7736 4821 4825 
10 748 627 747 1309 3369 3367 3371 7303 7302 7756 
10 1449 807 1493 857 7757 7492 5799 7524 4010 7600 
10 1444 859 1478 764 7241 7387 5753 7758 3797 7759 
10 1587 990 1583 1546 7760 7459 6117 6116 7461 6095 
10 694 1419 795 791 7296 7761 3521 3497 7762 3522 
10 1587 995 1613 1583 7763 7764 6223 6117 7224 6224 
10 1509 1402 1437 757 5852 5621 5851 7765 7766 7767 
10 1348 678 1426 1351 7768 7769 5588 5345 7770 5589 
10 24 25 1104 48 1630 4588 4589 1933 1934 7771 
10 894 1454 852 791 7772 7773 4017 3987 7774 3704 
10 1239 562 1240 1120 7775 7776 4994 4990 7777 4992 
10 1452 1454 755 852 5820 7591 7592 7778 7773 3705 
10 929 1479 1538 930 7779 5949 7780 3966 7781 7782 
10 862 861 929 1481 3733 3959 3960 7371 7783 7784 
10 770 1408 657 769 7785 7786 3430 3432 7787 3428 
10 749 628 1310 629 3372 7789 7788 3373 3002 7790 
10 1545 990 1583 989 7460 7459 6096 7791 4214 7225 
10 756 1445 758 1517 7792 7794 3398 7793 5879 7795 
10 853 1541 756 1517 7796 7798 3707 7797 5958 7793 
10 1281 591 592 713 7799 2893 6786 6758 3266 3267 
10 853 872 1517 758 3766 7800 7797 3706 3765 7795 
10 433 1255 416 544 7801 7802 2396 2732 7803 2731 
10 1402 1509 875 757 5852 7412 7804 7766 7765 3775 
10 301 79 194 302 2006 6445 7805 2010 2008 6628 
10 685 1400 758 1425 7806 7808 3396 7807 5586 7809 
10 496 630 631 1198 3004 3008 3006 7810 7811 7812 
10 882 1509 1437 757 7813 5851 7814 3803 7765 7767 
10 352 235 1071 131 7815 4492 7816 2162 6377 7076 
10 737 1387 1300 736 7817 5468 6596 3338 6602 6604 
10 946 860 1477 861 4026 7395 7818 4024 3730 7396 
10 715 1375 1314 1357 7819 5434 6948 6638 5435 5363 
10 1386 832 833 1462 7728 3649 7712 5703 7820 7821 
10 788 797 1440 669 3529 7683 6806 3488 3528 7822 
10 1509 882 875 757 7813 3802 7412 7765 3803 3775 
10 861 946 929 1539 4024 4025 3959 7823 7824 7825 
10 961 1555 901 1560 7826 7828 4081 7827 6025 7829 
10 1587 1005 1006 995 7830 4260 7831 7763 4292 4314 
10 645 785 1448 790 3478 7689 7690 3494 3495 7832 
10 972 971 986 1588 4118 4284 4285 7833 7834 7835 
10 424 1248 566 425 7836 7837 2793 2375 7838 2794 
10 366 146 251 147 2202 6293 6679 2203 1756 6280 
10 552 366 1084 432 2818 6677 7839 2773 2632 7724 
10 1450 879 1370 1371 7840 7841 5672 5892 7842 5423 
10 360 506 1141 505 2619 7844 7843 2617 2815 7845 
10 807 892 1493 857 4057 7846 7492 4010 3956 7600 
10 872 1496 1517 758 7129 5878 7800 3765 7847 7795 
10 1597 1562 1591 985 6149 6201 6202 7205 7848 7229 
10 861 1481 769 1405 7783 7850 3729 7849 5761 7851 
10 155 375 156 260 2229 2230 1765 6285 7852 6286 
10 818 1453 896 897 7853 7854 3854 3856 7855 3858 
10 640 1170 460 1171 7856 7858 3032 7857 4793 7859 
10 1453 818 819 897 7853 3607 7860 7855 3856 3857 
10 871 778 1416 779 3758 7862 7861 3759 3459 7863 
10 1405 656 769 768 7227 3427 7851 6937 3425 3429 
10 1409 863 1484 1479 7864 7865 5770 5754 7583 5771 
10 875 1500 942 1568 7866 7867 4012 7414 6051 7868 
10 1488 1547 934 1548 5973 7870 7869 5977 5978 7871 
10 968 969 909 1525 4109 4107 4105 7462 7464 7872 
10 914 836 835 1464 3908 3658 3907 7873 7874 6879 
10 1481 1408 769 1405 5760 7787 7850 5761 5533 7851 
10 861 1405 769 768 7849 7851 3729 3728 6937 3429 
10 1532 917 1467 918 7875 7876 5930 7406 3921 7877 
10 385 22 386 45 6820 7425 2264 2260 1959 2262 
10 1177 1290 1176 603 5157 5158 4811 6846 7641 7878 
10 917 839 1467 918 3917 7749 7876 3921 3919 7877 
10 667 1336 779 1427 7879 7881 3458 7880 5656 7882 
10 551 1207 1243 510 7479 5061 7232 3200 7040 7233 
10 386 385 527 1102 2264 2679 2680 7727 6886 7883 
10 298 297 1027 191 1998 7885 7884 7567 7886 4358 
10 906 907 1523 966 3888 7004 7887 4098 4099 7888 
10 301 302 194 1030 2010 6628 7805 6672 6630 4367 
10 507 508 1206 636 2626 7066 7889 3021 3022 7001 
10 1534 979 921 1535 7251 4141 7890 5940 7891 7892 
10 1048 1047 468 1176 4424 7893 7385 4806 4807 7386 
10 717 763 878 1401 3412 3781 3782 7894 7895 7896 
10 667 1427 780 1363 7880 7897 3460 7634 5594 7898 
10 936 794 877 1510 3989 3808 3988 7899 6932 7900 
10 1336 1335 779 1416 5297 7901 7881 5555 5556 7863 
10 442 441 578 1153 2431 2849 2850 7902 7903 7904 
10 412 1125 413 1265 7905 6967 2343 7906 5081 7907 
10 862 863 1479 929 3736 7583 7372 3960 3961 7779 
10 946 1569 929 1539 7908 7909 4025 7824 6056 7825 
10 166 1124 412 411 7910 7911 2339 2335 7912 2340 
10 1452 1454 852 1494 5820 7773 7778 5895 5896 7913 
10 708 707 809 1368 3253 3577 3578 7559 6688 7561 
10 1335 1336 779 666 5297 7881 7901 7914 7915 3457 
10 1556 1518 790 1448 6002 7916 6918 5999 5882 7832 
10 872 1551 951 1566 7128 7917 4045 7130 6045 7918 
10 1015 991 1611 994 4296 7281 7919 4297 4215 7280 
10 880 1518 790 1556 7920 7916 3795 6916 6002 6918 
10 1353 682 1445 1425 7921 7922 5652 5584 7923 5653 
10 1456 1455 1555 901 5687 5997 5998 7058 7924 7828 
10 882 1437 790 757 7814 7925 3804 3803 7767 3496 
10 1556 1437 1448 790 6000 5666 5999 6918 7925 7832 
10 1331 1332 774 662 5285 7927 7926 7423 7422 3443 
10 863 1408 1479 1409 7582 5755 7583 7864 5536 5754 
10 1556 882 1437 790 6917 7814 6000 6918 3804 7925 
10 693 695 1451 1374 3537 7930 7928 7929 7931 5675 
10 420 278 174 173 7932 6502 2361 2360 6499 1787 
10 935 1488 934 1548 7933 7869 3984 7934 5977 7871 
10 982 1502 1559 1571 7697 6021 7935 7936 6061 6062 
10 1003 1002 984 1597 4291 4242 4245 7193 7191 7937 
10 1079 506 1141 361 7938 7844 4695 7939 2620 7940 
10 1597 1562 984 1544 6149 7941 7937 6150 6032 7942 
10 1562 947 984 1544 6584 4169 7941 6032 7943 7942 
10 1259 1361 793 1433 5381 7500 7944 5610 5611 7502 
10 1211 1089 373 515 4909 7946 7945 6751 7947 2644 
10 1540 930 1484 931 7948 7950 5954 7949 3969 7951 
10 1018 1613 1615 1593 7952 6243 7221 7953 6245 6239 
10 1409 771 864 863 7157 3737 7954 7864 3735 3739 
10 1506 924 1513 925 7955 7152 5866 7956 3945 7151 
10 1168 688 1207 1242 7957 7958 4900 5374 7959 5373 
10 660 533 659 1227 3084 3082 3086 6896 6895 7165 
10 1501 1453 898 1558 5822 7961 7960 6015 6016 7962 
10 1594 994 1611 1603 7963 7280 6216 6233 6615 6232 
10 1332 774 775 1412 7927 3447 7964 5543 7016 7965 
10 908 968 909 1525 4104 4105 3894 7966 7462 7872 
10 583 704 705 1274 3240 3244 3242 6784 7294 6785 
10 1436 873 801 1513 7967 3770 6976 5863 7968 7969 
10 1456 1504 900 1560 5832 6591 7057 6023 6024 6592 
10 257 1089 372 153 4544 7971 7970 6311 7972 2221 
10 1587 1584 1006 1005 6180 7973 7831 7830 7027 4260 
10 873 925 801 1513 3996 3997 3770 7968 7151 7969 
10 994 1594 941 1603 7963 7546 4209 6615 6233 6616 
10 1551 814 872 951 7974 3767 7128 7917 4044 4045 
10 1122 1123 548 1242 4645 6877 7975 4998 4999 7976 
10 1584 958 1006 1005 7977 4258 7973 7027 4252 4260 
10 1466 838 1467 917 7978 7980 5719 7979 3916 7876 
10 799 696 1372 812 3548 7982 7981 3788 3800 7184 
10 1357 1371 1372 812 5629 5426 5743 7983 7182 7184 
10 1371 1357 800 812 5629 6851 7984 7182 7983 3829 
10 696 1357 1372 812 6850 5743 7982 3800 7983 7184 
10 298 1027 445 1028 7884 7985 2439 7568 4363 7986 
10 1508 1361 793 883 5847 7500 7501 7694 7513 3806 
10 1027 1156 445 1028 4748 7012 7985 4363 4747 7986 
10 1272 1156 1273 582 5105 5109 5110 7060 7014 6695 
10 1298 612 613 733 7987 2954 7098 7096 3324 3325 
10 704 1366 1417 806 7293 5560 7570 3567 7988 7230 
10 232 1067 347 348 4479 6715 7989 7990 6521 2151 
10 81 303 304 1032 2012 2016 2014 7991 7992 7136 
10 1149 574 1252 1284 7993 7994 5026 5142 7353 5375 
10 693 1432 1451 877 7995 5676 7928 3779 7996 7997 
10 993 991 1609 1016 4208 7999 7998 4306 4303 7236 
10 1574 969 970 999 7465 4112 8000 6962 4229 4301 
10 137 242 1075 357 6271 4503 6800 2176 8001 6801 
10 337 1060 483 338 8002 8003 2551 2121 8004 2552 
10 302 80 195 303 2009 6425 8005 2013 2011 8006 
10 354 132 1072 237 2167 8009 8007 8008 6380 4494 
10 727 1379 824 1380 7547 8011 3620 8010 5448 8012 
10 1357 696 800 812 6850 3550 6851 7983 3800 3829 
10 1533 919 920 978 8013 3927 8014 8015 4135 4137 
10 816 817 1492 895 3601 8016 7578 3851 3852 8017 
10 1190 486 621 620 7131 2976 7133 7601 2974 2978 
10 748 628 1310 749 3370 7789 8018 3374 3372 7788 
10 1034 305 197 306 8019 8020 4380 6986 2022 6988 
10 518 1321 1214 1213 6891 5249 6892 7375 5250 4919 
10 761 643 1404 644 3404 7620 7447 3405 3043 8021 
10 763 1320 1435 1401 8022 5617 7454 7895 5512 5616 
10 302 194 1031 195 6628 4371 6629 8005 1809 4370 
10 377 378 1095 502 2240 8024 8023 2659 2608 8025 
10 1145 572 1259 1140 8026 8027 5049 4711 8028 5050 
10 99 210 1046 211 6331 4417 6652 6332 1826 4416 
10 312 90 1039 240 2039 8029 6795 7444 7443 4693 
10 90 4 240 136 1698 6265 7443 2041 1745 6268 
10 1575 1529 973 1528 6071 8031 8030 6072 5922 7345 
10 104 214 325 1050 6339 8033 2081 8032 4429 8034 
10 1232 1335 665 666 5293 8037 8035 8036 7914 3104 
10 1050 215 1051 326 4428 4432 4433 8038 8039 8040 
10 1347 782 1429 646 8041 6655 5598 8042 3467 8043 
10 103 1049 325 214 8044 6726 2080 6338 4425 8033 
10 638 1255 569 1264 8045 8046 3213 7250 5078 7239 
10 893 1522 1557 887 8047 6011 8048 4143 8049 8050 
10 264 379 38 1096 8051 2242 8052 4702 8053 8054 
10 1547 987 934 1548 6804 4186 7870 5978 8055 7871 
10 214 1049 325 1050 4425 6726 8033 4429 4430 8034 
10 517 1321 1343 643 8056 5320 8057 3038 7457 7442 
10 1061 225 226 118 4462 1841 4461 8058 6361 6362 
10 1189 484 1060 1061 8059 8060 4846 4845 8061 4463 
10 485 484 1189 1061 2559 8059 7643 6909 8061 4845 
10 243 242 138 1076 1859 6272 6273 4506 4507 8062 
10 1053 330 218 1054 6919 8063 4437 4442 7584 4441 
10 1420 762 648 691 7489 3407 7078 7488 3408 3192 
10 1188 617 482 483 7113 2964 7114 8064 2965 2553 
10 1469 1534 920 1470 5936 7253 8065 5728 5935 8066 
10 316 94 1042 207 2053 7362 8067 8068 6324 4404 
10 879 1450 800 1371 7840 8069 3842 7842 5892 7984 
10 1387 1463 833 834 5706 8071 7713 8070 7397 3652 
10 319 209 1044 1045 8072 4410 8073 8074 4414 4415 
10 830 829 1384 733 3640 8076 8075 3638 3636 8077 
10 355 356 238 1073 2175 8080 8078 8079 8081 4497 
10 1201 500 1072 1073 7145 8082 4882 4881 8083 4499 
10 1052 473 327 328 8084 2521 8085 8086 2522 2091 
10 220 110 111 332 6350 1719 6393 8087 2101 2102 
10 355 500 501 1073 2603 2607 2605 8079 8083 8088 
10 464 1172 1349 1173 8089 5337 8090 8091 4799 5336 
10 1149 574 1284 595 7993 7353 5142 8092 3191 8093 
10 133 132 354 237 1741 2167 2168 6381 6380 8008 
10 478 1056 1055 1184 7382 4448 7625 7384 4830 4831 
10 1562 1597 984 985 6149 7937 7941 7848 7205 4197 
10 474 1052 1053 329 8094 4439 8095 2525 7363 6921 
10 552 1243 1084 1083 7234 5063 7839 8096 5060 4531 
10 1533 918 1468 919 7407 7408 5933 8013 3924 7637 
10 903 902 1455 824 3876 8098 8097 3874 3872 8099 
10 1243 552 1084 1126 7234 7839 5063 5002 6980 5075 
10 169 414 274 415 2344 8100 3823 2348 2349 8101 
10 1134 1133 422 1256 4676 6625 6624 5037 5038 7263 
10 1183 612 1184 1297 8102 8103 4832 5179 7453 5178 
10 376 1093 1214 1215 8104 4917 8105 8106 4921 4922 
10 136 1074 241 240 8107 4501 6269 6268 4502 1857 
10 913 914 835 1464 3909 3907 3905 8108 7873 6879 
10 739 836 1389 835 3656 6905 6894 3654 3658 6880 
10 134 356 239 238 2173 8109 6384 6383 8080 1854 
10 1529 914 1464 1465 8110 7873 5921 5920 7472 5713 
10 831 1386 735 1385 8111 7702 3642 8112 5466 8113 
10 838 741 1391 742 3662 7421 7420 3663 3353 8114 
10 25 389 49 1105 8115 2272 1935 4592 7282 8116 
10 1332 662 663 775 7422 3095 8117 7964 3445 3446 
10 134 135 239 356 1743 6317 6384 2173 2174 8109 
10 1116 1236 1218 404 4983 4984 4928 6858 6623 8118 
10 936 794 1510 885 3989 6932 7899 3990 3813 8119 
10 861 1477 1481 1405 7396 5762 7783 7849 5749 5761 
10 532 1226 1227 1106 8120 4956 7164 8121 4951 4955 
10 770 1408 769 862 7785 7787 3432 3732 7370 3731 
10 225 1061 339 118 4462 8123 8122 6361 8058 2123 
10 1431 1502 1503 876 5825 5829 5830 7505 7437 7439 
10 1513 924 1537 1473 7152 7103 6029 5947 7101 5944 
10 717 1430 642 1319 7417 8125 3279 8124 5601 8126 
10 1210 1089 1211 515 4906 4909 4910 6750 7947 6751 
10 12 13 1117 1143 1913 4626 6762 8127 4705 4724 
10 1258 1342 568 1218 5316 8128 7289 5070 5315 8129 
10 1058 481 1187 1186 6914 8130 4840 4836 6915 4841 
10 484 485 1189 619 2559 7643 8059 2970 2971 8131 
10 612 1298 1184 1297 7987 5182 8103 7453 5183 5178 
10 1084 432 1142 1146 7724 6702 4701 5080 6704 5094 
10 1127 552 1126 1084 8132 6980 4657 5079 7839 5075 
10 365 366 251 1084 2204 6679 8133 8134 6677 4530 
10 936 1542 877 949 8135 8136 3988 4036 8137 4035 
10 365 552 366 1084 2817 2818 2204 8134 7839 6677 
10 249 250 364 145 1866 6545 6563 6278 6279 2197 
10 1342 521 568 1218 7391 2809 8128 5315 8138 8129 
10 228 122 229 1064 6365 6366 1844 4471 8139 4470 
10 847 924 1473 846 3941 7101 7180 3691 3940 7119 
10 1229 536 1109 1230 8140 7477 4960 4965 7404 4964 
10 1257 683 1250 567 7336 8141 5042 7310 3158 7311 
10 358 1202 1077 1076 8142 4885 8143 8144 4886 4511 
10 1092 156 260 261 8145 6286 4553 4552 6287 1877 
10 156 1092 1093 261 8145 4557 8146 6287 4552 4556 
10 679 557 1362 1251 3143 7589 7590 8147 8148 5393 
10 1514 946 855 856 8149 4041 8150 8151 4042 3715 
10 1514 1441 1482 856 5868 5888 5889 8151 8152 8153 
10 575 1151 438 1252 7527 8154 2840 7528 5027 8155 
10 185 68 186 1022 6406 6407 1800 4344 8156 4343 
10 1090 1089 373 1211 4548 7946 8157 4908 4909 7945 
10 1023 291 439 1022 7532 2420 8158 4348 7534 8159 
10 1151 1023 439 1022 4733 8158 8160 4734 4348 8159 
10 443 1155 1026 1154 8161 4745 6642 6637 4746 4741 
10 308 1035 455 1036 7612 7613 2469 7599 4387 6684 
10 574 575 438 1252 2842 2840 2839 7994 7528 8155 
10 1037 456 457 1165 8162 2476 8163 4774 6768 6767 
10 1455 902 1555 901 8098 8164 5997 7924 3873 7828 
10 1441 1514 855 856 5868 8150 8165 8152 8151 3715 
10 1478 1441 856 1482 5885 8152 8166 5887 5888 8153 
10 761 1441 856 1478 7445 8152 3714 7446 5885 8166 
10 300 78 193 301 2003 6422 6609 2007 2005 8167 
10 182 287 183 1019 8168 6781 1797 4336 8169 4335 
10 168 1618 167 273 7137 7138 1779 3539 8170 3570 
10 893 1557 955 887 8048 8171 4064 4143 8050 4144 
10 451 587 1161 1160 2877 7551 7126 8172 6646 4764 
10 302 303 195 1031 2013 8006 8005 6629 8173 4370 
10 343 122 1064 344 2135 8139 8174 2139 2137 8175 
10 122 343 1064 228 2135 8174 8139 6365 6899 4471 
10 1030 1159 448 449 4757 8176 6673 6674 6675 2452 
10 774 1412 867 775 7016 8177 3746 3447 7965 3747 
10 987 1547 934 933 6804 7870 4186 4188 6803 3981 
10 949 1519 1578 1572 8178 6190 8179 8180 6065 6192 
10 905 827 1457 1458 3881 8183 8181 8182 8184 5692 
10 564 553 1247 674 2825 8186 8185 3128 3129 8187 
10 1531 1466 1467 917 5927 5719 5926 8188 7979 7876 
10 426 180 1139 427 2377 8190 8189 2407 2379 8191 
10 732 731 1383 1296 3323 7276 7277 8192 7275 5456 
10 1059 337 483 482 8193 2551 8194 8195 2549 2553 
10 529 530 1224 656 2690 8196 7466 3072 3073 7468 
10 1545 1485 932 931 5968 8199 8197 8198 8200 3972 
10 487 1191 1063 1062 8201 4851 7688 8202 4852 4469 
10 1193 489 490 624 8203 2574 8204 6984 2985 2986 
10 1370 879 1450 811 7841 7840 5672 8205 3830 8206 
10 775 1412 867 1413 7965 8177 3747 7645 5548 8207 
10 517 1343 642 643 8057 7441 3036 3038 7442 3040 
10 982 886 876 1502 4159 3818 4158 7697 7504 7437 
10 268 408 1121 163 8208 8209 4637 4093 2326 8210 
10 1051 105 327 326 8211 2086 8212 8040 2084 2088 
10 1412 1487 867 1413 5779 7662 8177 5548 5778 8207 
10 342 341 487 1063 2133 2563 2564 6900 8213 7688 
10 1081 364 249 1082 6564 6563 4520 4525 6546 4524 
10 710 1370 811 879 8214 8205 3584 3789 7841 3830 
10 121 342 343 228 2132 2136 2134 6395 6901 6899 
10 419 1237 1130 556 8215 4986 8216 2764 8217 8218 
10 569 1128 435 1145 8219 7327 2811 8220 4709 7334 
10 1321 518 1322 644 6891 6893 5253 8221 3041 7616 
10 863 1408 1409 770 7582 5536 7864 3734 7785 8222 
10 1520 850 1491 1567 8223 8224 5893 6050 7574 6049 
10 177 1617 283 282 8225 8226 6509 6507 8227 1903 
10 319 209 98 97 8072 6329 2063 2062 6328 1706 
10 1617 178 424 177 8228 2372 8229 8225 1791 2371 
10 353 132 236 1072 2165 6379 7075 8230 8009 4495 
10 859 761 856 1478 3796 3714 3809 7387 7446 8166 
10 558 1075 1074 1167 8231 4505 6798 7085 5055 5056 
10 1370 710 1371 879 8214 8232 5423 7841 3789 7842 
10 1320 684 763 1435 6831 3410 8022 5617 7062 7454 
10 1617 178 177 283 8228 1791 8225 8226 6511 6509 
10 855 953 1505 878 4052 7700 8233 3783 4055 8234 
10 1025 443 295 1026 6635 2432 6779 4357 6642 6780 
10 405 160 1118 1117 2318 8236 8235 6763 6761 4630 
10 242 357 1076 1075 8001 8237 4507 4503 6801 4508 
10 519 759 1323 1322 3400 8239 8238 7615 7614 5256 
10 1025 442 294 295 6634 2429 8240 6779 2430 1989 
10 803 890 1499 1512 3835 8242 6994 8241 8243 5862 
10 1137 1136 425 1248 4721 8244 7292 5013 5014 7838 
10 1502 937 1559 1503 7436 8245 6021 5829 7438 6022 
10 1159 1160 450 1031 4761 8247 8246 4756 4760 8248 
10 386 23 387 46 7726 7494 2267 2263 1930 2265 
10 198 84 307 306 6446 2023 8249 6987 2021 2025 
10 1101 385 527 526 6887 2679 8250 8251 2677 2681 
10 522 649 523 1216 3052 3053 2669 6875 6873 8252 
10 1444 652 764 1340 6533 3414 7758 5649 6535 8253 
10 759 650 1323 651 3534 8254 8239 3535 3059 7173 
10 863 1409 1484 864 7864 5770 7865 3739 7954 8255 
10 38 379 264 159 2242 8051 8052 2241 2392 6267 
10 277 278 1131 173 1898 4666 4667 6500 6499 8256 
10 14 15 1148 417 1910 4718 7051 2353 7525 8257 
10 453 1034 306 305 7120 6986 2463 2462 8019 2022 
10 814 880 1564 1518 3794 7556 7555 8258 7920 6039 
10 877 1542 1451 888 8136 5961 7997 3827 8259 8260 
10 1477 860 1482 1406 7395 8261 5765 5750 8262 5763 
10 948 884 889 1495 4031 3952 4048 8263 8264 8265 
10 1145 572 1140 435 8026 8028 4711 7334 2830 7335 
10 948 992 1571 982 4239 8266 7667 4238 4290 7936 
10 889 1424 1511 1495 8267 5857 7161 8265 5805 5886 
10 1432 1542 1451 877 5960 5961 5676 7996 8136 7997 
10 15 276 1129 171 1896 4661 4662 6493 6494 7049 
10 158 377 263 262 2236 8268 6291 6290 6868 1879 
10 662 1332 663 1230 7422 8117 3095 8269 5283 7403 
10 398 1112 58 32 6614 8271 2299 8270 4613 1949 
10 1442 1508 1521 945 5848 5900 5898 7696 7695 8272 
10 179 1137 283 178 8273 4683 6510 1792 8274 6511 
10 286 1139 427 1140 4687 8191 7585 4691 4722 7586 
10 566 1248 557 425 7837 8275 2837 2794 7838 2765 
10 316 1042 1043 207 8067 4409 8276 8068 4404 4408 
10 886 1431 789 876 7503 8277 3816 3818 7505 3777 
10 386 528 1102 527 2682 8278 7727 2680 2684 7883 
10 1420 762 755 648 7489 3409 8279 7078 3407 3391 
10 557 1138 1137 1251 8280 4686 7291 8148 5020 5021 
10 786 679 1362 1364 3482 7590 8281 8282 8283 5630 
10 495 1069 1198 350 8284 4873 8285 2588 6766 8286 
10 32 397 31 57 6935 6740 1637 1948 2296 1947 
10 1587 1584 1604 1006 6180 6181 6182 7831 7973 8287 
10 473 1180 1051 472 7308 4819 8288 2523 7309 7416 
10 577 1270 1317 1152 8289 5238 8290 8291 5100 5237 
10 501 1150 436 1020 8292 6668 2801 8293 4729 6670 
10 1433 813 793 687 6570 3591 7502 6997 3589 3514 
10 1433 793 1259 687 7502 7944 5610 6997 3514 8294 
10 793 572 1259 687 3513 8027 7944 3514 3174 8294 
10 1431 1364 1341 789 5605 5402 5604 8277 8295 8296 
10 803 1365 1512 1499 6993 5859 8241 6994 5816 5862 
10 762 1452 857 1567 7597 7522 3717 8297 6101 7523 
10 1144 430 1263 1236 7052 8298 5072 4982 8299 5073 
10 1201 1200 499 633 4883 8301 8300 7607 6698 3013 
10 803 1512 802 890 8241 8302 3559 3835 8243 3834 
10 1499 890 803 939 8242 3835 6994 7483 4001 3998 
10 697 1354 1439 1270 8303 5632 7186 7185 5353 5631 
10 873 1474 925 1513 8304 8305 3996 7968 5865 7151 
10 635 1373 696 1316 8306 8307 3217 7306 5507 7305 
10 873 1436 1439 1513 7967 5633 8308 7968 5863 5864 
10 1280 590 1163 591 8309 6752 5130 8310 2890 6754 
10 1034 1035 1163 454 4384 4768 4769 8311 7609 6753 
10 1279 1280 590 1163 5131 8309 7080 5126 5130 6752 
10 602 1289 1176 1175 6859 5154 6861 7092 5155 4808 
10 561 781 647 1238 3464 3473 3048 7753 6968 6970 
10 1179 607 472 1180 8312 2934 7378 4820 7307 7309 
10 319 464 1044 318 2495 8313 8073 2064 2494 8314 
10 1587 1006 1604 1007 7831 8287 6182 8315 4263 8316 
10 727 606 1293 607 3306 8318 8317 3307 2936 8319 
10 1013 1573 970 1574 8320 8322 4282 8321 6070 8000 
10 1178 605 1292 1291 8323 8324 5164 5160 7621 5165 
10 606 605 1292 1178 2933 8324 8325 8326 8323 5164 
10 729 1381 1295 1294 8327 5449 8328 8329 5450 5174 
10 496 495 1198 350 2592 8285 7810 2590 2588 8286 
10 839 838 1391 742 3667 7420 8330 3665 3663 8114 
10 741 740 1390 1304 3350 7517 7518 7594 8331 5476 
10 699 1269 1438 700 7539 5624 8332 3229 7538 8333 
10 220 1056 333 112 4447 7390 6692 6351 7388 2105 
10 1510 885 1429 1550 8119 6656 5854 5984 8334 5983 
10 16 38 17 1096 1916 1917 1622 4566 8054 4565 
10 484 1060 1061 339 8060 4463 8061 2555 8335 8123 
10 1466 838 1391 1467 7978 7420 5714 5719 7980 5718 
10 1525 910 1461 1526 8336 8337 5909 5913 8338 5912 
10 224 225 338 117 1840 8339 7381 6359 6360 2120 
10 552 365 510 1083 2817 2631 2832 8096 6881 8340 
10 1320 1211 1319 641 5246 5245 5248 8341 7708 7709 
10 1545 931 932 989 8198 3972 8197 7791 4191 4192 
10 224 1060 338 225 4459 8004 7381 1840 4458 8339 
10 589 453 1162 590 2883 7121 7347 2887 2885 7081 
10 1456 822 823 901 7056 3619 7033 7058 3868 3869 
10 1134 1256 555 1217 5037 7264 7262 4927 5068 6568 
10 13 12 1116 1143 1913 8342 4625 4705 8127 4704 
10 414 169 274 273 2344 3823 8100 8343 3538 1892 
10 1061 226 1062 340 4461 4465 4466 6910 8344 8345 
10 1463 913 1528 912 8346 7343 5918 8347 3906 8348 
10 1536 980 1580 922 7732 8349 6083 7654 4178 7656 
10 377 378 263 1095 2240 8350 8268 8023 8024 4562 
10 980 950 1580 922 4149 8351 8349 4178 4179 7656 
10 1126 1127 274 415 4657 4655 4653 8352 7484 8101 
10 672 1168 688 509 8353 7957 3216 3509 8354 3179 
10 528 1223 654 655 8355 8356 3067 3069 7470 3071 
10 1049 324 470 469 8357 2512 6727 8358 2510 2514 
10 1547 1488 934 933 5973 7869 7870 6803 8359 3981 
10 1512 803 802 1438 8241 3559 8302 5860 8360 8361 
10 530 1224 1327 1225 8196 5269 8362 8363 4950 5268 
10 68 67 290 185 1675 1972 1973 6406 6405 8364 
10 287 239 135 356 8365 6317 2384 2482 8109 2174 
10 862 929 1479 1481 3960 7779 7372 7371 7784 5840 
10 506 1079 1141 1203 7938 4695 7844 8366 4887 4888 
10 588 1278 589 1161 7340 8367 2884 7552 5124 7348 
10 84 198 307 85 6446 8249 2023 1692 6432 2024 
10 1413 1487 867 868 5778 7662 8207 8368 8369 3751 
10 1234 1233 667 1336 4977 8370 7632 5295 5296 7879 
10 1034 453 306 454 7120 2463 6986 8311 2467 2465 
10 1234 542 1235 668 8371 8372 4980 7633 3109 8373 
10 100 211 1047 212 6333 4420 7155 6334 1827 4419 
10 100 99 321 211 1708 2068 2069 6333 6332 8374 
10 569 1128 1145 1264 8219 4709 8220 7239 5076 5077 
10 596 462 1169 597 2903 7256 6723 2906 2904 6721 
10 99 1046 321 211 6652 7050 2068 6332 4416 8374 
10 1470 843 1394 1395 7034 8375 5727 5726 7746 5493 
10 1530 1595 974 975 6143 8377 8376 6579 6838 4127 
10 476 610 611 1182 2944 2948 2946 7394 7738 8378 
10 918 840 1468 919 3920 7748 7408 3924 3922 7637 
10 1356 794 1429 1510 6933 6654 5599 5855 6932 5854 
10 1607 963 964 996 8379 4091 7207 8380 4220 4221 
10 274 1127 170 415 4655 8381 3822 8101 7484 2347 
10 594 1204 1260 505 8382 5092 6641 2898 8383 8384 
10 429 312 558 1074 2806 2805 2768 8385 6796 6798 
10 81 82 196 304 1689 6428 6427 2014 2015 7135 
10 587 1277 709 588 7549 8386 3254 2881 7550 3255 
10 1079 361 142 362 7939 2188 8387 8388 2192 2190 
10 245 1078 360 1141 4512 8390 8389 4697 5059 7843 
10 867 1487 933 868 7662 7661 3976 3751 8369 3977 
10 882 1509 944 1592 7813 7413 4019 8391 6132 8392 
10 1509 882 944 875 7813 4019 7413 7412 3802 4018 
10 542 400 1234 1114 2724 8393 8371 6954 6951 4975 
10 1354 1358 1284 787 5669 5368 5508 7354 8394 7355 
10 1354 787 1434 1358 7354 8395 5867 5669 8394 5615 
10 800 1450 879 894 8069 7840 3842 3849 8396 3848 
10 1244 431 405 1143 8397 2393 7106 5003 8398 7107 
10 787 595 634 1284 3484 3017 3487 7355 8093 6864 
10 1122 409 410 164 7006 2334 6657 6650 2329 2333 
10 708 1277 1369 709 8399 5415 7196 3256 8386 8400 
10 983 880 1599 952 4162 7317 7318 4163 4051 8401 
10 1375 1454 1450 894 5812 5828 5827 7266 7772 8396 
10 1369 940 809 810 8402 4003 7197 7198 3840 3582 
10 278 420 1131 173 7932 8403 4666 6499 2360 8256 
10 14 1116 1144 15 6857 4707 6855 1910 4624 4706 
10 1278 1277 709 1370 5125 8386 7341 5418 5419 8404 
10 583 704 1273 582 3240 6693 8405 2866 3239 6695 
10 256 151 371 1087 6308 2217 6605 4537 7142 6606 
10 1200 1313 633 1358 5226 7605 6698 5366 5367 7608 
10 1181 609 1182 1295 8406 7740 4826 5173 7739 5172 
10 438 1151 1022 1252 8154 4734 8407 8155 5027 5024 
10 1589 964 1561 965 7206 7208 6141 8408 4097 8409 
10 1177 1178 470 1049 4814 6725 8410 4809 4813 6727 
10 631 752 632 1313 3381 3382 3011 8411 7434 7435 
10 1568 942 944 986 7868 4020 7415 8412 4182 4183 
10 621 741 742 1304 3349 3353 3351 7596 7594 8413 
10 78 77 300 193 1685 2002 2003 6422 6421 6609 
10 72 1025 294 295 8414 8240 1985 1987 6779 1989 
10 704 1274 1366 705 7294 5407 7293 3244 6785 8415 
10 299 77 76 192 2000 1684 1999 8416 6420 6419 
10 1101 385 526 384 6887 2677 8251 8417 2261 2676 
10 1145 687 1359 1259 8418 6998 5369 5049 8294 5370 
10 525 1221 1220 1340 8419 4938 8420 8421 5309 5310 
10 741 1390 1391 1304 7518 5481 7421 7594 5476 5480 
10 743 622 1305 623 3354 8423 8422 3355 2984 8424 
10 620 1190 1304 621 7601 5200 7595 2978 7133 7596 
10 1518 785 1448 1426 6853 7689 5882 5881 6854 5667 
10 718 815 719 1447 3594 3595 3284 8425 8426 8427 
10 930 1479 1538 1484 7781 5949 7782 7950 5771 5948 
10 968 1586 1554 967 8428 6113 8429 4106 8430 7003 
10 906 828 1458 907 3884 8432 8431 3888 3886 7581 
10 1347 1237 681 556 5331 8435 8433 8434 8217 3151 
10 968 1012 1586 967 4278 8436 8428 4106 4277 8430 
10 466 1288 601 1175 8437 7680 2916 7719 5152 7091 
10 850 762 857 1567 3698 3717 3801 7574 8297 7523 
10 1599 983 1616 1592 7318 8438 6261 6157 8439 6258 
10 1238 1268 1283 647 5384 5357 5242 6970 8440 6971 
10 620 740 741 1304 3346 3350 3348 7595 8331 7594 
10 950 1557 1579 955 8441 6221 8442 4063 8171 8443 
10 1375 1371 800 1450 5628 7984 7267 5827 5892 8069 
10 836 1464 1389 835 7874 5708 6905 3658 6879 6880 
10 1518 880 1599 1556 7920 7317 6155 6002 6916 6156 
10 870 869 1489 1414 3757 8446 8444 8445 8447 5785 
10 1474 847 848 925 8448 3694 8449 8305 3943 3944 
10 979 950 1579 955 4145 8442 8450 4146 4063 8443 
10 869 870 777 1414 3757 3755 3753 8447 8445 7630 
10 506 1203 637 677 8366 8451 3024 3137 6922 3184 
10 1142 432 1084 366 6702 7724 4701 8452 2632 6677 
10 253 368 149 1085 8453 2209 6306 4533 6824 8454 
10 1488 1413 1414 868 5782 5551 5781 8455 8368 8456 
10 716 1345 1424 675 7214 5583 7509 3530 6841 8457 
10 534 392 1107 393 2700 7507 7650 2701 2285 7510 
10 1618 167 273 272 7138 3570 8170 8458 3932 1891 
10 369 254 1085 1086 8459 4532 8460 8461 4535 4536 
10 1265 688 1266 1207 8462 8463 5087 5083 7958 5401 
10 1424 797 1440 1495 7682 7683 5655 5805 8464 5804 
10 663 664 537 1230 3098 3096 3094 7403 8465 7405 
10 1514 953 1569 1505 8466 8467 6054 5870 7700 6055 
10 858 1435 788 1483 8468 6805 3719 8469 5766 6807 
10 1100 1101 384 21 4581 8417 7029 4576 4580 8470 
10 1224 655 656 1326 7467 3074 7468 5265 7476 7226 
10 28 1107 393 1108 4597 7510 7511 4601 4602 6791 
10 394 1109 395 54 7478 6883 2291 2287 8471 2289 
10 1210 1320 1338 684 5247 5305 5302 6830 6831 7063 
10 540 1113 1112 1233 8472 4617 7088 8473 4972 4973 
10 858 927 1483 884 3954 8474 8469 3812 3953 8475 
10 539 1111 1232 1112 6611 4970 7072 6612 4614 4969 
10 430 570 1263 560 2824 6649 8298 2775 2823 8476 
10 1507 1443 719 1447 5845 7431 8477 6152 5663 8427 
10 1529 1595 1575 973 6144 6173 6071 8031 8478 8030 
10 1288 600 1315 1174 7678 8479 5233 5153 8480 5231 
10 815 1507 1447 1446 8481 6152 8426 8482 5992 5662 
10 346 345 491 1066 2145 2575 2576 8483 8484 8485 
10 597 718 598 1286 3280 3281 2909 6720 8486 6837 
10 636 1268 677 671 6999 6923 3139 3511 8487 3540 
10 97 209 208 1044 6328 1824 6327 8488 4410 4411 
10 815 1507 1446 1490 8481 5992 8482 8489 5993 5811 
10 12 14 1116 404 1770 6857 8342 2316 2317 6858 
10 1507 815 926 1490 8481 3949 8490 5993 8489 8491 
10 870 926 1490 1489 3985 8491 8492 8444 8493 5789 
10 13 12 15 1116 1913 2042 1882 4625 8342 4624 
10 581 1272 703 582 8494 7059 3236 2863 7060 3237 
10 608 728 729 1294 3310 3314 3312 8495 8496 8329 
10 825 826 729 1381 3628 3626 3624 8497 8498 8327 
10 1354 575 1151 1270 7526 7527 5354 5353 8499 5101 
10 1532 1531 1467 917 5931 5926 5930 7875 8188 7876 
10 431 12 1116 404 2390 8342 8500 2391 2316 6858 
10 1499 1563 890 928 6034 8501 8242 6558 8502 4067 
10 729 730 1295 1381 3317 8503 8328 8327 8504 5449 
10 710 1278 1370 1371 7342 5418 8214 8232 5422 5423 
10 826 1457 1382 1381 8505 5688 8506 8498 5689 5454 
10 1595 1529 974 973 6144 8507 8377 8478 8031 4124 
10 811 709 1369 1370 3583 8400 8508 8205 8404 5420 
10 500 1201 1150 1073 7145 4884 7146 8083 4881 4731 
10 828 1458 1459 1383 8432 5695 8509 8510 5690 5694 
10 906 907 1458 1523 3888 7581 8431 7887 7004 5905 
10 1557 1578 1579 955 6191 6082 6221 8171 8511 8443 
10 946 1514 1482 856 8149 5889 8512 4042 8151 8153 
10 488 1192 623 489 7685 8513 2982 2571 8514 2983 
10 825 728 824 1380 3623 3621 3625 8515 8516 8012 
10 1467 839 1391 1392 7749 8330 5718 5717 7751 5484 
10 621 1191 1304 1305 7134 5199 7596 8517 5203 5204 
10 1578 979 1579 955 8518 8450 6082 8511 4146 8443 
10 1500 782 1429 1402 8519 6655 5819 5818 8520 5600 
10 534 1227 1228 1107 6897 4959 7499 7650 4954 4958 
10 576 1270 1152 1151 7543 5100 8521 8522 5101 4737 
10 1410 1409 864 1484 5539 7954 8523 5769 5770 8255 
10 522 1216 1098 1097 6875 5071 7496 8524 5043 4572 
10 979 950 922 1535 4145 4179 4180 7891 8525 7655 
10 30 55 395 54 1945 2290 6884 1944 1661 2289 
10 847 1398 751 750 7178 8526 3690 3689 7179 3380 
10 170 1127 274 275 8381 4655 3822 4193 4656 1893 
10 749 1397 1310 1396 6680 5498 7788 8527 5499 5494 
10 170 169 274 415 1781 3823 3822 2347 2348 8101 
10 1194 1193 624 1307 4862 6984 6982 5208 5209 6973 
10 998 1602 1016 1011 6588 6586 4305 4274 8528 4322 
10 672 547 1241 1339 3123 7350 7349 7400 7402 5307 
10 1456 1455 901 823 5687 7924 7058 7033 7032 3869 
10 408 562 1240 546 2780 7776 8529 2737 2783 7652 
10 1452 1420 755 1423 5677 8279 7592 5678 5643 7593 
10 1258 520 1268 1244 7287 8530 5096 5047 8531 5097 
10 776 869 777 1414 3752 3753 3453 7629 8447 7630 
10 1414 870 777 1415 8445 3755 7630 5554 8532 8533 
10 1334 1414 777 1415 5549 7630 8534 5553 5554 8533 
10 870 1489 1415 1414 8444 5784 8532 8445 5785 5554 
10 1126 414 274 273 6981 8100 4653 4652 8343 1892 
10 1455 902 901 823 8098 3873 7924 7032 3871 3869 
10 1577 1533 1578 978 6075 6078 6079 8535 8015 8536 
10 476 1182 611 1183 7394 8378 2946 7254 4829 7255 
10 837 838 1466 916 3664 7978 6658 3913 3914 8537 
10 1507 815 816 926 8481 3598 7577 8490 3949 4016 
10 817 1377 1492 818 6810 5794 8016 3604 6812 8538 
10 699 1269 1317 1438 7539 5239 8539 8332 5624 5625 
10 698 873 801 1436 3769 3770 3552 6975 7967 6976 
10 1111 539 397 398 6611 2715 6774 6613 2716 2300 
10 1156 1157 1273 582 4752 5108 5109 7014 8540 6695 
10 573 1267 1374 1360 8541 5430 8542 8543 5380 5432 
10 742 741 1391 1304 3353 7421 8114 8413 7594 5480 
10 1386 832 735 736 7728 3644 7702 6603 3645 3335 
10 1016 1609 1602 1612 7236 6208 6586 6587 6220 6218 
10 1137 426 179 1138 7290 2376 8273 4686 8544 8545 
10 1300 616 1187 1301 6594 7219 5187 5192 6593 5191 
10 1523 1589 966 1602 6123 8546 7888 6169 6177 8547 
10 966 1524 1589 1523 8548 6124 8546 7888 5908 6123 
10 964 903 1570 1561 4089 8550 8549 7208 6717 6174 
10 1534 979 1579 1578 7251 8450 6081 6077 8518 6082 
10 445 1156 581 582 7012 8551 2859 2861 7014 2863 
10 995 1017 1613 1583 4325 7427 7764 7224 7223 6224 
10 1322 759 1323 1403 7614 8239 5256 5518 8552 5517 
10 1572 978 1577 1578 8553 8535 6247 6192 8536 6079 
10 1158 1159 448 1030 4758 8176 8554 4753 4757 6673 
10 299 192 1028 1029 8416 4361 8555 8556 4365 4366 
10 1156 1272 581 582 5105 8494 8551 7014 7060 2863 
10 752 1399 1434 1313 8557 5614 8558 7434 5503 5613 
10 985 1569 1591 988 8559 6151 7229 4213 8560 8561 
10 1569 1591 988 1538 6151 8561 8560 6090 6130 8562 
10 1201 1200 1072 499 4883 4878 4882 8300 8301 8563 
10 985 1569 988 953 8559 8560 4213 4172 8467 4212 
10 864 1485 1484 931 8564 5774 8255 3967 8200 7951 
10 763 1475 878 1401 8565 8566 3781 7895 5741 7896 
10 947 1562 985 953 6584 7848 4171 4058 7701 4172 
10 1565 1595 1576 954 6213 6195 6098 7245 8567 7246 
10 1540 930 988 1538 7948 4189 8568 5955 7782 8562 
10 990 1545 932 989 7460 8197 4194 4214 7791 4192 
10 1597 1002 1583 1613 7191 7203 6237 6236 7426 6224 
10 238 356 239 1019 8080 8109 1854 4694 8569 4692 
10 421 420 1132 174 2406 8571 8570 2363 2361 8572 
10 993 1606 1004 999 8573 6959 4248 4330 6960 4329 
10 1509 1568 944 1592 6053 7415 7413 6132 6133 8392 
10 1362 566 682 1353 8574 3155 8575 5392 8576 7921 
10 1021 438 1022 1252 8577 8407 4345 5025 8155 5024 
10 1368 1367 808 1493 5414 7491 6689 5797 5798 7493 
10 981 948 1543 927 4152 7668 8578 4153 4032 8579 
10 1012 1606 993 999 8580 8573 4332 4288 6960 4330 
10 1091 517 375 1213 8581 2650 7536 4915 7373 7374 
10 643 1321 1404 644 7457 5521 7620 3043 8221 8021 
10 68 291 186 1022 1975 7533 6407 8156 7534 4343 
10 1520 881 1491 850 6888 6890 5893 8223 3798 8224 
10 1572 978 1578 949 8553 8536 6192 8180 4310 8179 
10 1606 1574 999 1586 6193 6962 6960 6194 6114 8582 
10 917 1532 977 918 7875 8583 4131 3921 7406 4132 
10 25 48 389 1104 1934 2271 8115 4588 7771 8584 
10 530 388 1104 389 2688 8586 8585 2689 2273 8584 
10 68 290 1022 185 1973 8587 8156 6406 8364 4344 
10 1226 531 658 1328 7217 3078 7166 5271 8588 8589 
10 1012 1606 999 1586 8580 6960 4288 8436 6194 8582 
10 626 1309 1308 747 8590 5216 8591 3366 7756 8592 
10 906 905 1524 1458 3885 8594 8593 8431 8182 5906 
10 874 938 1594 853 3994 6707 6708 3773 3993 7545 
10 303 1031 450 1032 8173 8248 2454 7992 4375 8595 
10 1168 509 1081 1082 8354 8596 4784 4783 7037 4525 
10 853 1566 941 1594 8597 8598 4008 7545 6235 7546 
10 874 1541 1594 1503 8599 6203 6708 8600 5959 6140 
10 1608 1003 1600 1610 8601 7213 6210 6212 8602 6211 
10 1608 1003 1610 1014 8601 8602 6212 7169 4295 8603 
10 1608 1003 1014 981 8601 4295 7169 8604 4244 4294 
10 1573 1013 1605 1616 8320 8605 6234 6248 8606 6251 
10 1355 1420 691 1428 5567 7488 7430 5596 5597 7429 
10 1003 1597 984 1600 7193 7937 4245 7213 6175 8607 
10 981 1003 984 1600 4244 4245 4185 8608 7213 8607 
10 1522 893 854 887 8047 4059 7053 8049 4143 3824 
10 1091 517 1213 1212 8581 7373 4915 4911 8609 4916 
10 979 1534 978 1578 7251 7252 4142 8518 6077 8536 
10 586 587 450 1160 2878 2876 2874 6645 6646 8247 
10 566 1353 1362 1248 8576 5392 8574 7837 5350 5391 
10 265 12 1117 160 4177 6762 4627 4176 1771 6761 
10 188 189 1025 72 1803 4352 4353 6412 6413 8414 
10 696 1373 635 799 8307 8306 3217 3548 8610 3547 
10 693 877 1451 888 3779 7997 7928 3826 3827 8260 
10 1607 996 964 997 8380 4221 7207 8611 4224 4222 
10 1589 964 965 997 7206 4097 8408 8612 4222 4223 
10 686 1166 1282 459 6832 5135 6902 3178 8613 8614 
10 927 1543 1600 1544 8579 6161 8615 8616 6041 6160 
10 1290 723 603 724 7573 3295 7641 8617 3299 3297 
10 1602 998 966 1011 6588 4226 8547 8528 4274 4275 
10 342 121 120 228 2132 1729 2131 6901 6395 6364 
10 1589 1524 966 965 6124 8548 8546 8408 8618 4100 
10 739 618 1302 619 3342 7603 7604 3343 2972 8619 
10 1058 114 336 335 6746 2113 6747 6912 2111 2115 
10 1487 1488 933 868 5783 8359 7661 8369 8455 3977 
10 1185 1299 614 1186 5185 7209 6911 4838 5184 7211 
10 749 1397 629 1310 6680 7647 3373 7788 5498 7790 
10 1015 1609 1612 1611 8620 6220 8621 7919 6241 6246 
10 1166 1202 1282 459 5388 5389 5135 8613 8622 8614 
10 495 349 494 1197 2587 2585 2589 8623 8624 8625 
10 1267 434 1148 1360 7041 7043 5091 5380 8626 5379 
10 1038 311 558 458 7200 2804 7083 8627 2478 3274 
10 946 860 1482 1477 4026 8261 8512 7818 7395 5765 
10 1402 1337 1437 757 5513 5620 5621 7766 8628 7767 
10 138 357 358 1076 2177 2180 2178 8062 8237 8144 
10 1166 459 558 1167 8613 2803 7084 4782 8629 7085 
10 1166 1167 1202 459 4782 5044 5388 8613 8629 8622 
10 1179 1178 1050 471 4817 4812 4816 7379 8630 8631 
10 1224 1223 655 1326 4947 7470 7467 5265 5266 7476 
10 155 374 1091 259 2227 7105 7535 6284 6601 4550 
10 1139 180 426 285 8190 2377 8189 4688 6515 8632 
10 640 1171 460 503 7857 7859 3032 3031 8633 2613 
10 530 531 389 1225 2693 2691 2689 8363 7216 8634 
10 1478 859 1407 1482 7387 7242 5897 5887 8635 5764 
10 848 849 1439 873 3697 8637 8636 3946 3819 8308 
10 1233 540 541 667 8473 2723 8638 8370 3105 3106 
10 325 1178 470 471 6724 6725 2513 2515 8630 2517 
10 266 407 406 1119 8639 2325 8640 4631 8641 8642 
10 1050 1178 325 471 4812 6724 8034 8631 8630 2515 
10 606 1178 1179 471 8326 4817 7377 2931 8630 7379 
10 1309 1395 1308 747 5491 5492 5216 7756 8643 8592 
10 336 1059 482 337 8644 8195 2548 2118 8193 2549 
10 372 1089 515 373 7971 7947 2643 2225 7946 2644 
10 1080 508 1081 1205 8645 8646 4522 4893 7065 4892 
10 1463 1387 833 1462 5706 7713 8071 5707 5702 7821 
10 336 1058 481 1187 6747 6914 2546 8647 4840 8130 
10 1387 1386 833 1462 5469 7712 7713 5702 5703 7821 
10 190 189 73 296 1804 6414 6415 8648 8649 1990 
10 189 190 1026 296 1804 4355 4356 8649 8648 7665 
10 132 236 1072 237 6379 4495 8009 6380 1852 4494 
10 776 1413 868 1414 7646 8368 3750 7629 5551 8456 
10 1195 627 493 1196 8650 2995 6949 4868 8651 6950 
10 1067 347 493 492 6715 2581 6520 6714 2579 2583 
10 184 289 1021 1020 8652 8653 4341 4337 8654 4342 
10 1594 994 938 1559 7963 4210 6707 6139 7671 7670 
10 464 598 1349 1172 2908 7565 8090 8089 6836 5337 
10 674 553 1247 1352 3129 8186 8187 8655 8656 5347 
10 553 421 1132 1246 2758 8570 8657 7298 8658 5009 
10 798 683 1341 692 3531 7337 8659 3532 3195 7339 
10 1053 330 108 218 6919 2095 6920 4437 8063 6346 
10 1617 283 1137 178 8226 4683 8660 8228 6511 8274 
10 289 1149 1021 1020 8661 4727 8653 8654 4728 4342 
10 289 67 184 1021 1970 6404 8652 8653 8662 4341 
10 543 1040 503 403 8663 8664 2822 2729 7542 2756 
10 1188 484 483 1060 8665 2556 8064 4842 8060 8003 
10 849 752 1434 753 3695 8558 8666 3696 3386 6662 
10 133 134 238 355 1742 6383 6382 2170 2171 8078 
10 1040 313 503 403 6555 2611 8664 7542 2411 2756 
10 943 1512 1581 890 8667 6097 6793 4047 8243 6794 
10 67 289 290 1021 1970 1974 1972 8662 8653 8668 
10 1541 876 1480 1503 8669 8670 5956 5959 7439 5831 
10 156 376 157 1093 2232 2233 1766 8146 8104 8671 
10 158 378 159 263 2238 2239 1768 6291 8350 6292 
10 1345 512 675 638 6840 3131 6841 7215 3027 3134 
10 1230 537 395 1110 7405 2709 8672 4963 8673 6885 
10 179 283 1137 284 6510 4683 8273 6513 1904 4682 
10 1254 647 1268 1238 8674 8440 5587 5033 6970 5384 
10 1254 647 545 1268 8674 3049 8675 5587 8440 8676 
10 1411 1331 1412 774 5540 5544 5545 7015 7926 7016 
10 1089 1210 372 515 4906 7319 7971 7947 6750 2643 
10 356 355 501 1073 2175 2605 2606 8081 8079 8088 
10 873 698 1439 1436 3769 7188 8308 7967 6975 5633 
10 971 911 1527 912 4113 8678 8677 4114 3903 8679 
10 709 1277 1369 1370 8386 5415 8400 8404 5419 5420 
10 199 308 307 85 7598 2028 8680 6433 2026 2024 
10 308 199 307 1035 7598 8680 2028 7612 4382 7610 
10 882 1599 1556 1592 7316 6156 6917 8391 6157 6134 
10 265 160 1117 1118 4176 6761 4627 4628 8236 4630 
10 1034 305 1033 197 8019 6620 4381 4380 8020 4376 
10 1565 885 954 1550 8681 4061 7245 6043 8334 7247 
10 1100 21 384 43 4576 8470 7029 7030 1926 2256 
10 1574 1573 970 1526 6070 8322 8000 6068 6067 8682 
10 964 1607 1561 1570 7207 6196 7208 8549 6197 6174 
10 992 982 1559 1571 4290 7935 7669 8266 7936 6062 
10 1004 983 1616 952 4246 8438 8683 4247 4163 8684 
10 171 418 1129 417 2355 7046 7049 2354 2357 7047 
10 1360 693 1451 1374 8685 7928 5674 5432 7929 5675 
10 1572 978 949 977 8553 4310 8180 8686 4136 4309 
10 972 1588 973 1528 7833 8688 4121 8687 6119 7345 
10 937 874 1594 1503 3991 6708 6706 7438 8600 6140 
10 277 276 172 1130 1897 6498 6497 4663 4664 8689 
10 198 199 307 85 1813 8680 8249 6432 6433 2024 
10 199 198 307 1035 1813 8249 8680 4382 4383 7610 
10 1219 524 382 1099 8690 2670 8691 4930 8692 8693 
10 803 804 701 1365 3562 3560 3558 6993 6995 8694 
10 462 316 1043 317 2488 8276 8695 2489 2058 8696 
10 290 289 437 1021 1974 2414 2415 8668 8653 8697 
10 430 573 1267 570 2834 8541 7042 2824 2833 8698 
10 19 41 42 382 1922 1648 1923 7498 2250 2251 
10 1379 727 1292 1293 7547 8699 5444 5443 8317 5168 
10 1459 829 1384 1460 8700 8076 5693 5698 8701 5697 
10 316 95 1043 317 2054 7301 8276 2058 2056 8696 
10 1111 396 1110 31 8702 8703 4611 4610 6739 4606 
10 727 607 1293 728 3307 8319 8317 3311 3309 8704 
10 907 1554 1459 1523 7002 5995 7580 7004 6014 5904 
10 927 1543 1483 884 8579 5963 8474 3953 8705 8475 
10 1378 726 725 1292 8706 3305 7658 5441 8707 8708 
10 987 957 956 1548 4219 4070 4187 8055 8709 8710 
10 729 608 1294 609 3312 8495 8329 3313 2942 8711 
10 1410 772 1329 1330 8712 6813 5538 5537 6814 5279 
10 959 958 1604 1558 4076 8715 8713 8714 8716 6183 
10 100 1047 322 212 7155 7156 2071 6334 4419 8717 
10 1508 1442 1361 883 5848 5640 5847 7694 7512 7513 
10 843 842 1470 1394 3679 8718 7034 8375 8719 5727 
10 1525 909 1460 1461 7872 8720 5910 5909 8721 5701 
10 95 316 1043 207 2054 8276 7301 6325 8068 4408 
10 661 535 1228 1229 3088 6808 7410 7411 6809 4962 
10 1471 845 1396 1472 8722 8723 5729 5734 8724 5733 
10 1291 1378 725 1292 5442 7658 7623 5165 5441 8708 
10 842 1469 920 1470 8725 8065 3926 8718 5728 8066 
10 796 1520 1515 1567 8726 6142 7481 8727 6050 5884 
10 1331 661 1229 662 7409 7411 5280 7423 3092 7424 
10 1050 1179 472 1051 4816 7378 8728 4433 4815 7416 
10 743 742 1392 1305 3356 8730 8729 8422 8731 5483 
10 663 1333 664 1230 8732 7631 3098 7403 5287 8465 
10 363 364 1081 509 2198 6564 8733 2627 2628 8596 
10 1122 1123 410 548 4645 8734 6657 7975 6877 2742 
10 1480 1431 1503 876 5759 5830 5831 8670 7505 7439 
10 1122 410 547 548 6657 2738 7458 7975 2742 2743 
10 1124 1123 549 411 4648 6878 7147 7912 6876 2745 
10 941 1594 994 938 7546 7963 4209 4009 6707 4210 
10 468 602 603 1176 2920 2924 2922 7386 6861 7878 
10 825 903 1476 824 3875 6716 8735 3625 3874 8736 
10 1013 1574 1004 1616 8321 6961 4328 8606 6249 8683 
10 316 462 1043 1042 2488 8695 8276 8067 7258 4409 
10 1576 1595 975 954 6195 6838 6839 7246 8567 4281 
10 411 1124 412 549 7912 7911 2340 2745 7147 2744 
10 1266 1123 549 1124 5085 6878 7149 5086 4648 7147 
10 188 187 71 1024 1802 6410 6411 4349 4350 6574 
10 500 354 1072 1073 2602 8007 8082 8083 8737 4499 
10 638 511 1209 512 3026 6903 8738 3027 2819 6701 
10 452 588 589 1161 2880 2884 2882 7125 7552 7348 
10 558 459 1166 686 2803 8613 7084 3177 3178 6832 
10 712 1373 1280 1372 6733 5428 6734 7358 5429 5424 
10 1167 357 459 558 8739 2480 8629 7085 2769 2803 
10 585 586 449 1159 2875 2873 2871 7323 7321 6675 
10 1232 665 1231 538 8035 8741 4971 8740 3099 8742 
10 200 309 87 1037 7529 2030 6436 4389 7531 8743 
10 827 905 906 1458 3881 3885 3883 8184 8182 8431 
10 866 1486 932 867 6940 6941 3971 3748 7660 3973 
10 1458 828 1382 1383 8432 8744 5691 5690 8510 5457 
10 1527 1463 1528 912 5914 5918 5919 8679 8347 8348 
10 818 817 896 1492 3604 3853 3854 8538 8016 8745 
10 734 1299 1385 735 8746 5461 8747 3332 8748 8113 
10 1588 1575 973 1528 6122 8030 8688 6119 6072 7345 
10 477 331 1054 1055 2533 7108 7110 7112 7729 4445 
10 462 1169 1043 1042 7256 4785 8695 7258 4786 4409 
10 1056 334 1185 479 7389 8749 4834 7383 2540 6743 
10 829 1459 1384 1383 8700 5693 8076 8750 5694 5460 
10 110 331 1055 219 2099 7729 8751 6349 8752 4444 
10 751 630 1312 631 3378 8754 8753 3379 3008 8755 
10 748 844 845 1396 3681 3685 3683 8756 8757 8723 
10 1309 627 1195 1196 7302 8650 5215 5214 8651 4868 
10 748 1309 1310 628 7303 5219 8018 3370 7304 7789 
10 1085 511 1086 1209 6826 6904 4536 4904 6903 4903 
10 1345 638 1264 1209 7215 7250 5433 5325 8738 5400 
10 1314 715 637 754 6948 3273 8758 7451 3503 3504 
10 506 507 1079 1203 2623 8759 7938 8366 8760 4887 
10 715 795 754 1314 3787 3520 3503 6948 8761 7451 
10 507 1203 677 1206 8760 6922 3138 7889 4897 6924 
10 1375 1357 800 1371 5435 6851 7267 5628 5629 7984 
10 1118 561 1119 406 7754 8763 4633 8762 2778 8642 
10 1586 968 1554 1525 8428 8429 6113 6112 7462 5996 
10 572 1257 692 1259 8764 7338 3197 8027 5051 8765 
10 1255 569 1264 1128 8046 7239 5078 5036 8219 5076 
10 716 638 1264 1345 3276 7250 7240 7214 7215 5433 
10 574 595 787 1284 3191 3484 3485 7353 8093 7355 
10 1345 512 638 1209 6840 3027 7215 5325 6701 8738 
10 1271 579 580 701 8766 2857 7201 8767 3230 3231 
10 287 356 501 1019 2482 2606 2799 8169 8569 8768 
10 67 66 289 184 1674 1969 1970 6404 6403 8652 
10 386 23 46 22 7726 1930 2263 7425 1628 1929 
10 1157 583 1273 582 7676 8405 5108 8540 2866 6695 
10 1172 464 1044 1173 8089 8313 4794 4799 8091 4798 
10 331 110 109 219 2099 1718 2098 8752 6349 6348 
10 22 44 385 1101 1928 2259 6820 4579 8769 6887 
10 454 455 1163 591 2470 7082 6753 2888 2889 6754 
10 539 540 1112 1233 2720 7088 6612 7073 8473 4973 
10 378 264 263 1095 8770 1880 8350 8024 4561 4562 
10 665 664 1231 538 3101 8771 8741 3099 3097 8742 
10 1233 540 667 666 8473 3105 8370 8772 3103 3107 
10 220 110 1055 219 6350 8751 4443 1835 6349 4444 
10 676 1445 756 786 8773 7792 3393 3481 8774 3483 
10 639 1094 1216 502 8775 4924 6874 3029 8776 8777 
10 390 532 1106 1226 2694 8121 8778 8779 8120 4951 
10 276 418 172 1130 7048 2356 6498 4664 8780 8689 
10 618 1189 1302 619 8781 5193 7603 2972 8131 8619 
10 532 533 391 1106 2699 2697 2695 8121 8782 8783 
10 674 564 681 1337 3128 3152 3153 8784 8785 8786 
10 1036 1035 455 1164 4387 7613 6684 4771 4772 6685 
10 893 928 950 1590 3958 4038 4039 8787 8788 8789 
10 290 67 1021 185 1972 8662 8668 8364 6405 4340 
10 191 298 1028 1027 7567 7568 4362 4358 7884 4363 
10 972 971 1527 912 4118 8677 8790 4116 4114 8679 
10 298 297 445 1027 1998 2438 2439 7884 7885 7985 
10 1267 1355 1263 570 5358 5359 5090 8698 6647 6649 
10 441 442 1025 1153 2431 6634 8791 7903 7902 4738 
10 1272 580 581 702 7202 2860 8494 8792 3233 3234 
10 453 454 1163 590 2467 6753 8793 2885 2886 6752 
10 201 310 1038 1037 8794 8795 4392 4388 8796 4393 
10 1166 457 593 1165 6834 2895 6829 4779 6767 6769 
10 591 1281 592 1164 7799 6786 2893 6992 5133 6787 
10 1194 491 1066 1195 7742 8485 4860 4865 7744 4864 
10 1595 974 975 1000 8377 4127 6838 8797 4231 4230 
10 1111 396 31 397 8702 6739 4610 6774 2297 6740 
10 56 397 57 31 2295 2296 1663 1961 6740 1947 
10 895 817 1492 896 3852 8016 8017 3855 3853 8745 
10 101 100 322 212 1709 2071 2072 6391 6334 8717 
10 830 831 734 1385 3643 3641 3639 8798 8112 8747 
10 518 1321 643 644 6891 7457 3039 3041 8221 3043 
10 649 759 1323 519 3477 8239 8799 3204 3400 8238 
10 1463 913 834 1464 8346 3904 7397 5710 8108 7398 
10 522 380 502 1097 2664 2610 2666 8524 6711 8800 
10 1059 336 482 1187 8644 2548 8195 4839 8647 7116 
10 1189 485 1190 619 7643 6907 4850 8131 2971 8801 
10 1188 484 1189 618 8665 8059 4847 8802 2968 8781 
10 1422 820 723 724 7723 3608 8803 7664 3609 3299 
10 737 616 1301 617 3336 6593 6595 3337 2966 8804 
10 639 649 1216 1215 3166 6873 6874 8805 8806 4925 
10 381 522 1098 1097 2665 7496 7368 6712 8524 4572 
10 1144 1236 1116 404 4982 4983 4707 6856 6623 6858 
10 849 697 1439 873 3722 7186 8637 3819 3768 8308 
10 1289 1376 723 1290 5437 8807 7572 5159 5436 7573 
10 55 396 1110 395 2292 8703 8808 2290 2294 6885 
10 49 26 390 50 1936 8809 2274 1656 1937 2275 
10 1354 574 575 784 7352 2842 7526 8810 3474 3475 
10 1291 605 1292 725 7621 8324 5165 7623 3301 8708 
10 1422 1291 725 724 5572 7623 7657 7664 8811 3302 
10 819 1376 723 722 7715 8807 3606 3605 8812 3296 
10 542 1115 402 401 6955 8813 2727 2725 6956 2312 
10 927 948 1543 884 4032 7668 8579 3953 4031 8705 
10 36 35 61 402 1641 1955 1956 8814 7153 2310 
10 1221 1222 1324 653 4941 5258 5259 6666 6928 6667 
10 1408 770 1328 1409 7785 8815 5531 5536 8222 5535 
10 386 23 22 1102 7726 1628 7425 7727 4582 4583 
10 857 1494 1452 852 7741 5895 7522 3718 7913 7778 
10 1290 603 604 724 7641 2927 7640 8617 3297 3298 
10 385 22 1102 386 6820 4583 6886 2264 7425 7727 
10 1298 613 1185 614 7098 6745 5181 8816 2957 6911 
10 640 1170 1171 1287 7856 4793 7857 8817 5149 5150 
10 1026 443 296 444 6642 2433 7665 8818 2437 2435 
10 1232 1334 665 1335 5289 8819 8035 5293 5294 8037 
10 462 463 1043 1172 2493 8821 8695 8820 8822 4795 
10 1025 189 295 72 4352 6778 6779 8414 6413 1987 
10 1034 198 1035 306 4379 4383 4384 6986 6987 7611 
10 1268 1244 545 1254 5097 8823 8676 5587 5034 8675 
10 781 561 1239 1238 3464 8824 7730 6968 7753 4991 
10 1551 952 1598 1564 8825 8826 6153 6037 7557 6154 
10 1138 179 284 285 8545 6513 4685 4684 6512 1905 
10 1256 555 1217 1348 7264 6568 5068 5335 8827 5334 
10 346 491 492 1066 2576 2580 2578 8483 8485 8828 
10 309 308 1036 86 2031 7599 7530 2029 2027 6782 
10 1536 845 922 1471 8829 3935 7654 5942 8722 7619 
10 613 1298 734 614 7098 7097 3327 2957 8816 3328 
10 181 286 427 428 6496 7585 2380 2381 7260 2383 
10 83 198 306 84 6431 6987 2020 1691 6446 2021 
10 315 1170 1042 1041 8830 4787 7361 7699 4788 4406 
10 789 1480 786 876 8831 8832 3492 3777 8670 3776 
10 1013 1001 986 1605 4324 4236 4300 8605 8833 8834 
10 1057 1058 1186 335 4454 4836 4837 8835 6912 6913 
10 363 508 1081 1080 2625 8646 8733 8836 8645 4522 
10 1195 1067 492 1066 4863 6714 8837 4864 4481 8828 
10 168 169 414 273 1780 2344 2345 3539 3538 8343 
10 144 363 364 1081 2194 2198 2196 6562 8733 6564 
10 455 456 1164 592 2473 6687 6685 2891 2892 6787 
10 892 1368 808 1493 7560 6689 3838 7846 5797 7493 
10 316 315 461 1042 2055 2485 2486 8067 7361 7259 
10 1277 1278 709 588 5125 7341 8386 7550 7340 3255 
10 841 744 1393 745 3671 8839 8838 3672 3362 6943 
10 1360 689 1262 1432 8840 8841 5378 5608 8842 5607 
10 217 107 108 329 6344 1716 6345 7364 2092 2093 
10 1443 816 719 720 8843 3596 7431 7433 3597 3287 
10 743 623 1305 1306 3355 8424 8422 8844 8845 5207 
10 1552 1453 896 1492 5987 7854 8846 5988 5796 8745 
10 1376 1422 820 723 5574 7723 7716 8807 8803 3608 
10 1282 1202 1316 635 5389 5235 5399 8847 8848 7306 
10 617 616 1187 482 2966 7219 7115 2964 2962 7116 
10 572 1145 1259 687 8026 5049 8027 3174 8418 8294 
10 1339 1240 547 1241 5306 7653 7402 5307 4997 7350 
10 1078 1204 1077 359 4889 4890 4514 6631 8849 6633 
10 1299 1386 735 1300 5465 7702 8748 5189 5464 7703 
10 628 1310 629 1197 7789 7790 3002 8850 5217 8851 
10 115 224 337 116 6358 7380 2116 1724 6394 2117 
10 480 335 1186 481 2543 6913 8852 2547 2545 6915 
10 891 804 939 1499 3836 3999 4000 8853 6996 7483 
10 627 1309 628 1196 7302 7304 2999 8651 5214 8854 
10 345 1194 1066 1065 8855 4860 8484 8856 4861 4478 
10 1195 1194 626 1308 4865 7743 7745 5211 5212 8591 
10 374 154 1090 259 2226 8857 7104 6601 6298 4546 
10 232 1068 127 233 4483 8858 6373 1848 4482 6374 
10 1094 377 263 1095 6870 8268 4558 4563 8023 4562 
10 932 1486 933 867 6941 7659 3978 3973 7660 3976 
10 127 233 349 128 6374 6989 2152 1736 6388 2153 
10 1078 1204 359 505 4889 8849 6631 8859 8383 2616 
10 1078 360 1141 505 8390 7843 5059 8859 2617 7845 
10 244 139 359 1077 6275 2181 6632 4509 8860 6633 
10 1333 1413 776 1414 5546 7646 7627 5550 5551 7629 
10 563 1245 646 556 8861 8862 3046 2786 8863 3047 
10 1421 817 720 721 7099 3599 7563 7100 3600 3290 
10 1336 1233 667 666 5296 8370 7879 7915 8772 3107 
10 1347 782 646 681 8041 3467 8042 8433 3468 3190 
10 1016 1606 1609 993 8864 6209 7236 4306 8573 7998 
10 961 1555 962 901 7826 8865 4085 4081 7828 4083 
10 674 1337 681 757 8784 8786 3153 3395 8628 3394 
10 564 1237 681 1337 8866 8435 3152 8785 5299 8786 
10 1155 1271 1154 580 5102 5103 4746 7071 7201 8867 
10 674 645 1352 790 3130 8868 8655 3493 3494 8869 
10 1419 694 680 791 7296 3212 7313 7762 3497 3498 
10 1272 1273 1417 703 5110 5558 5559 7059 6694 7571 
10 658 771 659 1329 3433 3434 3083 7168 7159 6815 
10 345 124 230 1066 2141 6369 8870 8484 8871 4477 
10 1225 1327 657 1328 5268 8873 8872 5272 5273 8874 
10 772 660 1330 773 3437 8875 6814 3441 3439 8876 
10 1060 1059 337 483 4460 8193 8002 8003 8194 2551 
10 1354 575 1270 697 7526 8499 5353 8303 3219 7185 
10 575 1354 784 697 7526 8810 3475 3219 8303 3476 
10 1124 166 272 271 7910 3933 4647 4646 3962 1890 
10 1067 346 492 1066 6713 2578 6714 4481 8483 8828 
10 1543 948 1495 884 7668 8263 5964 8705 4031 8264 
10 357 1167 459 1076 8739 8629 2480 8237 5045 8877 
10 1463 833 834 912 8071 3652 7397 8347 3901 3902 
10 729 609 1295 730 3313 7739 8328 3317 3315 8503 
10 972 1588 1528 1527 7833 6119 8687 8790 6120 5919 
10 913 1464 835 834 8108 6879 3905 3904 7398 3655 
10 1387 737 1301 1388 7817 6595 5467 5472 8878 5471 
10 1170 596 1346 670 8879 7516 5328 8880 3116 8881 
10 1312 631 1313 752 8755 8411 5228 8882 3381 7434 
10 1196 1068 1197 494 4866 4870 4871 8883 8884 8625 
10 1167 1202 459 1076 5044 8622 8629 5045 4886 8877 
10 557 1138 1251 554 8280 5020 8148 2767 8885 8886 
10 557 1138 554 426 8280 8885 2767 2766 8544 2759 
10 683 554 679 1250 3157 3144 3159 8141 8887 8888 
10 17 39 40 380 1918 1646 1919 6843 2244 2245 
10 1364 683 679 1250 8889 3159 8283 5403 8141 8888 
10 1255 569 1128 416 8046 8219 5036 7802 2812 8890 
10 1203 690 754 677 7448 3389 7449 6922 3544 3506 
10 842 920 921 1470 3926 3930 3928 8718 8066 7035 
10 1203 690 677 1268 7448 3544 6922 5139 8891 6923 
10 287 239 356 1019 8365 8109 2482 8169 4692 8569 
10 1314 1258 754 690 5579 8892 7451 7450 7288 3389 
10 1375 795 791 894 7265 3522 8893 7266 3986 3987 
10 133 355 238 1073 2170 8078 6382 8894 8079 4497 
10 190 1026 296 1027 4355 7665 8648 4359 4360 8895 
10 1498 695 1428 1374 7672 8896 5814 5813 7931 5595 
10 289 1149 437 1021 8661 8897 2414 8653 4727 8697 
10 213 103 214 1049 6337 6338 1829 4426 8044 4425 
10 1598 952 1551 951 8826 8825 6153 8898 4050 7917 
10 287 135 182 64 2384 8899 8168 1964 1963 6400 
10 853 1541 1517 1594 7796 5958 7797 7545 6203 6204 
10 683 1364 1341 1250 8889 5402 7337 8141 5403 5314 
10 287 182 183 64 8168 1797 6781 1964 6400 6401 
10 1268 1258 1314 690 5096 5579 5356 8891 7288 7450 
10 299 1028 446 1029 8555 7068 2442 8556 4366 8900 
10 845 1536 923 1472 8829 7734 3937 8724 5941 8901 
10 1204 1202 1077 504 4891 4885 4890 8902 8903 8904 
10 845 1472 923 846 8724 8901 3937 3688 6683 3938 
10 1288 466 600 1174 8437 2914 7678 5153 7720 8480 
10 985 1569 953 1562 8559 8467 4172 7848 6148 7701 
10 1376 1290 1422 723 5436 5573 5574 8807 7573 8803 
10 871 815 1446 1490 3947 8482 8905 8906 8489 5811 
10 1552 957 1548 956 8907 8709 6100 8908 4070 8710 
10 170 275 10 1127 4193 5516 1782 8381 4656 7326 
10 737 738 1301 1388 3341 6867 6595 8878 6865 5471 
10 444 1155 581 445 7069 7070 2858 2440 8909 2859 
10 1115 543 1040 1171 8910 8663 4726 4792 8911 4791 
10 1309 627 626 1195 7302 2996 8590 5215 8650 7745 
10 927 981 1600 1543 4153 8608 8615 8579 8578 6161 
10 255 370 1087 1086 7140 7141 4538 4534 7189 4539 
10 642 1212 516 1319 8912 8913 3035 8126 5244 7711 
10 330 475 1053 329 2528 7736 6919 2097 2527 6921 
10 1271 1272 702 580 5107 8792 8914 7201 7202 3233 
10 772 771 864 1410 3438 3737 3738 8712 8915 8523 
10 1279 590 712 711 7080 3263 7357 7356 3261 3265 
10 869 776 868 1414 3752 3750 3754 8447 7629 8456 
10 1332 1333 775 663 5288 7644 7964 8117 8732 3446 
10 870 871 778 1415 3760 3758 3756 8532 8916 8917 
10 115 1059 336 337 8918 8644 2114 2116 8193 2118 
10 473 1180 1052 1051 7308 4818 8084 8288 4819 4436 
10 1279 1280 712 590 5131 6734 7357 7080 8309 3263 
10 488 343 1064 489 2567 8174 8919 2571 2569 8920 
10 475 474 1053 329 2529 8095 7736 2527 2525 6921 
10 514 371 1088 372 2641 6607 7285 2642 2222 6823 
10 1089 1210 1088 372 4906 4907 4545 7971 7319 6823 
10 486 1190 1191 1062 7131 4853 7132 8921 4848 4852 
10 605 1178 470 604 8323 6725 2928 2930 8922 2926 
10 256 257 1088 152 1873 4540 4541 6309 6310 6822 
10 682 566 1362 676 3155 8574 8575 3156 3135 7588 
10 355 134 238 356 2171 6383 8078 2175 2173 8080 
10 1525 969 910 1526 7464 4108 8336 5913 8923 8338 
10 1530 1531 916 1466 5928 6576 6578 5923 5927 8537 
10 1178 605 1291 604 8323 7621 5160 8922 2930 7622 
10 1345 512 1209 1208 6840 6701 5325 5324 6700 4905 
10 512 370 1086 1208 2637 7189 6699 6700 7162 4902 
10 414 1126 274 415 6981 4653 8100 2349 8352 8101 
10 839 840 743 1392 3670 3668 3666 7751 8924 8729 
10 734 1298 1384 1385 7097 5458 8925 8747 5462 5463 
10 953 946 855 1514 4053 4041 4052 8466 8149 8150 
10 758 1400 685 783 7808 7806 3396 3472 8926 3471 
10 904 826 1476 1457 3878 8928 6718 8927 8505 5748 
10 1609 1015 1612 1016 8620 8621 6220 7236 4304 6587 
10 830 908 909 1460 3890 3894 3892 8929 8930 8720 
10 1472 924 923 846 7102 3942 8901 6683 3940 3938 
10 530 1225 1327 657 8363 5268 8362 3075 8872 8873 
10 156 375 1092 260 2230 8931 8145 6286 7852 4553 
10 1584 957 958 1005 7025 4073 7977 7027 4251 4252 
10 935 869 1489 870 3982 8446 8932 3983 3757 8444 
10 1587 1584 1005 1547 6180 7027 7830 6115 6105 8933 
10 792 597 1286 718 3501 6720 8934 3502 3280 8486 
10 1227 1329 659 1330 5274 6815 7165 5278 5279 6816 
10 1356 794 689 646 6933 3517 8935 8936 3518 3182 
10 893 854 1515 1522 4059 7055 8937 8047 7053 5903 
10 612 478 1184 613 2950 7384 8103 2954 2952 6744 
10 1367 1366 807 1449 5411 8938 7490 5670 5671 7757 
10 375 1091 1092 260 7536 4554 8931 7852 4549 4553 
10 624 744 1307 1306 3358 6972 6973 6985 8939 5210 
10 980 1563 928 890 8940 8502 4148 4147 8501 4067 
10 803 700 802 1438 3557 3555 3559 8360 8333 8361 
10 1536 1537 923 1472 5946 7735 7734 5941 5945 8901 
10 745 624 1307 625 3360 6973 6945 3361 2990 6977 
10 523 1216 1219 1098 8252 5257 7367 7497 5071 4931 
10 269 409 164 163 7008 2329 4004 4005 2330 1775 
10 1122 1123 270 410 4645 4643 4641 6657 8734 6557 
10 673 1168 1205 1339 8941 4894 7086 7401 5376 5377 
10 1123 165 270 410 7553 3974 4643 8734 2332 6557 
10 922 845 1536 923 3935 8829 7654 3939 3937 7734 
10 523 649 1219 1216 3053 7365 7367 8252 6873 5257 
10 1386 831 735 832 8111 3642 7702 7728 3646 3644 
10 1530 915 916 975 6925 3915 6578 6579 4125 4126 
10 979 1534 1579 1535 7251 6081 8450 7891 5940 6080 
10 874 1541 756 853 8599 7798 3771 3773 7796 3707 
10 227 341 120 1063 8942 2129 6363 4468 8213 8943 
10 649 1323 1219 1216 8799 5261 7365 6873 5254 5257 
10 1541 876 1503 874 8669 7439 5959 8599 3778 8600 
10 821 1378 1504 822 8944 5833 6730 3616 8945 6729 
10 176 1134 281 280 7019 4674 6505 6506 4675 1901 
10 281 423 1134 176 7021 7020 4674 6505 2368 7019 
10 510 365 1082 1083 2631 6548 7039 8340 6881 4528 
10 717 1430 1401 878 7417 5602 7894 3782 7419 7896 
10 441 440 1024 293 2428 8947 8946 2426 2424 7011 
10 440 1023 1024 293 8948 4351 8947 2424 7009 7011 
10 1541 786 874 756 8949 3772 8599 7798 3483 3771 
10 1575 1568 1605 986 6135 6184 6185 7272 8412 8834 
10 1533 1468 1469 919 5933 5725 5932 8013 7637 7639 
10 1454 1375 791 894 5812 8893 7774 7772 7266 3987 
10 1541 786 756 1445 8949 3483 7798 5957 8774 7792 
10 1608 1003 981 1600 8601 4244 8604 6210 7213 8608 
10 1023 440 292 293 8948 2423 7606 7009 2424 1983 
10 1541 786 1445 1480 8949 8774 5957 5956 8832 5758 
10 1279 589 1162 590 7359 7347 5127 7080 2887 7081 
10 1604 1008 960 1593 8950 4264 8951 6188 8952 8953 
10 1485 865 932 931 8954 3970 8199 8200 3968 3972 
10 652 651 764 1340 3062 3413 3414 6535 7174 8253 
10 1597 1002 1613 1615 7191 7426 6236 6244 7190 6243 
10 609 475 1182 610 2941 7392 7740 2945 2943 7738 
10 905 1457 1524 1458 8181 5907 8594 8182 5692 5906 
10 650 523 1219 524 3054 7367 7366 3055 2672 8690 
10 1490 871 1415 1416 8906 8916 5788 5787 7861 5557 
10 1537 924 923 1472 7103 3942 7735 5945 7102 8901 
10 781 673 1283 1339 3465 7087 6969 7731 7401 5390 
10 1041 1171 503 460 4790 8633 8955 8956 7859 2613 
10 1170 596 670 461 8879 3116 8880 8957 2902 3115 
10 1156 1155 581 1272 4749 7070 8551 5105 5106 8494 
10 298 299 76 1028 2001 1999 1997 7568 8555 7569 
10 104 1050 326 215 8032 8038 2083 6340 4428 8039 
10 1334 1335 1415 778 5294 5552 5553 8958 8959 8917 
10 1335 1334 665 778 5294 8819 8037 8959 8958 3454 
10 117 225 339 118 6360 8122 2122 1726 6361 2123 
10 1602 1589 966 998 6177 8546 8547 6588 8960 4226 
10 561 407 1119 406 2777 8641 8763 2778 2325 8642 
10 418 276 172 171 7048 6498 2356 2355 6494 1785 
10 789 1480 876 1431 8831 8670 3777 8277 5759 7505 
10 224 1059 337 1060 4455 8193 7380 4459 4460 8002 
10 1588 1575 1605 986 6122 6185 6186 7835 7272 8834 
10 1258 754 690 568 8892 3389 7288 7289 3387 3189 
10 1188 1059 1060 483 4843 4460 4842 8064 8194 8003 
10 1134 176 422 280 7019 2366 6624 4675 6506 6626 
10 1071 353 236 1072 7074 7075 4491 4496 8230 4495 
10 1049 1178 325 1050 4813 6724 6726 4430 4812 8034 
10 1554 968 908 1525 8429 4104 8961 5996 7462 7966 
10 1057 113 335 334 8962 2110 8835 8963 2108 2112 
10 344 489 1065 1064 2570 8965 8964 8175 8920 4475 
10 1390 740 1303 1304 7517 8966 5477 5476 8331 5201 
10 739 619 1302 1303 3343 8619 7604 8967 8968 5198 
10 1333 1332 1230 663 5288 5283 5287 8732 8117 7403 
10 221 112 113 334 6352 1721 6353 8969 2107 2108 
10 231 125 347 346 6372 2146 8970 8971 2144 2148 
10 1056 220 221 112 4447 1836 4446 7388 6351 6352 
10 211 100 1047 321 6333 7155 4420 8374 2069 7154 
10 1046 211 1047 321 4416 4420 4421 7050 8374 7154 
10 816 1507 1421 1443 7577 5844 8972 8843 5845 5644 
10 719 1443 599 1349 7431 7432 3283 7566 5646 6818 
10 1067 231 347 346 4480 8970 6715 6713 8971 2148 
10 1332 662 1229 1230 7422 7424 5284 5283 8269 4965 
10 1334 664 1231 665 8973 8771 5290 8819 3101 8741 
10 895 1552 896 1492 8974 8846 3855 8017 5988 8745 
10 1078 359 360 505 6631 2186 8390 8859 2616 2617 
10 1050 326 472 471 8038 2518 8728 8631 2516 2520 
10 1281 1280 713 1373 5134 6736 6758 5427 5428 6735 
10 811 894 879 1450 3847 3848 3830 8206 8396 7840 
10 481 480 615 1186 2547 2958 2959 6915 8852 7212 
10 712 799 1372 812 3588 7981 7358 3587 3788 7184 
10 246 245 360 1141 1862 8389 6946 4696 4697 7843 
10 129 1070 350 351 8975 8976 2156 2158 8977 2160 
10 486 1190 1062 340 7131 4848 8921 2560 6908 8345 
10 711 712 1372 812 3265 7358 7183 3586 3587 7184 
10 1178 605 470 471 8323 2928 6725 8630 2929 2517 
10 407 408 1120 162 2328 8979 8978 2323 2327 8980 
10 268 408 1120 1121 8208 8979 4635 4637 8209 4639 
10 673 508 1205 509 3176 7065 7086 3185 2629 8981 
10 432 366 1142 367 2632 8452 6702 2633 2207 6756 
10 1014 1608 994 1611 7169 8982 4311 7171 6214 7280 
10 511 368 1085 369 2634 6824 6826 2635 2213 8460 
10 759 649 1323 650 3477 8799 8239 3534 3056 8254 
10 1371 711 812 879 7181 3586 7182 7842 3790 3791 
10 486 485 1190 340 2562 6907 7131 2560 2558 6908 
10 38 17 1096 39 1917 4565 8054 1645 1918 8983 
10 235 129 130 351 6376 1738 6396 8984 2158 2159 
10 408 1240 1120 1121 8529 4992 8979 8209 4993 4639 
10 375 376 1092 1214 2234 8986 8931 8985 8105 4918 
10 1379 1378 822 1456 5445 8945 8987 5685 5686 7056 
10 541 1233 1234 1113 8638 4977 8988 8989 4972 4976 
10 726 1378 822 1379 8706 8945 3615 7548 5445 8987 
10 1045 465 1174 1173 6598 6600 4801 4797 8990 4802 
10 771 1409 1410 1329 7157 5539 8915 7159 5534 5538 
10 463 464 1172 598 2496 8089 8822 2907 2908 6836 
10 419 564 1131 1237 2787 8992 8991 8215 8866 4985 
10 988 929 1569 1538 4254 7909 8560 8562 7780 6090 
10 390 26 1105 1106 8809 4591 7283 8778 4595 4596 
10 1578 979 955 978 8518 4146 8511 8536 4142 4218 
10 1379 727 824 823 7547 3620 8011 7031 3618 3622 
10 390 531 1226 1105 2692 7217 8779 7283 7218 4952 
10 528 386 1102 387 2682 7727 8278 2683 2267 7495 
10 1424 716 813 1359 7509 3590 8993 5612 7238 6571 
10 1115 36 1040 403 4621 4708 4726 8994 7541 7542 
10 1048 323 469 468 8995 2509 8996 7385 2507 2511 
10 279 421 1132 174 6821 8570 4668 6501 2363 8572 
10 777 870 778 1415 3755 3756 3456 8533 8532 8917 
10 851 792 780 1427 3700 3786 3762 8997 8998 7897 
10 735 1300 736 615 7703 6604 3335 3331 7544 3333 
10 737 738 1388 834 3341 6865 8878 3650 3651 7399 
10 279 278 174 1132 1899 6502 6501 4668 4669 8572 
10 1265 550 413 412 8999 2747 7907 7906 2748 2343 
10 1265 551 1125 413 7480 7474 5081 7907 2751 6967 
10 1265 550 551 413 8999 2752 7480 7907 2747 2751 
10 412 1125 1265 1124 7905 5081 7906 7911 4651 5084 
10 412 1125 272 1618 7905 4649 9000 9001 6965 8458 
10 737 1387 833 834 7817 7713 3648 3650 8070 3652 
10 554 1250 1251 679 8887 5023 8886 3144 8888 8147 
10 55 396 56 31 2292 2293 1662 1946 6739 1961 
10 179 180 285 426 1793 6515 6512 2376 2377 8632 
10 1387 737 1388 834 7817 8878 5472 8070 3650 7399 
10 235 1070 129 351 4488 8975 6376 8984 8977 2158 
10 1245 563 646 1356 8861 3046 8862 5361 9002 8936 
10 424 1248 425 1136 7836 7838 2375 9003 5014 8244 
10 352 235 130 351 7815 6396 2161 2163 8984 2159 
10 275 11 10 1127 1894 1912 5516 4656 4658 7326 
10 557 1138 426 1137 8280 8544 2766 7291 4686 7290 
10 569 1128 416 435 8219 8890 2812 2811 7327 2402 
10 303 81 195 1032 2012 6426 8006 7992 7991 4374 
10 1127 170 415 10 8381 2347 7484 7326 1782 2350 
10 201 311 202 1038 9004 9005 1816 4392 7200 4391 
10 584 1157 1274 1158 9006 5112 6783 9007 4755 5111 
10 190 297 191 1027 9008 7886 1805 4359 7885 4358 
10 1470 1535 921 1471 5939 7892 7035 5731 5938 7618 
10 301 300 1030 193 2007 6671 6672 8167 6609 4368 
10 310 88 87 201 2033 1695 2032 8794 6438 6437 
10 286 180 427 1139 6514 2379 7585 4687 8190 8191 
10 946 860 856 1482 4026 3950 4042 8512 8261 8153 
10 760 1441 856 761 7455 8152 3713 3406 7445 3714 
10 89 90 1039 312 1697 8029 9009 2038 2039 6795 
10 1430 1441 1514 855 5639 5868 5869 7418 8165 8150 
10 300 299 447 1029 2004 2444 2445 6608 8556 9010 
10 584 583 1157 447 2869 7676 9006 2867 2865 7677 
10 446 1157 447 1029 7067 7677 2446 8900 4750 9010 
10 1040 1171 503 1041 4791 8633 8664 4403 4790 8955 
10 210 1045 98 320 4413 9011 6330 6651 6597 2065 
10 1167 1039 1074 558 4780 5054 5056 7085 6797 6798 
10 1038 1167 558 1039 4781 7085 7083 4396 4780 6797 
10 1166 1038 558 458 4777 7083 7084 6833 8627 3274 
10 216 106 107 328 6392 1715 6343 9012 2089 2090 
10 1058 223 1059 336 4452 4456 4457 6747 6741 8644 
10 1441 1430 760 855 5639 7714 7455 8165 7418 3712 
10 686 1166 558 458 6832 7084 3177 3168 6833 3274 
10 1291 1290 604 724 5162 7640 7622 8811 8617 3298 
10 1047 322 468 467 7156 2506 7893 9013 2504 2508 
10 322 1047 468 1048 7156 7893 2506 9014 4424 7385 
10 1358 1201 634 633 5365 6862 6863 7608 7607 3018 
10 467 602 1176 1175 2919 6861 9015 7090 7092 4808 
10 983 1001 1592 944 4235 9016 8439 4184 4234 8392 
10 1310 1397 629 1311 5498 7647 7790 5222 5497 7648 
10 946 1569 1539 1514 7908 6056 7824 8149 6054 6020 
10 1056 479 1185 1184 7383 6743 4834 4830 6742 4835 
10 1084 366 252 1142 6677 6678 4529 4701 8452 4700 
10 334 1057 480 335 8963 9017 2542 2112 8835 2543 
10 252 1142 148 253 4700 6755 6282 1869 4699 6283 
10 347 1067 493 348 6715 6520 2581 2151 6521 2582 
10 345 490 491 1194 2573 2577 2575 8855 9018 7742 
10 1486 1411 866 865 5776 7017 6940 6939 9019 3745 
10 1290 602 603 723 6860 2924 7641 7573 3294 3295 
10 595 500 1150 501 2901 7146 7144 2899 2607 8292 
10 1159 1031 450 449 4756 8248 8246 6675 6676 2455 
10 1411 1486 866 1412 5776 6940 7017 5545 5775 7018 
10 860 859 1407 767 3727 7242 9020 3725 3724 6581 
10 695 693 1451 888 3537 7928 7930 3828 3826 8260 
10 1268 520 1258 690 8530 7287 5096 8891 3188 7288 
10 1079 246 142 361 4516 6314 8387 7939 6947 2188 
10 143 247 142 362 6302 6307 1752 2191 9021 2190 
10 1359 569 1145 1264 7237 8220 5369 5371 7239 5077 
10 352 1070 235 351 9022 4488 7815 2163 8977 8984 
10 572 1145 687 435 8026 8418 3174 2830 7334 3172 
10 1140 286 9 428 4691 1907 4690 7587 7260 7261 
10 1542 1519 888 949 6005 9023 8259 8137 8178 4034 
10 368 149 1085 369 2209 8454 6824 2213 2211 8460 
10 1122 548 1241 1242 7975 7351 4996 4998 7976 5000 
10 1271 1269 1154 579 5104 5098 5103 8766 9024 9025 
10 511 369 1086 512 2635 8461 6904 2819 2636 6699 
10 1432 693 1451 1360 7995 7928 5676 5608 8685 5674 
10 1617 1137 283 1136 8660 4683 8226 9026 4721 4679 
10 19 382 1099 1098 7498 8693 4574 4570 7376 4575 
10 80 81 195 303 1688 6426 6425 2011 2012 8006 
10 693 573 1374 1360 3203 8542 7929 8685 8543 5432 
10 522 639 1216 502 3127 6874 6875 2666 3029 8777 
10 1149 574 595 437 7993 3191 8092 8897 2838 3121 
10 1180 608 1181 1294 9027 9028 4823 5170 8495 5169 
10 1499 881 891 1516 6559 4151 8853 5875 6889 7124 
10 70 187 292 293 6409 6957 1979 1981 7010 1983 
10 200 309 86 87 7529 2029 6435 6436 2030 1694 
10 443 1155 1154 580 8161 4746 6637 2855 7071 8867 
10 1268 671 647 545 8487 3120 8440 8676 3118 3049 
10 1079 507 362 1080 8759 2622 8388 4519 9029 9030 
10 1190 619 620 1303 8801 2975 7601 5196 8968 7602 
10 1326 656 1405 768 7226 7227 5524 9031 3425 6937 
10 1271 579 1154 580 8766 9025 5103 7201 2857 8867 
10 1059 223 115 336 4456 6357 8918 8644 6741 2114 
10 247 1079 142 362 4515 8387 6307 9021 8388 2190 
10 1506 924 925 943 7955 3945 7956 9032 4060 4015 
10 1298 1299 734 614 5186 8746 7097 8816 7209 3328 
10 531 657 658 1328 3076 3080 3078 8588 8874 8589 
10 1069 233 234 128 4486 1849 4485 6765 6388 6389 
10 1422 820 821 1504 7723 3613 7663 5834 6731 6730 
10 287 239 1019 182 8365 4692 8169 8168 4334 4336 
10 1555 902 962 901 8164 4084 8865 7828 3873 4083 
10 1202 1282 459 635 5389 8614 8622 8848 8847 3019 
10 520 1244 405 545 8531 7106 2660 2735 8823 2734 
10 1254 1244 405 1117 5034 7106 9033 5031 5004 6763 
10 507 1079 362 361 8759 8388 2622 2621 7939 2192 
10 245 140 141 360 6277 1750 6300 8389 2184 2185 
10 545 1244 1268 520 8823 5097 8676 2735 8531 8530 
10 1013 1605 1588 1573 8605 6186 9034 8320 6234 6121 
10 473 1051 327 472 8288 8212 2521 2523 7416 2519 
10 970 1573 1527 1526 8322 6066 9035 8682 6067 5916 
10 1237 1347 681 1337 5331 8433 8435 5299 5333 8786 
10 456 1036 1164 1165 6686 4771 6687 6768 4775 4776 
10 456 592 593 1165 2892 2896 2894 6768 6788 6769 
10 1080 1079 247 362 4519 4515 4518 9030 8388 9021 
10 272 1125 412 1124 4649 7905 9000 4647 4651 7911 
10 1047 321 467 1175 7154 2503 9013 4803 9036 7090 
10 1535 1534 1470 921 5940 5935 5939 7892 7890 7035 
10 1126 1125 414 273 4654 6964 6981 4652 4650 8343 
10 1137 426 425 179 7290 2378 7292 8273 2376 2374 
10 924 980 1537 923 4156 7733 7103 3942 4181 7735 
10 564 1247 1131 1237 8185 5011 8992 8866 5074 4985 
10 1269 578 1153 579 7537 7904 5099 9024 2854 9037 
10 73 190 296 74 6415 8648 1990 1681 6444 1991 
10 577 441 1153 578 2847 7903 9038 2851 2849 7904 
10 1237 564 681 556 8866 3152 8435 8217 2789 3151 
10 1356 1432 1262 689 5606 5607 5362 8935 8842 8841 
10 584 585 1275 706 2872 7322 9039 3245 3246 9040 
10 595 501 1150 436 2899 8292 7144 2900 2801 6668 
10 844 1471 845 1396 7617 8722 3685 8757 5729 8723 
10 443 442 579 1154 2434 2852 2853 6637 6636 9025 
10 1471 844 845 922 7617 3685 8722 7619 3934 3935 
10 299 298 446 1028 2001 2441 2442 8555 7568 7068 
10 298 445 446 1028 2439 2443 2441 7568 7986 7068 
10 445 1156 446 1028 7012 7013 2443 7986 4747 7068 
10 190 297 75 191 9008 1994 6416 1805 7886 6417 
10 297 444 445 1027 2436 2440 2438 7885 9041 7985 
10 1046 321 1047 1175 7050 7154 4421 4804 9036 4803 
10 310 88 201 311 2033 6438 8794 2037 2035 9004 
10 589 1278 1162 1161 8367 5123 7347 7348 5124 4767 
10 451 452 1161 588 2461 7125 7126 2879 2880 7552 
10 1346 792 1427 780 9042 8998 5592 9043 3786 7897 
10 1290 1422 723 724 5573 8803 7573 8617 7664 3299 
10 1278 1277 1161 588 5125 5120 5124 7340 7550 7552 
10 1589 1524 965 1561 6124 8618 8408 6141 6026 8409 
10 476 1182 1183 1054 7394 4829 7254 7109 4824 4828 
10 220 111 333 332 6393 2104 6692 8087 2102 2106 
10 475 476 1182 610 2532 7394 7392 2943 2944 7738 
10 321 466 467 1175 2501 2505 2503 9036 7719 7090 
10 1278 588 589 710 7340 2884 8367 7342 3257 3258 
10 96 317 318 208 2057 2061 2059 6390 7725 9044 
10 1545 990 932 1546 7460 4194 8197 5972 7461 9045 
10 1486 1545 932 1546 5967 8197 6941 5971 5972 9045 
10 321 1046 466 1175 7050 7718 2501 9036 4804 7719 
10 1071 235 236 131 4492 1851 4491 7076 6377 6378 
10 465 1315 1174 1173 9046 5231 6600 8990 5232 4802 
10 719 1443 1349 1447 7431 5646 7566 8427 5663 5660 
10 1546 1486 933 932 5971 7659 9047 9045 6941 3978 
10 781 673 1339 546 3465 7401 7731 3466 3125 9048 
10 217 1053 108 218 4438 6920 6345 1833 4437 6346 
10 433 1147 10 416 6737 7248 2397 2396 9049 2352 
10 336 481 482 1187 2546 2550 2548 8647 8130 7116 
10 4 90 240 5 1698 7443 6265 1908 6398 1856 
10 827 826 1382 730 3631 8506 9050 3629 3627 9051 
10 1059 1188 1187 482 4843 4844 4839 8195 7114 7116 
10 652 1221 525 1340 6665 8419 3060 6535 5309 8421 
10 1094 1095 1216 502 4563 4923 4924 8776 8025 8777 
10 28 52 53 393 1940 1659 1941 7511 2283 2284 
10 375 1092 1213 1214 8931 4914 7374 8985 4918 4919 
10 1299 1298 734 1385 5186 7097 8746 5461 5462 8747 
10 1191 1192 1305 622 4856 5202 5203 9052 9053 8423 
10 532 390 1106 391 2694 8778 8121 2695 2279 8783 
10 1194 490 625 624 9018 2988 6983 6982 2986 2990 
10 943 980 1581 1537 4150 6792 6793 9054 7733 6086 
10 1472 1397 1473 846 5732 5736 5737 6683 6682 7119 
10 921 1535 922 1471 7892 7655 3936 7618 5938 7619 
10 1434 753 1358 787 6662 6663 5615 8395 3545 8394 
10 540 1113 1233 541 8472 4972 8473 2723 8989 8638 
10 1434 787 1354 784 8395 7354 5867 9055 3486 8810 
10 517 374 516 1212 2649 2647 2651 8609 9056 8913 
10 1113 399 59 400 9057 2302 9058 9059 2306 2304 
10 1059 1058 336 1187 4457 6747 8644 4839 4840 8647 
10 561 781 1239 562 3464 7730 8824 2782 3463 7775 
10 1245 1237 1347 556 5007 5331 5332 8863 8217 8434 
10 639 377 1094 502 3028 6870 8775 3029 2659 8776 
10 1577 1596 977 1572 6178 7704 9060 6247 6240 8686 
10 655 1326 767 768 7476 9061 3422 3424 9031 3426 
10 936 1510 1550 885 7899 5984 9062 3990 8119 8334 
10 782 1402 875 757 8520 7804 3774 3469 7766 3775 
10 807 850 857 1449 4002 3801 4010 7757 7575 7524 
10 1199 496 631 1198 9063 3006 9064 4877 7810 7812 
10 783 1497 1426 785 9065 5809 9066 3480 6852 6854 
10 645 565 1351 678 3045 9068 9067 3142 3140 7770 
10 1081 144 248 249 6562 6304 4521 4520 6305 1865 
10 947 927 984 1544 4037 4168 4169 7943 8616 7942 
10 936 1585 1550 1510 9069 6111 9062 7899 6108 5984 
10 265 12 13 1117 4177 1913 1883 4627 6762 4626 
10 1009 1601 1615 1010 9070 6238 9071 4273 7332 7222 
10 673 781 1283 636 3465 6969 7087 3175 3542 7000 
10 1068 1069 1197 349 4487 4869 4870 6990 6991 8624 
10 1432 794 877 689 6931 3808 7996 8842 3517 3780 
10 431 1244 1258 1143 8397 5047 9072 8398 5003 5046 
10 190 297 296 74 9008 1995 8648 6444 1993 1991 
10 1511 1424 813 1359 5857 8993 6572 5858 5612 6571 
10 1024 187 71 293 4350 6410 6574 7011 7010 1982 
10 547 1240 1339 546 7653 5306 7402 2740 7652 9048 
10 541 1233 667 1234 8638 8370 3106 8988 4977 7632 
10 1335 1233 1336 666 5292 5296 5297 7914 8772 7915 
10 1278 710 711 1371 7342 3262 9073 5422 8232 7181 
10 191 192 1028 76 1806 4361 4362 6418 6419 7569 
10 139 358 359 1077 2179 2183 2181 8860 8143 6633 
10 597 462 1169 1172 2904 7256 6721 6835 8820 4796 
10 1172 598 1349 1286 6836 7565 5337 5147 6837 5338 
10 1487 1486 933 1546 5780 7659 7661 5970 5971 9047 
10 1287 1427 1363 780 5593 5594 5397 9074 7897 7898 
10 1232 1233 1335 666 4974 5292 5293 8036 8772 7914 
10 1232 539 1233 666 7072 7073 4974 8036 3102 8772 
10 1523 1602 966 967 6169 8547 7888 7005 9075 4103 
10 1069 495 1197 349 8284 8623 4869 6991 2587 8624 
10 1314 1203 637 1260 5229 8451 8758 5230 5052 9076 
10 628 1196 1197 494 8854 4871 8850 2998 8883 8625 
10 1123 410 548 411 8734 2742 6877 6876 2337 2741 
10 1265 688 1207 550 8462 7958 5083 8999 3198 9077 
10 551 1207 510 550 7479 7040 3200 2752 9077 3199 
10 913 972 1528 912 4117 8687 7343 3906 4116 8348 
10 231 124 125 346 6370 1733 6372 8971 2143 2144 
10 437 574 438 1252 2838 2839 2419 9078 7994 8155 
10 1168 672 688 1242 8353 3216 7957 5374 9079 7959 
10 1313 752 753 1434 7434 3386 6661 5613 8558 6662 
10 1090 374 1212 516 7104 9056 4912 9080 2647 8913 
10 1200 498 499 633 6696 2601 8301 6698 3012 3013 
10 1531 1532 977 917 5931 8583 7706 8188 7875 4131 
10 1506 924 943 1537 7955 4060 9032 6060 7103 9054 
10 1238 561 1119 1118 7753 8763 4988 4987 7754 4633 
10 1168 509 1082 1207 8354 7037 4783 4900 7038 4899 
10 1116 431 1218 1143 8500 9081 4928 4704 8398 4929 
10 1365 803 1438 700 6993 8360 5627 9082 3557 8333 
10 1232 539 665 538 7072 3100 8035 8740 2717 3099 
10 1585 1576 976 954 6217 9085 9083 9084 7246 4280 
10 1369 709 811 810 8400 3583 8508 7198 3581 3585 
10 1585 1596 976 1576 6225 7705 9083 6217 6179 9085 
10 936 1585 976 954 9069 9083 4198 4170 9084 4280 
10 46 23 387 47 1930 7494 2265 1653 1931 2266 
10 528 529 1103 1223 2687 7175 9086 8355 7469 4942 
10 1596 1585 976 949 6225 9083 7705 9087 9088 4199 
10 1279 1278 711 1371 5128 9073 7356 5421 5422 7181 
10 1585 936 976 949 9069 4198 9083 9088 4036 4199 
10 990 1546 1547 933 7461 5975 6802 4195 9047 6803 
10 27 26 50 1106 1632 1937 1938 4594 4595 9089 
10 1169 596 1346 1170 6723 7516 5327 4789 8879 5328 
10 1548 987 934 956 8055 4186 7871 8710 4187 4166 
10 895 1552 1492 1549 8974 5988 8017 9090 6047 6008 
10 629 495 494 1197 3001 2589 3000 8851 8623 8625 
10 536 1229 1109 394 8140 4960 7477 2706 9091 7478 
10 179 1137 1138 284 8273 4686 8545 6513 4682 4685 
10 828 829 1383 1459 3637 8750 8510 8509 8700 5694 
10 573 693 434 1360 3203 3201 2835 8543 8685 8626 
10 1542 1519 1451 888 6005 5890 5961 8259 9023 8260 
10 443 1155 444 1026 8161 7069 2437 6642 4745 8818 
10 1129 1148 571 1262 4717 9093 9092 5064 5065 9094 
10 513 675 1318 1208 3132 9096 9095 7163 6842 5241 
10 353 352 1071 131 2166 7816 7074 2164 2162 7076 
10 1299 1300 735 615 5189 7703 8748 7210 7544 3331 
10 1299 1298 1185 614 5186 5181 5185 7209 8816 6911 
10 68 69 186 291 1676 6443 6407 1975 1976 7533 
10 1208 513 1253 1318 7163 7269 5062 5241 9095 5240 
10 77 299 1029 192 2000 8556 6610 6420 8416 4365 
10 330 1182 1054 1053 7393 4824 7584 6919 4825 4442 
10 840 841 1393 1468 3673 8838 9097 7748 7636 5720 
10 1473 925 924 847 7150 3945 7101 7180 3943 3941 
10 584 1157 1158 447 9006 4755 9007 2867 7677 9098 
10 58 33 399 59 1950 9099 2301 1665 1951 2302 
10 842 841 920 1469 3676 3925 3926 8725 7638 8065 
10 840 839 1468 1392 3670 7750 7748 8924 7751 5721 
10 871 870 1490 1415 3760 8492 8906 8916 8532 5788 
10 103 213 324 1049 6337 9100 2078 8044 4426 8357 
10 1391 742 1304 1305 8114 8413 5480 5479 8731 5204 
10 1589 1612 997 998 6219 9101 8612 8960 6589 4227 
10 826 825 904 1476 3628 3877 3878 8928 8735 6718 
10 1523 906 966 1524 7887 4098 7888 5908 8593 8548 
10 1060 484 483 338 8060 2556 8003 8004 2554 2552 
10 1589 965 966 998 8408 4100 8546 8960 4225 4226 
10 227 341 119 120 8942 2128 6386 6363 2129 1728 
10 1397 749 629 750 6680 3373 7647 7117 3377 3375 
10 1258 1342 1314 754 5316 5580 5579 8892 9102 7451 
10 1432 794 689 1356 6931 3517 8842 5606 6933 8935 
10 1420 1452 755 762 5677 7592 8279 7489 7597 3409 
10 1024 441 1025 1153 8946 8791 4354 4739 7903 4738 
10 1474 848 751 1399 8449 3692 9103 5738 9104 9105 
10 950 1535 1579 1580 8525 6080 8442 8351 6084 6085 
10 795 1342 754 1314 9106 9102 3520 8761 5580 7451 
10 694 1342 754 795 7295 9102 3388 3521 9106 3520 
10 1523 907 967 966 7004 4101 7005 7888 4099 4103 
10 716 675 1424 797 3530 8457 7509 3763 3527 7682 
10 38 264 0 159 8052 6266 1644 2241 6267 1769 
10 1524 906 966 965 8593 4098 8548 8618 4096 4100 
10 1601 1555 1009 1593 6162 9107 9070 6163 6137 9108 
10 1486 1487 867 1412 5780 7662 7660 5775 5779 8177 
10 1094 639 1216 1215 8775 6874 4924 4920 8805 4925 
10 884 797 1440 788 3810 7683 9109 3811 3529 6806 
10 871 851 1416 1446 3820 9110 7861 8905 9111 5744 
10 1333 1332 775 1413 5288 7964 7644 5546 5547 7645 
10 1488 869 1414 1489 9112 8447 5781 5786 8446 5785 
10 1597 1002 984 985 7191 4242 7937 7205 4243 4197 
10 863 1408 770 862 7582 7785 3734 3736 7370 3732 
10 775 1413 868 776 7645 8368 3749 3450 7646 3750 
10 267 407 1119 1120 9113 8641 4632 4634 8978 4636 
10 673 672 1168 1339 3126 8353 8941 7401 7400 5376 
10 1238 561 1239 1119 7753 8824 4991 4988 8763 4989 
10 561 562 1239 1119 2782 7775 8824 8763 9114 4989 
10 561 407 562 1119 2777 2781 2782 8763 8641 9114 
10 1475 763 1435 1401 8565 7454 5742 5741 7895 5616 
10 859 1478 856 1482 7387 8166 3809 8635 5887 8153 
10 1089 257 372 1088 4544 7970 7971 4545 4540 6823 
10 962 1555 1009 1601 8865 9107 4268 9115 6162 9070 
10 1475 927 1544 1483 9116 8616 5965 5768 8474 5966 
10 961 1555 1009 962 7826 9107 4267 4085 8865 4268 
10 1201 499 500 634 8300 2604 7145 6862 3015 3016 
10 889 1424 1495 797 8267 5805 8265 3951 7682 8464 
10 499 1201 633 634 8300 7607 3013 3015 6862 3018 
10 1342 521 1218 1285 7391 8138 5315 5372 7333 5146 
10 288 501 436 1020 2800 2801 2412 6776 8293 6670 
10 1355 1420 648 691 5567 7078 7079 7430 7488 3192 
10 990 1005 987 1547 4253 4250 4196 6802 8933 6804 
10 595 1201 634 1284 7143 6862 3017 8093 5144 6864 
10 289 1149 1020 436 8661 4728 8654 2413 6669 6670 
10 595 1149 1150 1284 8092 4732 7144 8093 5142 5143 
10 1257 1361 1341 692 5382 5383 5313 7338 9117 7339 
10 683 1364 679 789 8889 8283 3159 3491 8295 3490 
10 762 691 1515 796 3408 7482 7487 3525 3526 7481 
10 288 289 1020 436 1971 8654 6776 2412 2413 6670 
10 793 1361 1259 692 7500 5381 7944 3515 9117 8765 
10 1545 931 989 988 8198 4191 7791 9118 4190 4241 
10 858 1475 878 763 9119 8566 3784 3720 8565 3781 
10 858 947 878 1475 4029 4030 3784 9119 6585 8566 
10 1444 1324 1407 765 5648 5529 5651 7243 7626 7244 
10 66 289 184 1020 1969 8652 6403 6777 8654 4337 
10 474 608 609 1181 2938 2942 2940 9120 9028 8406 
10 606 605 1178 471 2933 8323 8326 2931 2929 8630 
10 66 288 289 1020 1967 1971 1969 6777 6776 8654 
10 1177 1049 470 469 4809 6727 8410 6845 8358 2514 
10 651 652 525 1340 3062 3060 3058 7174 6535 8421 
10 508 363 362 1080 2625 2195 2624 8645 8836 9030 
10 737 617 1301 738 3337 8804 6595 3341 3339 6867 
10 484 1189 618 619 8059 8781 2968 2970 8131 2972 
10 1272 581 703 702 8494 3236 7059 8792 3234 3238 
10 1473 925 847 1474 7150 3943 7180 5740 8305 8448 
10 845 749 1472 846 3684 6681 8724 3688 3686 6683 
10 1398 750 1311 630 7179 7649 5501 9121 3376 9122 
10 750 1398 751 630 7179 8526 3380 3376 9121 3378 
10 519 649 1215 1323 3204 8806 9123 8238 8799 5255 
10 687 716 1359 813 3277 7238 6998 3589 3590 6571 
10 517 518 1213 1321 2654 7375 7373 8056 6891 5250 
10 254 149 150 369 6295 1759 6294 8459 2211 2212 
10 1552 1548 1549 956 6100 5981 6047 8908 8710 9124 
10 651 650 1323 1220 3059 8254 7173 9125 9126 5260 
10 1333 1334 777 664 5291 8534 7628 7631 8973 3451 
10 524 382 1099 383 2670 8693 8692 2671 2255 9127 
10 585 1159 449 448 7323 6675 2871 2870 8176 2452 
10 419 564 1237 556 2787 8866 8215 2764 2789 8217 
10 783 1497 872 1496 9065 9129 3764 9128 5810 7129 
10 900 961 901 1560 4080 4081 3870 6592 7827 7829 
10 423 424 1249 559 2404 7023 9130 2770 2771 6565 
10 1256 1133 422 565 5038 6625 7263 9131 9132 2791 
10 408 268 1120 162 8208 4635 8979 2327 4094 8980 
10 1289 1288 722 1377 5156 7721 9133 5438 5439 7693 
10 323 1048 469 324 8995 8996 2509 2079 9134 2510 
10 487 1191 1192 1063 8201 4856 7687 7688 4851 4855 
10 563 1356 689 646 9002 8935 3181 3046 8936 3182 
10 1378 1422 821 1504 5575 7663 8944 5833 5834 6730 
10 1377 818 721 722 6812 3602 6811 7693 3603 3293 
10 1376 819 723 820 7715 3606 8807 7716 3610 3608 
10 72 189 295 73 6413 6778 1987 1680 6414 1988 
10 859 765 1407 766 3821 7244 7242 3723 3420 9135 
10 1160 451 450 1032 8172 2458 8247 4759 9136 8595 
10 605 726 1292 725 3303 8707 8324 3301 3305 8708 
10 467 466 601 1175 2505 2916 2917 7090 7719 7091 
10 320 1046 1174 466 6653 4800 6599 2500 7718 7720 
10 916 1531 975 976 6576 6577 4126 4128 7707 4130 
10 382 524 1219 523 2670 8690 8691 2668 2672 7367 
10 1058 222 114 335 4453 6355 6746 6912 9137 2111 
10 1057 334 480 1185 8963 2542 9017 4833 8749 6942 
10 1323 650 1219 1220 8254 7366 5261 5260 9126 4935 
10 832 910 911 1462 3896 3900 3898 7820 9138 9139 
10 1463 1387 1388 834 5706 5472 5705 7397 8070 7399 
10 124 123 345 230 1732 2140 2141 6369 6368 8870 
10 881 893 1553 928 3845 9140 6561 3957 3958 6560 
10 619 1189 1302 1303 8131 5193 8619 8968 5197 5198 
10 745 842 746 1394 3674 3675 3365 6944 8719 9141 
10 341 342 120 1063 2133 2131 2129 8213 6900 8943 
10 746 843 747 1395 3677 3678 3368 9142 7746 8643 
10 848 1399 752 751 9104 8557 3693 3692 9105 3383 
10 595 1201 500 634 7143 7145 2901 3017 6862 3016 
10 849 1354 784 1434 9143 8810 3721 8666 5867 9055 
10 1531 917 977 976 8188 4131 7706 7707 4129 4133 
10 1151 575 438 439 7527 2840 8154 8160 2841 2422 
10 542 543 402 1115 2730 2728 2727 6955 8910 8813 
10 840 841 744 1393 3673 3671 3669 9097 8838 8839 
10 94 206 1042 207 6323 4405 7362 6324 1822 4404 
10 1223 654 655 1325 8356 3071 7470 5262 9144 7475 
10 1222 1101 527 526 4940 8250 6929 9145 8251 2681 
10 869 935 1489 1488 3982 8932 8446 9112 7933 5786 
10 150 255 370 151 6297 7140 2214 1760 6296 2215 
10 972 1527 1528 912 8790 5919 8687 4116 8679 8348 
10 982 948 945 1521 4238 4174 4237 9146 7666 8272 
10 993 991 951 1598 4208 4200 4207 9147 9148 8898 
10 1374 691 1355 570 7428 7430 5431 9149 3193 6647 
10 991 1598 1609 1603 9148 6263 7999 6617 6172 6242 
10 1497 1496 783 1400 5810 9128 9065 5808 5807 8926 
10 1256 1133 565 1246 5038 9132 9131 5039 5008 7299 
10 1530 1531 1576 975 5928 6073 6074 6579 6577 6839 
10 11 1146 1147 10 4713 4723 4715 1912 7324 7248 
10 1541 874 1594 853 8599 6708 6203 7796 3773 7545 
10 1355 1267 1374 570 5358 5430 5431 6647 8698 9149 
10 991 1598 1603 951 9148 6172 6617 4200 8898 9150 
10 951 1566 1603 941 7918 6170 9150 4046 8598 6616 
10 992 981 1608 1014 4240 8604 9151 4293 4294 7169 
10 1485 864 865 931 8564 3742 8954 8200 3967 3968 
10 885 1500 942 875 9152 7867 4011 3815 7866 4012 
10 1109 1230 395 1110 4964 8672 6883 4608 4963 6885 
10 1190 1189 619 1303 4850 8131 8801 5196 5197 8968 
10 1269 1365 1438 700 5406 5627 5624 7538 9082 8333 
10 537 538 1110 1231 2714 9154 8673 9153 8742 4967 
10 1485 1540 1484 931 5953 5954 5774 8200 7949 7951 
10 1540 1485 1545 931 5953 5968 5969 7949 8200 8198 
10 600 465 1315 1174 2913 9046 8479 8480 6600 5231 
10 930 929 988 1538 3966 4254 4189 7782 7780 8562 
10 957 1552 896 956 8907 8846 4068 4070 8908 4066 
10 773 772 865 1411 3441 3740 3741 7722 9155 9019 
10 872 1497 783 814 9129 9065 3764 3767 9156 3593 
10 1509 882 1556 1592 7813 6917 6001 6132 8391 6134 
10 463 1172 1044 1043 8822 4794 9157 8821 4795 4412 
10 875 1568 942 944 7414 7868 4012 4018 7415 4020 
10 1232 1334 1231 665 5289 5290 4971 8035 8819 8741 
10 1521 1508 889 945 5900 7681 9158 8272 7695 4173 
10 464 319 1044 1173 2495 8073 8313 8091 9159 4798 
10 95 94 316 207 1703 2053 2054 6325 6324 8068 
10 793 889 1508 883 3831 7681 7501 3806 3833 7694 
10 1248 1137 1251 557 5013 5021 5022 8275 7291 8148 
10 1508 883 889 945 7694 3833 7681 7695 4022 4173 
10 1045 209 210 98 4414 1825 4413 9011 6329 6330 
10 789 1480 1431 1364 8831 5759 8277 8295 5756 5605 
10 465 320 1174 466 2498 6599 6600 2502 2500 7720 
10 1521 948 945 889 7666 4174 8272 9158 4048 4173 
10 1211 1212 1319 516 4913 5244 5245 7710 8913 7711 
10 1378 1456 1504 822 5686 5832 5833 8945 7056 6729 
10 1554 908 1459 1460 8961 9160 5995 5994 8930 5698 
10 819 1453 898 1501 7860 7961 3859 7717 5822 7960 
10 969 1574 970 1526 7465 8000 4112 8923 6068 8682 
10 1298 733 734 1384 7096 3329 7097 5458 8077 8925 
10 616 617 1187 1301 2966 7115 7219 6593 8804 5191 
10 1565 1575 942 1568 6136 7271 9161 6052 6135 7868 
10 1541 876 874 786 8669 3778 8599 8949 3776 3772 
10 819 1501 898 820 7717 7960 3859 3610 7094 3860 
10 1453 819 898 897 7860 3859 7961 7855 3857 3861 
10 1442 1431 886 1502 5642 7503 7675 5824 5825 7504 
10 1456 822 900 1504 7056 3866 7057 5832 6729 6591 
10 1597 1544 984 1600 6150 7942 7937 6175 6160 8607 
10 927 981 984 1600 4153 4185 4168 8615 8608 8607 
10 110 220 1055 332 6350 4443 8751 2101 8087 7624 
10 1334 1333 1231 664 5291 5286 5290 8973 7631 8771 
10 688 1266 1207 1242 8463 5401 7958 7959 5093 5373 
10 962 963 1601 1010 4088 7330 9115 4270 4271 7332 
10 958 959 898 1558 4076 4074 4072 8716 8714 7962 
10 829 907 908 1459 3887 3891 3889 8700 7580 9160 
10 949 1596 977 976 9087 7704 4309 4199 7705 4133 
10 1242 1123 549 1266 4999 6878 9162 5093 5085 7149 
10 841 919 920 1469 3923 3927 3925 7638 7639 8065 
10 1533 1534 920 1469 5937 7253 8014 5932 5936 8065 
10 122 123 229 344 1731 6367 6366 2137 2138 9163 
10 937 992 1559 938 4203 7669 8245 3995 4202 7670 
10 345 490 1194 1065 2573 9018 8855 8856 9164 4861 
10 991 1015 1609 1016 4296 8620 7999 4303 4304 7236 
10 906 1523 1458 1524 7887 5905 8431 8593 5908 5906 
10 1485 1410 864 1484 5773 8523 8564 5774 5769 8255 
10 1540 930 1538 1484 7948 7782 5955 5954 7950 5948 
10 688 1266 1242 549 8463 5093 7959 3214 7149 9162 
10 122 344 229 1064 2137 9163 6366 8139 8175 4470 
10 227 1063 120 228 4468 8943 6363 1843 4467 6364 
10 213 102 324 323 6336 2077 9100 9165 2075 2079 
10 584 705 706 1274 3243 3247 3245 6783 6785 9166 
10 991 951 1603 941 4200 9150 6617 4201 4046 6616 
10 199 308 1036 1035 7598 7599 4386 4382 7612 4387 
10 1065 345 230 1066 8856 8870 4473 4478 8484 4477 
10 872 1566 941 853 7130 8598 4007 3766 8597 4008 
10 1566 872 941 951 7130 4007 8598 7918 4045 4046 
10 672 688 1242 548 3216 7959 9079 3122 3215 7976 
10 1168 672 1242 1241 8353 9079 5374 5387 7349 5000 
10 1551 814 951 952 7974 4044 7917 8825 4049 4050 
10 814 1551 1564 952 7974 6037 7555 4049 8825 7557 
10 1045 319 320 465 8074 2067 6597 6598 2497 2498 
10 101 102 212 323 1710 6335 6391 2074 2075 9167 
10 672 548 1242 1241 3122 7976 9079 7349 7351 5000 
10 358 1202 1076 459 8142 4886 8144 2481 8622 8877 
10 216 106 328 327 6392 2089 9012 9168 2087 2091 
10 1299 734 614 735 8746 3328 7209 8748 3332 3330 
10 739 1388 1389 1302 6871 5475 6894 7604 5470 5474 
10 993 1598 951 952 9147 8898 4207 4206 8826 4050 
10 993 1004 1598 952 4248 9169 9147 4206 4247 8826 
10 1048 1177 469 1049 4810 6845 8996 4427 4809 8358 
10 353 352 498 1071 2166 2596 2597 7074 7816 9170 
10 243 138 358 1076 6273 2178 9171 4506 8062 8144 
10 1068 348 494 493 6523 2584 8884 6522 2582 2586 
10 1398 1397 1311 750 5502 5497 5501 7179 7117 7649 
10 963 962 1601 1570 4088 9115 7330 9172 9173 6164 
10 1221 652 526 653 6665 3061 9174 6666 3065 3063 
10 1191 487 622 621 8201 2979 9052 7134 2977 2981 
10 1243 510 1207 1083 7233 7040 5061 5060 8340 4898 
10 647 636 1268 1283 3510 6999 8440 6971 7000 5357 
10 509 508 1205 1081 2629 7065 8981 8596 8646 4892 
10 869 1488 868 934 9112 8455 3754 3980 7869 3979 
10 242 357 138 1076 8001 2177 6272 4507 8237 8062 
10 243 358 139 1077 9171 2179 6274 4510 8143 8860 
10 675 513 1318 669 3132 9095 9096 3133 3112 9175 
10 1320 684 641 763 6831 3162 8341 8022 3410 3411 
10 376 1092 1214 1093 8986 4918 8105 8104 4557 4917 
10 375 156 1092 376 2230 8145 8931 2234 2232 8986 
10 1607 963 1601 1570 8379 7330 6198 6197 9172 6164 
10 1476 904 1457 1561 6718 8927 5748 6028 6719 6027 
10 517 1212 516 642 8609 8913 2651 3036 8912 3035 
10 374 1090 1212 1091 7104 4912 9056 7105 4551 4911 
10 869 935 1488 934 3982 7933 9112 3980 3984 7869 
10 1338 1210 514 1253 5302 7284 7194 5303 5030 7286 
10 1222 653 526 527 6928 3063 9145 6929 3064 2681 
10 1222 1223 1325 654 4944 5262 5263 6930 8356 9144 
10 652 1444 764 765 6533 7758 3414 3415 7243 3417 
10 530 388 1224 1104 2688 9176 8196 8585 8586 4945 
10 651 525 1220 1340 3058 8420 9125 7174 8421 5310 
10 1021 438 290 1022 8577 2417 8668 4345 8407 8587 
10 1529 914 974 973 8110 4122 8507 8031 4120 4124 
10 914 1529 974 915 8110 8507 4122 3912 6926 4123 
10 1437 1448 790 1352 5666 7832 7925 5622 5665 8869 
10 1530 1529 915 974 5925 6926 6925 8376 8507 4123 
10 1595 1529 1530 974 6144 5925 6143 8377 8507 8376 
10 652 1221 526 525 6665 9174 3061 3060 8419 2678 
10 930 1540 988 931 7948 8568 4189 3969 7949 4190 
10 1002 1017 1613 1018 4257 7427 7426 4333 4321 7952 
10 1460 831 1385 1461 9177 8112 5696 5701 9178 5700 
10 290 185 1021 1022 8364 4340 8668 8587 4344 4345 
10 781 562 546 1239 3463 2783 3466 7730 7775 9179 
10 1003 1610 996 1010 8602 9180 4327 4326 9181 4272 
10 962 1601 1009 1010 9115 9070 4268 4270 7332 4273 
10 1555 961 1009 1593 7826 4267 9107 6137 9182 9108 
10 959 960 1604 1007 4079 8951 8713 4261 4262 8316 
10 797 884 1440 1495 3810 9109 7683 8464 8264 5804 
10 290 68 1022 291 1973 8156 8587 1977 1975 7534 
10 1453 897 898 1558 7855 3861 7961 6016 9183 7962 
10 1453 1552 897 1558 5987 9184 7855 6016 6017 9183 
10 444 1155 445 1027 7069 8909 2440 9041 4744 7985 
10 430 1267 1263 570 7042 5090 8298 2824 8698 6649 
10 430 1144 1263 1267 7052 5072 8298 7042 5089 5090 
10 1607 963 996 1601 8379 4220 8380 6198 7330 7331 
10 1276 586 1275 1159 6643 7320 5119 5118 7321 5114 
10 904 905 1561 964 3882 9185 6719 4090 4092 7208 
10 420 419 564 1131 2362 2787 2788 8403 8991 8992 
10 267 407 1120 162 9113 8978 4634 4138 2323 8980 
10 1028 1157 446 1029 4751 7067 7068 4366 4750 8900 
10 299 446 447 1029 2442 2446 2444 8556 8900 9010 
10 1524 905 965 1561 8594 4095 8618 6026 9185 8409 
10 1376 1289 723 722 5437 7572 8807 8812 9133 3296 
10 609 608 1294 1181 2942 8495 8711 8406 9028 5169 
10 903 825 1476 904 3875 8735 6716 3879 3877 6718 
10 78 301 194 193 2005 7805 6423 6422 8167 1808 
10 1388 738 835 834 6865 3653 6872 7399 3651 3655 
10 662 535 1229 536 3090 6809 7424 3091 2708 8140 
10 525 1221 526 384 8419 9174 2678 2674 9186 2676 
10 1158 1029 1030 448 4754 4369 4753 8554 9187 6673 
10 914 1529 915 1465 8110 6926 3912 7472 5920 6927 
10 1149 595 1150 436 8092 7144 4732 6669 2900 6668 
10 156 157 261 1093 1766 6288 6287 8146 8671 4556 
10 431 1244 405 520 8397 7106 2393 2661 8531 2660 
10 739 740 1303 1389 3347 8966 8967 6894 6906 5473 
10 93 314 1041 205 2048 9189 9188 6321 9190 4402 
10 353 354 1072 499 2169 8007 8230 2599 2600 8563 
10 1200 353 1071 1072 9191 7074 4879 4878 8230 4496 
10 596 1169 461 1170 6723 7257 2902 8879 4789 8957 
10 829 732 1383 1384 3635 7277 8750 8076 7279 5460 
10 518 519 1214 1322 2658 9192 6892 6893 7615 5252 
10 1091 517 374 375 8581 2649 7105 7536 2650 2231 
10 653 1222 1325 654 6928 5263 9193 3068 6930 9144 
10 462 316 461 1042 2488 2486 2490 7258 8067 7259 
10 1529 914 1528 1464 8110 7344 5922 5921 7873 5917 
10 654 1325 767 655 9144 6580 3421 3071 7475 3422 
10 1100 1221 525 384 4937 8419 9194 7029 9186 2674 
10 47 387 388 1103 2266 2270 2268 6627 7176 7177 
10 24 47 388 1103 1932 2268 9195 4585 6627 7177 
10 387 528 1103 1102 2683 9086 7176 7495 8278 4587 
10 1234 400 542 541 8393 2724 8371 8988 2722 2726 
10 463 464 1044 1172 2496 8313 9157 8822 8089 4794 
10 1346 792 1446 1427 9042 9196 5658 5592 8998 5659 
10 407 562 1119 1120 2781 9114 8641 8978 7777 4636 
10 314 93 1041 315 2048 9188 9189 2052 2050 7699 
10 1169 462 1043 1172 7256 8695 4785 4796 8820 4795 
10 936 1585 954 1550 9069 9084 4170 9062 6111 7247 
10 706 1367 1275 1274 9197 5409 9040 9166 5410 5116 
10 106 105 327 216 1714 2086 2087 6392 6342 9168 
10 1268 636 647 671 6999 3510 8440 8487 3511 3120 
10 268 269 163 1121 1887 4005 4093 4637 4638 8210 
10 1419 1375 795 791 5790 7265 7761 7762 8893 3522 
10 1256 422 555 565 7263 2761 7264 9131 2791 2792 
10 1364 786 1480 1362 8282 8832 5756 5630 8281 5757 
10 584 706 1275 1274 3245 9040 9039 6783 9166 5116 
10 1362 679 786 676 7590 3482 8281 7588 3145 3481 
10 1267 434 1360 573 7041 8626 5380 8541 2835 8543 
10 487 486 1191 1062 2565 7132 8201 8202 8921 4852 
10 341 486 487 1062 2561 2565 2563 9198 8921 8202 
10 1259 1257 692 1361 5051 7338 8765 5381 5382 9117 
10 486 341 340 1062 2561 2130 2560 8921 9198 8345 
10 1061 118 340 339 8058 2125 6910 8123 2123 2127 
10 419 277 1130 1131 9199 4663 8216 8991 4667 4714 
10 485 484 1061 339 2559 8061 6909 2557 2555 8123 
10 821 899 900 1504 3863 3867 3865 6730 6732 6591 
10 606 1178 1292 1179 8326 5164 8325 7377 4817 5163 
10 104 1050 325 326 8032 8034 2081 2083 8038 2085 
10 355 354 500 1073 2172 2602 2603 8079 8737 8083 
10 1288 1421 1315 600 5569 5570 5233 7678 7564 8479 
10 1237 1245 1130 556 5007 5005 4986 8217 8863 8218 
10 333 1056 479 334 7390 7383 2539 2109 7389 2540 
10 1059 224 337 115 4455 7380 8193 8918 6358 2116 
10 501 1073 1150 1019 8088 4731 8292 8768 4725 4730 
10 740 620 1303 1304 3346 7602 8966 8331 7595 5201 
10 1072 354 237 1073 8007 8008 4494 4499 8737 4498 
10 1312 1199 1313 631 5223 5227 5228 8755 9064 8411 
10 1311 1398 630 1312 5501 9121 9122 5225 5500 8754 
10 354 133 237 1073 2168 6381 8008 8737 8894 4498 
10 133 354 355 1073 2168 2172 2170 8894 8737 8079 
10 365 146 251 366 2200 6293 8133 2204 2202 6679 
10 376 156 1092 1093 2232 8145 8986 8104 8146 4557 
10 1375 1342 795 1314 5581 9106 7265 5434 5580 8761 
10 782 794 1429 646 3519 6654 6655 3467 3518 8043 
10 1245 418 1130 556 9200 8780 5005 8863 2763 8218 
10 1331 1332 1412 774 5285 5543 5544 7926 7927 7016 
10 1486 1412 867 866 5775 8177 7660 6940 7018 3748 
10 367 148 1142 368 2206 6755 6756 2210 2208 9201 
10 1146 1147 433 1142 4723 6737 6705 5094 5095 6703 
10 1521 982 1502 945 9146 7697 5899 8272 4237 7698 
10 694 1419 680 1285 7296 7313 3212 7297 5565 7315 
10 1244 431 1258 520 8397 9072 5047 8531 2661 7287 
10 707 1276 1275 1368 9202 5119 6690 6688 5412 5413 
10 715 1375 795 1314 7819 7265 3787 6948 5434 8761 
10 433 432 1142 367 2410 6702 6703 2814 2633 6756 
10 838 839 1391 1467 3667 8330 7420 7980 7749 5718 
10 881 806 1491 850 3844 7231 6890 3798 3843 8224 
10 1272 805 1418 702 9203 7519 5561 8792 3563 7521 
10 366 147 252 367 2203 6281 6678 2207 2205 6757 
10 1204 1078 1141 505 4889 5059 5088 8383 8859 7845 
10 1498 1522 854 887 5901 7053 7473 7673 8049 3824 
10 594 1204 505 504 8382 8383 2898 2897 8902 2618 
10 804 891 1418 1499 3836 9204 7520 6996 8853 5815 
10 1204 359 505 504 8849 2616 8383 8902 2615 2618 
10 649 1323 1216 1215 8799 5254 6873 8806 5255 4925 
10 1221 652 1324 1340 6665 6534 5259 5309 6535 5312 
10 502 1096 378 1095 9205 9206 2608 8025 4703 8024 
10 599 720 600 1315 3285 3286 2915 6817 9207 8479 
10 1453 818 896 1492 7853 3854 7854 5796 8538 8745 
10 1288 1289 722 601 5156 9133 7721 7680 7093 3291 
10 1184 1298 613 1185 5182 7098 6744 4835 5181 6745 
10 837 836 915 1465 3661 3910 3911 9208 7471 6927 
10 914 836 1464 1465 3908 7874 7873 7472 7471 5713 
10 1500 782 1402 875 8519 8520 5818 7866 3774 7804 
10 972 913 1528 973 4117 7343 8687 4121 4119 7345 
10 737 1387 1301 1300 7817 5467 6595 6596 5468 5192 
10 798 1442 886 945 7514 7675 3817 4021 7696 4023 
10 1398 1474 751 1399 5739 9103 8526 5505 5738 9105 
10 50 390 391 1106 2275 2279 2277 9089 8778 8783 
10 26 390 50 1106 8809 2275 1937 4595 8778 9089 
10 770 771 1328 1409 3435 7158 8815 8222 7157 5535 
10 48 388 389 1104 2269 2273 2271 7771 8586 8584 
10 1591 1540 988 1538 6129 8568 8561 6130 5955 8562 
10 1423 1344 680 1285 5576 9209 7314 5577 5323 7315 
10 660 772 1330 659 3437 6814 8875 3086 3436 6816 
10 1109 536 395 1230 7477 2707 6883 4964 7404 8672 
10 895 1552 1549 956 8974 6047 9090 4065 8908 9124 
10 1254 1117 405 1118 5031 6763 9033 5032 4630 8235 
10 12 431 1116 1143 2390 8500 8342 8127 8398 4704 
10 315 1170 461 1042 8830 8957 2485 7361 4787 7259 
10 463 462 597 1172 2493 2904 2905 8822 8820 6835 
10 291 1023 439 292 7532 8158 2420 1980 7606 2421 
10 1269 1365 701 1271 5406 8694 9210 5104 5405 8767 
10 576 440 1152 577 2844 9211 8521 2848 2846 8291 
10 804 803 939 1499 3562 3998 3999 6996 6994 7483 
10 431 1258 1218 1143 9072 5070 9081 8398 5046 4929 
10 563 1245 1129 1262 8861 5006 7045 9212 5066 5064 
10 1128 435 8 416 7327 2401 7328 8890 2402 2351 
10 38 1 0 264 1914 1619 1644 8052 1881 6266 
10 1542 936 877 1510 8135 3988 8136 5962 7899 7900 
10 638 1255 1264 1209 8045 5078 7250 8738 5398 5400 
10 914 913 1528 1464 3909 7343 7344 7873 8108 5917 
10 1152 1023 439 1151 4736 8158 9213 4737 4733 8160 
10 597 463 1172 598 2905 8822 6835 2909 2907 6836 
10 319 97 318 1044 2062 2060 2064 8073 8488 8314 
10 1023 440 1024 1152 8948 8947 4351 4736 9211 4735 
10 554 1138 1250 1139 8885 5019 8887 9214 4689 5018 
10 567 554 1250 1139 2798 8887 7311 7312 9214 5018 
10 807 892 808 1493 4057 3838 3576 7492 7846 7493 
10 396 537 1110 395 2710 8673 8703 2294 2709 6885 
10 694 1342 568 754 7295 8128 3207 3388 9102 3387 
10 510 509 688 1207 2816 3179 3180 7040 7038 7958 
10 683 554 1250 567 3157 8887 8141 3158 2798 7311 
10 1138 554 1250 1251 8885 8887 5019 5020 8886 5023 
10 1140 567 427 428 9215 2796 7586 7587 2797 2383 
10 572 1257 1140 567 8764 5040 8028 2831 7310 9215 
10 441 440 577 1152 2428 2846 2847 9216 9211 8291 
10 1541 1445 756 1517 5957 7792 7798 5958 5879 7793 
10 1288 1377 1421 721 5439 5571 5569 7679 6811 7100 
10 630 1312 631 1198 8754 8755 3008 7811 5224 7812 
10 1073 356 238 1019 8081 8080 4497 4725 8569 4694 
10 1109 30 395 54 4603 6884 6883 8471 1944 2289 
10 816 895 1492 1549 3851 8017 7578 7579 9090 6008 
10 287 288 1019 501 1968 9217 8169 2799 2800 8768 
10 287 288 183 1019 1968 6775 6781 8169 9217 4335 
10 1515 854 691 1428 7055 3709 7482 5871 7054 7429 
10 21 44 384 43 1927 2257 8470 1926 1650 2256 
10 1519 1557 887 955 6012 8050 9218 9219 8171 4144 
10 1360 689 1432 693 8840 8842 5608 8685 3536 7995 
10 1578 1519 955 1557 6190 9219 8511 6191 6012 8171 
10 501 356 1073 1019 2606 8081 8088 8768 8569 4725 
10 577 1152 1317 1153 8291 5237 8290 9038 4740 5236 
10 738 739 1302 1388 3344 7604 6866 6865 6871 5470 
10 440 441 1024 1152 2428 8946 8947 9211 9216 4735 
10 1155 443 444 580 8161 2437 7069 7071 2855 2856 
10 850 1520 796 1567 8223 8726 3699 7574 6050 8727 
10 705 704 806 1366 3244 3567 3569 8415 7293 7988 
10 1034 453 1163 1162 7120 8793 4769 4765 7121 4770 
10 591 1280 1164 1163 8310 5129 6992 6754 5130 4773 
10 893 881 1553 796 3845 6561 9140 3846 3799 9220 
10 79 80 194 302 1687 6424 6445 2008 2009 6628 
10 297 190 75 74 9008 6416 1994 1993 6444 1682 
10 881 1520 796 850 6888 8726 3799 3798 8223 3699 
10 536 537 395 1230 2711 2709 2707 7404 7405 8672 
10 983 1599 1616 952 7318 6261 8438 4163 8401 8684 
10 592 1281 593 1165 6786 7562 2896 6788 5132 6769 
10 883 1442 798 945 7512 7514 3807 4022 7696 4021 
10 610 730 1296 1295 3316 9222 9221 7737 8503 5177 
10 488 487 622 1192 2568 2979 2980 7685 7687 9053 
10 893 950 955 1557 4039 4063 4064 8048 8441 8171 
10 841 1468 1469 1393 7636 5725 7638 8838 5720 5724 
10 891 881 806 1491 4151 3844 4056 7122 6890 7231 
10 801 1438 1506 802 9223 5841 9224 3556 8361 9225 
10 465 464 599 1173 2499 2910 2911 8990 8091 6819 
10 1149 289 437 436 8661 2414 8897 6669 2413 2416 
10 1313 753 633 1358 6661 3385 7605 5367 6663 7608 
10 881 1520 1516 1553 6888 5894 6889 6561 5991 5989 
10 598 1447 1349 1286 9226 5660 7565 6837 5661 5338 
10 149 254 1085 369 6295 4532 8454 2211 8459 8460 
10 1434 784 753 787 9055 3703 6662 8395 3486 3545 
10 599 465 1315 600 2911 9046 6817 2915 2913 8479 
10 720 1421 600 1315 7563 7564 3286 9207 5570 8479 
10 1551 814 1564 1497 7974 7555 6037 5986 9156 6038 
10 814 1518 1564 1497 8258 6039 7555 9156 5880 6038 
10 880 1518 1599 1564 7920 6155 7317 7556 6039 6158 
10 730 610 1296 731 3316 9221 9222 3320 3318 7275 
10 968 969 1574 999 4109 7465 7463 4228 4229 6962 
10 1013 1573 971 970 8320 9227 4283 4282 8322 4115 
10 602 1290 603 1176 6860 7641 2924 6861 5158 7878 
10 1183 477 1184 612 7111 9228 4832 8102 2949 8103 
10 330 331 1054 476 2100 7108 7584 2530 2531 7109 
10 477 478 1184 612 2538 7384 9228 2949 2950 8103 
10 1195 627 626 492 8650 2996 7745 8837 2994 2992 
10 489 1193 1065 1064 8203 4857 8965 8920 4858 4475 
10 466 1288 1175 1174 8437 5152 7719 7720 5153 4805 
10 123 229 1065 230 6367 4474 9229 6368 1845 4473 
10 616 481 1187 482 2961 8130 7219 2962 2550 7116 
10 1574 969 1525 1526 7465 7464 6069 6068 8923 5913 
10 278 420 1132 1131 7932 8571 4669 4666 8403 4670 
10 1540 1545 988 931 5969 9118 8568 7949 8198 4190 
10 1501 898 899 1582 7960 3864 7095 6092 9230 9231 
10 489 1192 1193 1064 8514 4859 8203 8920 4854 4858 
10 122 121 343 228 1730 2134 2135 6365 6395 6899 
10 853 756 758 1517 3707 3398 3706 7797 7793 7795 
10 1192 488 1064 489 7685 8919 4854 8514 2571 8920 
10 886 1442 1502 945 7675 5824 7504 4023 7696 7698 
10 468 1177 1176 603 6844 4811 7386 2922 6846 7878 
10 935 1548 934 956 7934 7871 3984 4167 8710 4166 
10 546 562 1240 1239 2783 7776 7652 9179 7775 4994 
10 993 1606 1609 1598 8573 6209 7998 9147 6257 6263 
10 1254 647 1238 561 8674 6970 5033 7752 3048 7753 
10 949 1578 955 978 8179 8511 4155 4310 8536 4218 
10 1521 982 1571 1502 9146 7936 6063 5899 7697 6061 
10 880 1564 1599 952 7556 6158 7317 4051 7557 8401 
10 612 732 733 1297 3322 3326 3324 7453 7278 9232 
10 375 1091 1213 1092 7536 4915 7374 8931 4554 4914 
10 1442 1521 1502 945 5898 5899 5824 7696 8272 7698 
10 363 1080 1081 248 8836 4522 8733 9233 4517 4521 
10 1510 794 1429 885 6932 6654 5854 8119 3813 6656 
10 1095 1216 502 1097 4923 8777 8025 4932 5043 8800 
10 748 844 1396 1395 3681 8757 8756 9234 7747 5496 
10 1235 1234 668 1363 4980 7633 8373 5394 5395 7635 
10 1430 1343 642 1319 5603 7441 8125 5601 5319 8126 
10 617 1188 1187 1301 7113 4844 7115 8804 5190 5191 
10 533 532 1227 1106 2699 7164 6895 8782 8121 4955 
10 796 762 1567 1515 3525 8297 8727 7481 7487 5884 
10 534 533 1227 1107 2702 6895 6897 7650 9235 4954 
10 1106 533 392 1107 8782 2698 9236 4599 9235 7507 
10 391 27 392 51 9237 7506 2282 2278 1960 2280 
10 1107 534 1108 1228 7650 6790 4602 4958 7499 4957 
10 1106 27 1107 392 4594 4598 4599 9236 7506 7507 
10 1500 1565 1550 885 6042 6043 5982 9152 8681 8334 
10 1149 574 437 1252 7993 2838 8897 5026 7994 9078 
10 746 1394 1308 1307 9141 5488 9238 6978 5489 5213 
10 1309 1195 626 1308 5215 7745 8590 5216 5211 8591 
10 1521 948 1495 1543 7666 8263 6007 6006 7668 5964 
10 266 265 1118 160 1884 4628 4629 4165 4176 8236 
10 1068 1067 493 1196 4484 6520 6522 4866 4867 6950 
10 1345 675 1208 1318 6841 6842 5324 5326 9096 5241 
10 682 685 1350 559 3165 9240 9239 3154 3164 6567 
10 585 584 1158 448 2872 9007 9241 2870 2868 8554 
10 1135 423 424 1249 7022 2404 9242 5016 9130 7023 
10 1136 1135 424 1249 4681 9242 9003 5015 5016 7023 
10 675 1345 1424 1318 6841 5583 8457 9096 5326 5582 
10 1195 1067 493 492 4863 6520 6949 8837 6714 2583 
10 1311 630 1198 1312 9122 7811 5220 5225 8754 5224 
10 1260 1204 1141 505 5092 5088 5053 8384 8383 7845 
10 1203 1141 637 1260 4888 9243 8451 5052 5053 9076 
10 549 1123 1242 548 6878 4999 9162 2746 6877 7976 
10 245 1078 140 360 4512 9244 6277 8389 8390 2184 
10 579 442 1153 1154 2852 7902 9037 9025 6636 4743 
10 675 797 669 1318 3527 3528 3133 9096 7684 9175 
10 242 137 138 357 6271 1747 6272 8001 2176 2177 
10 1271 580 702 701 7201 3233 8914 8767 3231 3235 
10 1269 1271 701 579 5104 8767 9210 9024 8766 3230 
10 943 1537 1581 1506 9054 6086 6793 9032 6060 6089 
10 1024 441 1153 1152 8946 7903 4739 4735 9216 4740 
10 797 675 1424 1318 3527 8457 7682 7684 9096 5582 
10 441 577 1153 1152 2847 9038 7903 9216 8291 4740 
10 578 577 1317 1153 2851 8290 9245 7904 9038 5236 
10 579 443 1154 580 2853 6637 9025 2857 2855 8867 
10 487 1191 622 1192 8201 9052 2979 7687 4856 9053 
10 1280 1279 712 1372 5131 7357 6734 5424 5425 7358 
10 1037 1036 456 1165 4390 6686 8162 4774 4775 6768 
10 1331 773 1411 1330 9246 7722 5540 5282 8876 5541 
10 1204 594 1260 1316 8382 6641 5092 5234 7139 5308 
10 344 343 489 1064 2139 2569 2570 8175 8174 8920 
10 1236 521 1218 404 6621 8138 4984 6623 2663 8118 
10 1280 591 713 712 8310 3266 6736 6734 3264 3268 
10 607 606 1293 1179 2936 8318 8319 8312 7377 5167 
10 733 830 734 1384 3638 3639 3329 8077 8075 8925 
10 1056 333 479 478 7390 2539 7383 7382 2537 2541 
10 730 609 1295 610 3315 7739 8503 3316 2945 7737 
10 431 1258 568 1218 9072 7289 2808 9081 5070 8129 
10 521 431 568 1218 2662 2808 2809 8138 9081 8129 
10 431 1116 1218 404 8500 4928 9081 2391 6858 8118 
10 521 431 1218 404 2662 9081 8138 2663 2391 8118 
10 473 607 608 1180 2935 2939 2937 7308 7307 9027 
10 1048 213 324 323 4422 9100 9134 8995 9165 2079 
10 1002 1018 1613 1615 4333 7952 7426 7190 7221 6243 
10 1331 661 1330 1228 7409 9247 5282 5281 7410 5277 
10 1389 739 1302 1303 6894 7604 5474 5473 8967 5198 
10 913 1463 834 912 8346 7397 3904 3906 8347 3902 
10 1392 743 1305 1306 8729 8422 5483 5482 8844 5207 
10 742 1391 1392 1305 8114 5484 8730 8731 5479 5483 
10 93 94 206 315 1702 6323 6322 2050 2051 7360 
10 1192 488 623 622 7685 2982 8513 9053 2980 2984 
10 650 649 1323 1219 3056 8799 8254 7366 7365 5261 
10 1100 525 1220 383 9194 8420 4933 7028 2673 9248 
10 947 1562 984 985 6584 7941 4169 4171 7848 4197 
10 1289 1288 1175 601 5156 5152 5155 7093 7680 7091 
10 319 1045 1173 465 8074 4797 9159 2497 6598 8990 
10 465 599 1315 1173 2911 6817 9046 8990 6819 5232 
10 1375 1419 1454 791 5790 5682 5812 8893 7762 7774 
10 598 719 1349 1447 3282 7566 7565 9226 8427 5660 
10 662 663 536 1230 3095 3093 3091 8269 7403 7404 
10 488 1192 1064 1063 7685 4854 8919 7686 4855 4472 
10 627 1195 493 492 8650 6949 2995 2994 8837 2583 
10 231 232 347 125 1847 7989 8970 6372 6371 2146 
10 772 771 1329 659 3438 7159 6813 3436 3434 6815 
10 842 841 1469 1394 3676 7638 8725 8719 9249 5723 
10 772 1410 1411 1330 8712 5542 9155 6814 5537 5541 
10 891 881 1499 939 4151 6559 8853 4000 4027 7483 
10 1326 1224 1327 656 5265 5269 5270 7226 7468 7228 
10 29 1108 394 1109 4600 6772 6770 4604 4605 7478 
10 661 1331 1330 773 7409 5282 9247 3440 9246 8876 
10 1243 1265 551 1125 5082 7480 7232 5001 5081 7474 
10 1503 937 1559 1594 7438 8245 6022 6140 6706 6139 
10 1573 1013 1616 1574 8320 8606 6248 6070 8321 6249 
10 408 409 1240 1121 2331 7651 8529 8209 7007 4993 
10 254 369 150 1086 8459 2212 6294 4535 8461 6664 
10 565 1348 1351 678 9250 5345 9068 3140 7768 7770 
10 1518 785 790 1448 6853 3495 7916 5882 7689 7832 
10 379 38 1096 39 2242 8054 8053 2243 1645 8983 
10 154 1090 259 258 8857 4546 6298 6313 4547 1875 
10 562 408 1240 1120 2780 8529 7776 7777 8979 4992 
10 1400 1348 678 1426 5510 7768 9251 5590 5588 7769 
10 785 783 678 1426 3480 3470 3479 6854 9066 7769 
10 1134 1135 1217 423 4720 4926 4927 7020 7022 9252 
10 1135 423 1249 1217 7022 9130 5016 4926 9252 5069 
10 407 408 562 1120 2328 2780 2781 8978 8979 7777 
10 358 359 1077 504 2183 6633 8143 2614 2615 8904 
10 367 433 368 1142 2814 2820 2210 6756 6703 9201 
10 555 685 559 1350 3163 3164 2772 6569 9240 6567 
10 773 1411 865 866 7722 9019 3741 3743 7017 3745 
10 673 546 547 1339 3125 2740 3124 7401 9048 7402 
10 388 24 1104 48 9195 4589 8586 2269 1933 7771 
10 548 688 1242 549 3215 7959 7976 2746 3214 9162 
10 687 1145 569 435 8418 8220 3173 3172 7334 2811 
10 1255 638 511 1209 8045 3026 9253 5398 8738 6903 
10 144 363 1081 248 2194 8733 6562 6304 9233 4521 
10 268 267 1120 162 1886 4634 4635 4094 4138 8980 
10 695 1498 887 888 7672 7673 3825 3828 9254 4033 
10 1323 651 1403 759 7173 7172 5517 8239 3535 8552 
10 528 529 1223 655 2687 7469 8355 3069 3070 7470 
10 1364 679 1362 1251 8283 7590 5630 5404 8147 5393 
10 1569 929 988 953 7909 4254 8560 8467 4204 4212 
10 1102 528 1103 1223 8278 9086 4587 4943 8355 4942 
10 529 528 1103 387 2687 9086 7175 2685 2683 7176 
10 539 1232 665 666 7072 8035 3100 3102 8036 3104 
10 49 389 390 1105 2272 2276 2274 8116 7282 7283 
10 828 827 1382 731 3634 9050 8744 3632 3630 7274 
10 609 1181 1294 1295 8406 5169 8711 7739 5173 5174 
10 909 831 1460 1461 3893 9177 8720 8721 9178 5701 
10 825 1476 1381 1380 8735 5745 8497 8515 5746 5451 
10 640 1287 1171 1235 8817 5150 7857 9255 5151 4981 
10 1476 826 1381 1457 8928 8498 5745 5748 8505 5689 
10 985 1591 989 988 7229 9256 4313 4213 8561 4241 
10 387 23 1103 47 7494 4586 7176 2266 1931 6627 
10 825 826 1381 1476 3628 8498 8497 8735 8928 5745 
10 621 742 622 1305 3351 3352 2981 8517 8731 8423 
10 743 623 1306 744 3355 8845 8844 3359 3357 8939 
10 622 1192 1305 623 9053 5202 8423 2984 8513 8424 
10 742 839 743 1392 3665 3666 3356 8730 7751 8729 
10 839 742 1391 1392 3665 8114 8330 7751 8730 5484 
10 1111 1112 398 32 4614 6614 6613 4609 4613 8270 
10 525 524 1220 383 2675 9257 8420 2673 2671 9248 
10 985 1569 1562 1591 8559 6148 7848 7229 6151 6201 
10 1148 434 571 1360 7043 2826 9093 5379 8626 9258 
10 764 651 1403 1340 3413 7172 9259 8253 7174 5519 
10 1221 1100 525 1220 4937 9194 8419 4938 4933 8420 
10 385 44 384 1101 2259 2257 2261 6887 8769 8417 
10 1335 666 779 778 7914 3457 7901 8959 3455 3459 
10 187 70 71 293 6409 1678 6410 7010 1981 1982 
10 460 1170 670 461 7858 8880 3114 2487 8957 3115 
10 1155 1156 581 445 4749 8551 7070 8909 7012 2859 
10 302 1030 449 1031 6630 6674 2451 6629 4372 6676 
10 651 524 1220 525 3057 9257 9125 3058 2675 8420 
10 524 383 1099 1220 2671 9127 8692 9257 9248 4934 
10 1336 666 667 779 7915 3107 7879 7881 3457 3458 
10 572 567 1140 428 2831 9215 8028 2829 2797 7587 
10 1348 555 1217 1350 8827 6568 5334 5342 6569 5341 
10 1271 1272 1418 702 5107 5561 5562 8914 8792 7521 
10 423 555 559 1217 2762 2772 2770 9252 6568 6566 
10 685 682 1350 1425 3165 9239 9240 7807 7923 5585 
10 50 27 391 51 1938 9237 2277 1657 1960 2278 
10 539 540 1233 666 2720 8473 7073 3102 3103 8772 
10 1234 542 1114 1235 8371 6954 4975 4980 8372 4979 
10 640 1287 1235 668 8817 5151 9255 3194 9260 8373 
10 1249 1353 1350 559 5351 5352 5340 6565 9261 6567 
10 1365 804 701 1418 6995 3560 8694 5563 7520 7554 
10 474 473 608 1180 2526 2937 2938 9262 7308 9027 
10 849 1354 1434 1439 9143 5867 8666 8637 5632 5849 
10 606 607 472 1179 2936 2934 2932 7377 8312 7378 
10 849 1399 1439 1434 9263 5835 8637 8666 5614 5849 
10 873 1474 1513 1439 8304 5865 7968 8308 5836 5864 
10 881 891 1516 1491 4151 7124 6889 6890 7122 5876 
10 1188 1059 483 482 4843 8194 8064 7114 8195 2553 
10 1246 565 1351 645 7299 9068 5344 7300 3045 9067 
10 221 1057 113 222 4450 8962 6353 1837 4449 6354 
10 614 1299 735 615 7209 8748 3330 2960 7210 3331 
10 957 958 897 1558 4073 4071 4069 9264 8716 9183 
10 873 1474 1439 848 8304 5836 8308 3946 8449 8636 
10 232 126 127 348 6387 1735 6373 7990 2149 2150 
10 1064 344 229 1065 8175 9163 4470 4475 8964 4474 
10 1001 1004 983 1616 4249 4246 4235 9265 8683 8438 
10 674 553 1352 645 3129 8656 8655 3130 3044 8868 
10 705 1366 1367 1274 8415 5411 9266 6785 5407 5410 
10 1069 495 349 350 8284 2587 6991 6766 2588 2157 
10 501 500 1150 1073 2607 7146 8292 8088 8083 4731 
10 792 718 1286 1446 3502 8486 8934 9196 9267 5657 
10 645 1448 1352 790 7690 5665 8868 3494 7832 8869 
10 299 77 1029 300 2000 6610 8556 2004 2002 6608 
10 1346 792 1286 1446 9042 8934 5330 5658 9196 5657 
10 585 586 1275 707 2875 7320 7322 3248 3249 6690 
10 962 1555 1601 1570 8865 6162 9115 9173 6058 6164 
10 1182 611 1183 1296 8378 7255 4829 5176 9268 5175 
10 1457 827 1382 1458 8183 9050 5688 5692 8184 5691 
10 1243 552 510 1083 7234 2832 7233 5060 8096 8340 
10 1448 645 1352 1351 7690 8868 5665 5664 9067 5349 
10 826 827 1382 1457 3631 9050 8506 8505 8183 5688 
10 1201 595 1150 1284 7143 7144 4884 5144 8093 5143 
10 375 155 1091 260 2229 7535 7536 7852 6285 4549 
10 435 572 1140 428 2830 8028 7335 2403 2829 7587 
10 412 1125 1618 413 7905 6965 9001 2343 6967 6966 
10 572 1257 1259 1140 8764 5051 8027 8028 5040 5050 
10 623 1192 1305 1306 8513 5202 8424 8845 5206 5207 
10 1469 842 1394 1470 8725 8719 5723 5728 8718 5727 
10 437 1149 1252 1021 8897 5026 9078 8697 4727 5025 
10 1248 566 557 1362 7837 2837 8275 5391 8574 7589 
10 481 616 1187 1186 2961 7219 8130 6915 7220 4841 
10 566 676 557 1362 3135 3136 2837 8574 7588 7589 
10 1552 957 897 1558 8907 4069 9184 6017 9264 9183 
10 557 1248 1362 1251 8275 5391 7589 8148 5022 5393 
10 786 1445 1480 1362 8774 5758 8832 8281 5654 5757 
10 1090 1211 373 516 4908 7945 8157 9080 7710 2646 
10 892 1368 1494 809 7560 5801 9269 3839 7561 9270 
10 1567 850 1491 1449 7574 8224 6049 6048 7575 5793 
10 586 1276 1160 1159 6643 5117 6645 7321 5118 4761 
10 807 1366 1491 1449 8938 5791 9271 7757 5671 5793 
10 676 1445 786 1362 8773 8774 3481 7588 5654 8281 
10 1554 907 908 967 7002 3891 8961 7003 4101 4102 
10 968 1554 908 967 8429 8961 4104 4106 7003 4102 
10 576 1151 1152 439 8522 4737 8521 2843 8160 9213 
10 981 992 1608 1571 4240 9151 8604 9272 8266 6205 
10 1541 876 786 1480 8669 3776 8949 5956 8670 8832 
10 201 88 202 311 6438 6439 1816 9004 2035 9005 
10 941 1566 1603 1594 8598 6170 6616 7546 6235 6233 
10 873 1474 848 925 8304 8449 3946 3996 8305 3944 
10 1582 900 1560 960 6590 6592 6094 9273 4078 9274 
10 979 1535 922 921 7891 7655 4180 4141 7892 3936 
10 489 1193 623 624 8203 9275 2983 2985 6984 2987 
10 104 214 1050 215 6339 4429 8032 6340 1830 4428 
10 950 1563 1580 1590 9276 6147 8351 8789 6127 6200 
10 480 1185 614 1186 6942 6911 2956 8852 4838 7211 
10 1499 1563 1512 890 6034 6035 5862 8242 8501 8243 
10 108 330 109 218 2095 2096 1717 6346 8063 6347 
10 980 1563 1581 1580 8940 6102 6792 8349 6147 6088 
10 829 828 1383 732 3637 8510 8750 3635 3633 7277 
10 1523 1554 1602 967 6014 6168 6169 7005 7003 9075 
10 1070 234 235 129 4489 1850 4488 8975 6375 6376 
10 1068 232 127 348 4483 6373 8858 6523 7990 2150 
10 610 731 611 1296 3318 3319 2948 9221 7275 9268 
10 1193 1192 623 1306 4859 8513 9275 5205 5206 8845 
10 1200 353 498 1071 9191 2597 6696 4879 7074 9170 
10 980 1563 1580 950 8940 6147 8349 4149 9276 8351 
10 491 1194 625 626 7742 6983 2989 2991 7743 2993 
10 1268 671 690 677 8487 3187 8891 6923 3540 3544 
10 950 1557 1590 1579 8441 6128 8789 8442 6221 6222 
10 1413 775 868 867 7645 3749 8368 8207 3747 3751 
10 1094 377 1095 502 6870 8023 4563 8776 2659 8025 
10 8 435 9 428 2401 7329 1911 2382 2403 7261 
10 363 143 1080 248 2193 9277 8836 9233 6303 4517 
10 439 1023 1152 440 8158 4736 9213 2425 8948 9211 
10 371 513 514 1253 2639 2821 2641 7270 7269 7286 
10 369 511 1086 1085 2635 6904 8461 8460 6826 4536 
10 858 763 788 1435 3720 3516 3719 8468 7454 6805 
10 440 576 1152 439 2844 8521 9211 2425 2843 9213 
10 1238 781 1283 1239 6968 6969 5242 4991 7730 5243 
10 696 799 1372 1373 3548 7981 7982 8307 8610 5429 
10 266 407 267 161 8639 9113 1885 4164 2324 4139 
10 698 699 1317 1436 3226 8539 9278 6975 6974 5618 
10 1270 698 1317 1436 7187 9278 5238 5619 6975 5618 
10 1584 957 987 1548 7025 4219 7026 6104 8709 8055 
10 645 1246 1352 1351 7300 5346 8868 9067 5344 5349 
10 960 959 1582 899 4079 9279 9273 4077 4075 9231 
10 950 979 1579 1535 4145 8450 8442 8525 7891 6080 
10 1245 418 1129 1130 9200 7046 5006 5005 8780 4665 
10 753 1358 787 633 6663 8394 3545 3385 7608 3512 
10 893 950 1557 1590 4039 8441 8048 8787 8789 6128 
10 1436 699 1317 1438 6974 8539 5618 5626 8332 5625 
10 78 79 194 301 1686 6445 6423 2005 2006 7805 
10 454 1035 1163 455 7609 4768 6753 2470 7613 7082 
10 1553 893 1590 928 9140 8787 6126 6560 3958 8788 
10 1277 587 709 708 7549 3254 8386 8399 3252 3256 
10 453 452 1162 1033 2464 7346 7121 6934 6618 4766 
10 1553 893 1522 1590 9140 8047 6106 6126 8787 6125 
10 1500 1509 1568 875 5853 6053 6051 7866 7412 7414 
10 1445 1425 758 1517 5653 7809 7794 5879 5877 7795 
10 1225 531 1226 1328 7216 7217 4953 5272 8588 5271 
10 1357 696 1372 1373 6850 7982 5743 5506 8307 5429 
10 696 1357 1316 1373 6850 5385 7305 8307 5506 5507 
10 322 212 1048 323 8717 4423 9014 2076 9167 8995 
10 1047 212 1048 322 4419 4423 4424 7156 8717 9014 
10 831 830 1460 1385 3643 8929 9177 8112 8798 5696 
10 222 113 114 335 6354 1722 6355 9137 2110 2111 
10 730 1381 1382 1295 8504 5454 9051 8503 5449 5453 
10 1588 972 973 986 7833 4121 8688 7835 4285 4286 
10 1531 1596 977 1532 6146 7704 7706 5931 6145 8583 
10 1522 893 1557 1590 8047 8048 6011 6125 8787 6128 
10 1201 499 1072 500 8300 8563 4882 7145 2604 8082 
10 1438 1436 801 1506 5626 6976 9223 5841 5842 9224 
10 1358 633 634 787 7608 3018 6863 8394 3512 3487 
10 1563 1553 1590 928 6036 6126 6127 8502 6560 8788 
10 551 1243 1126 552 7232 5002 6979 2755 7234 6980 
10 1226 532 659 658 8120 3081 7167 7166 3079 3083 
10 383 1100 1099 1220 7028 4578 9127 9248 4933 4934 
10 1232 1111 538 1231 4970 6773 8740 4971 4966 8742 
10 789 1480 1364 786 8831 5756 8295 3492 8832 8282 
10 611 1183 1297 612 7255 5179 7452 2951 8102 7453 
10 1183 611 1297 1296 7255 7452 5179 5175 9268 5180 
10 995 1017 1007 1613 4325 4316 4315 7764 7427 7485 
10 611 732 1297 1296 3321 7278 7452 9268 8192 5180 
10 1501 899 1504 1582 7095 6732 6009 6092 9231 6091 
10 1601 1610 1615 1010 6259 6253 6238 7332 9181 7222 
10 27 50 391 1106 1938 2277 9237 4594 9089 8783 
10 532 531 1226 390 2696 7217 8120 2694 2692 8779 
10 51 27 392 52 1960 7506 2280 1658 1939 2281 
10 389 25 1104 1105 8115 4588 8584 7282 4592 4593 
10 1112 398 58 399 6614 2299 8271 7089 2303 2301 
10 33 1112 58 399 4612 8271 1950 9099 7089 2301 
10 1112 33 1113 399 4612 4616 4617 7089 9099 9057 
10 540 1113 541 399 8472 8989 2723 2719 9057 2721 
10 1488 933 868 934 8359 3977 8455 7869 3981 3979 
10 540 1113 399 1112 8472 9057 2719 7088 4617 7089 
10 1400 685 1350 1425 7806 9240 5509 5586 7807 5585 
10 1123 165 410 411 7553 2332 8734 6876 2336 2337 
10 685 1400 1350 1348 7806 5509 9240 9280 5510 5342 
10 1127 552 1084 432 8132 7839 5079 7325 2773 7724 
10 1300 1299 1186 615 5189 5184 5188 7544 7210 7212 
10 1015 1612 998 997 8621 6589 4299 4298 9101 4227 
10 277 419 172 173 9199 2358 6497 6500 2359 1786 
10 1249 423 559 1217 9130 2770 6565 5069 9252 6566 
10 409 1122 269 164 7006 4640 7008 2329 6650 4004 
10 562 1239 1119 1120 7775 4989 9114 7777 4990 4636 
10 451 303 450 1032 2456 2454 2458 9136 7992 8595 
10 508 1080 1206 1205 8645 4895 7066 7065 4893 5048 
10 1353 682 1350 559 7921 9239 5352 9261 3154 6567 
10 1532 1577 977 978 6076 9060 8583 9281 8535 4136 
10 1014 1015 997 1614 4308 4298 4307 7170 9282 9283 
10 1612 1015 1614 997 8621 9282 6227 9101 4298 9283 
10 996 1014 997 1614 4312 4307 4224 9284 7170 9283 
10 1366 704 1417 1273 7293 7570 5560 5408 6693 5558 
10 381 18 1097 1098 6710 4567 6712 7368 4571 4572 
10 793 883 1361 692 3806 7513 7500 3515 3805 9117 
10 883 798 1361 692 3807 7515 7513 3805 3532 9117 
10 453 590 1163 1162 2885 6752 8793 7121 7081 4770 
10 73 189 295 296 6414 6778 1988 1990 8649 1992 
10 793 572 692 1259 3513 3197 3515 7944 8027 8765 
10 746 625 1308 626 3363 9285 9238 3364 2993 8591 
10 860 1477 768 1406 7395 6936 3726 8262 5750 6938 
10 749 845 1472 1396 3684 8724 6681 8527 8723 5733 
10 712 1373 1372 799 6733 5429 7358 3588 8610 7981 
10 712 1373 799 713 6733 8610 3588 3268 6735 3549 
10 1487 1488 1547 933 5783 5973 5974 7661 8359 6803 
10 749 748 845 1396 3374 3683 3684 8527 8756 8723 
10 1455 1379 824 823 5684 8011 8099 7032 7031 3622 
10 1453 1376 819 1377 5679 7715 7860 5680 5440 7692 
10 935 870 1489 926 3983 8444 8932 4043 3985 8493 
10 1421 816 817 1492 8972 3601 7099 5795 7578 8016 
10 828 827 906 1458 3634 3883 3884 8432 8184 8431 
10 730 731 1296 1382 3320 7275 9222 9051 7274 5452 
10 970 910 1526 911 4110 8338 8682 4111 3900 9286 
10 622 742 743 1305 3352 3356 3354 8423 8731 8422 
10 357 1167 1076 1075 8739 5045 8237 6801 5055 4508 
10 5 90 240 203 6398 7443 1856 1818 6399 4397 
10 906 905 965 1524 3885 4095 4096 8593 8594 8618 
10 1144 430 1236 404 7052 8299 4982 6856 2388 6623 
10 1532 1533 1577 978 5934 6075 6076 9281 8015 8535 
10 429 137 241 1075 2387 6270 9287 6799 6800 4504 
10 1202 358 1077 504 8142 8143 4885 8903 2614 8904 
10 551 1125 414 1126 7474 6964 2750 6979 4654 6981 
10 90 203 1039 240 6399 4394 8029 7443 4397 4693 
10 551 1207 550 1265 7479 9077 2752 7480 5083 8999 
10 831 1386 1461 832 8111 5699 9178 3646 7728 9288 
10 918 1533 978 919 7407 8015 4134 3924 8013 4135 
10 672 673 1168 509 3126 8941 8353 3509 3185 8354 
10 1168 509 1205 1081 8354 8981 4894 4784 8596 4892 
10 730 1382 1296 1295 9051 5452 9222 8503 5453 5177 
10 520 671 1268 545 3119 8487 8530 2735 3118 8676 
10 610 1182 1295 1296 7738 5172 7737 9221 5176 5177 
10 985 1583 1002 989 7204 7203 4243 4313 7225 4256 
10 746 626 1308 747 3364 8591 9238 3368 3366 8592 
10 1394 745 1307 746 6944 6945 5489 9141 3365 6978 
10 1395 746 1308 747 9142 9238 5492 8643 3368 8592 
10 663 1333 776 664 8732 7627 3448 3098 7631 3449 
10 660 661 1330 773 3089 9247 8875 3439 3440 8876 
10 1104 389 1105 1225 8584 7282 4593 4949 8634 4948 
10 403 37 63 36 7540 1958 2314 7541 1642 1957 
10 215 105 1051 326 6341 8211 4432 8039 2084 8040 
10 766 1325 1407 767 9289 5528 9135 3423 6580 6581 
10 653 654 1325 766 3068 9144 9193 3418 3419 9289 
10 1328 1226 1329 658 5271 5275 5276 8589 7166 7168 
10 1021 438 1252 437 8577 8155 5025 8697 2419 9078 
10 860 767 1407 1406 3725 6581 9020 8262 6582 5530 
10 782 1347 1429 1402 8041 5598 6655 8520 5514 5600 
10 288 66 65 183 1967 1673 1966 6775 6402 6442 
10 421 1133 1132 1246 6748 4673 8570 8658 5008 5009 
10 420 419 1131 173 2362 8991 8403 2360 2359 8256 
10 135 6 182 64 1744 6397 8899 1963 1671 6400 
10 287 183 65 64 6781 6442 1965 1964 6401 1672 
10 744 1393 1307 1306 8839 5485 6972 8939 5486 5210 
10 782 1500 1429 885 8519 5819 6655 3814 9152 6656 
10 183 288 1020 1019 6775 6776 4338 4335 9217 4339 
10 1326 1405 1406 768 5524 5527 5525 9031 6937 6938 
10 767 1326 1406 768 9061 5525 6582 3426 9031 6938 
10 1499 891 1418 1516 8853 9204 5815 5875 7124 5874 
10 1271 1365 701 1418 5405 8694 8767 5562 5563 7554 
10 69 70 186 292 1677 6408 6443 1978 1979 6958 
10 586 1276 1275 707 6643 5119 7320 3249 9202 6690 
10 160 266 406 1118 4165 8640 2321 8236 4629 8762 
10 583 1157 1273 1274 7676 5108 8405 6784 5112 5113 
10 695 573 570 1374 3210 2833 3209 7931 8542 9149 
10 583 584 1157 1274 2869 9006 7676 6784 6783 5112 
10 918 1532 977 978 7406 8583 4132 4134 9281 4136 
10 1533 1532 918 978 5934 7406 7407 8015 9281 4134 
10 1446 871 1490 1416 8905 8906 5811 5744 7861 5787 
10 314 1040 503 1041 9290 8664 2612 9189 4403 8955 
10 851 871 1416 779 3820 7861 9110 3761 3759 7863 
10 1477 861 768 1405 7396 3728 6936 5749 7849 6937 
10 1416 851 779 1427 9110 3761 7863 5668 8997 7882 
10 1519 1498 1451 888 5891 5817 5890 9023 9254 8260 
10 744 1392 1393 1306 9291 5487 8839 8939 5482 5486 
10 1578 1519 949 955 6190 8178 8179 8511 9219 4155 
10 623 1193 1306 624 9275 5205 8845 2987 6984 6985 
10 573 693 1374 695 3203 7929 8542 3210 3537 7931 
10 750 629 1311 630 3375 7648 7649 3376 3005 9122 
10 881 1520 1553 796 6888 5991 6561 3799 8726 9220 
10 792 851 1446 1427 3700 9111 9196 8998 8997 5659 
10 629 495 1311 630 3001 9292 7648 3005 3003 9122 
10 1177 1290 604 1291 5157 7640 7642 5161 5162 7622 
10 1354 849 697 1439 9143 3722 8303 5632 8637 7186 
10 1430 760 717 642 7714 3403 7417 8125 3401 3279 
10 760 1430 1343 642 7714 5603 7440 3401 8125 7441 
10 1446 851 1416 1427 9111 9110 5744 5659 8997 5668 
10 849 848 1439 1399 3697 8636 8637 9263 9104 5835 
10 1101 1222 527 1102 4940 6929 8250 4584 4939 7883 
10 848 1474 1439 1399 8449 5836 8636 9104 5738 5835 
10 1438 699 802 801 8332 3554 8361 9223 3553 3556 
10 759 1322 644 1403 7614 7616 3399 8552 5518 9293 
10 1322 1321 644 1404 5253 8221 7616 5520 5521 8021 
10 859 761 1478 764 3796 7446 7387 3797 3543 7759 
10 474 1180 1181 1052 9262 4823 9120 8094 4818 4822 
10 1513 1436 1506 801 5863 5842 5866 7969 6976 9224 
10 474 475 1053 1181 2529 7736 8095 9120 7755 4821 
10 1229 1108 1109 394 4961 4605 4960 9091 6772 7478 
10 1111 396 538 1110 8702 2712 6773 4611 8703 9154 
10 662 536 1229 1230 3091 8140 7424 8269 7404 4965 
10 105 104 326 215 1713 2083 2084 6341 6340 8039 
10 943 925 1506 801 4015 7956 9032 4013 3997 9224 
10 1133 421 422 565 6748 2367 6625 9132 2790 2791 
10 1256 565 555 1348 9131 2792 7264 5335 9250 8827 
10 1133 421 565 1246 6748 2790 9132 5008 8658 7299 
10 1617 1137 425 178 8660 7292 9294 8228 8274 2373 
10 925 1513 1506 801 7151 5866 7956 3997 7969 9224 
10 685 555 678 1348 3163 3141 3171 9280 8827 7768 
10 940 1369 1450 811 8402 5673 9295 3841 8508 8206 
10 424 1248 1136 1249 7836 5014 9003 7023 5017 5015 
10 1236 521 560 1285 6621 2776 6622 5145 7333 9296 
10 1342 1258 568 754 5316 7289 8128 9102 8892 3387 
10 1279 1278 1162 589 5128 5123 5127 7359 8367 7347 
10 857 1494 852 892 7741 7913 3718 3956 9269 3955 
10 521 680 560 1285 3148 3149 2776 7333 7315 9296 
10 507 677 636 1206 3138 3139 3021 7889 6924 7001 
10 587 1277 1161 1160 7549 5120 7551 6646 5121 4764 
10 708 1368 809 1369 7559 7561 3578 7196 5417 7197 
10 940 852 1450 1494 4205 9298 9295 9297 7913 5803 
10 1254 1118 405 406 5032 8235 9033 9299 8762 2322 
10 1369 940 1450 1494 8402 9295 5673 5800 9297 5803 
10 464 319 1173 465 2495 9159 8091 2499 2497 8990 
10 894 852 1450 940 4017 9298 8396 3850 4205 9295 
10 816 1507 1443 719 7577 5845 8843 3596 8477 7431 
10 1299 1386 1385 735 5465 5466 5461 8748 7702 8113 
10 1527 911 1462 912 8678 9139 5915 8679 3903 9300 
10 475 474 609 1181 2529 2940 2941 7755 9120 8406 
10 1554 1586 1602 967 6113 6167 6168 7003 8430 9075 
10 1368 892 1494 1493 7560 9269 5801 5797 7846 5802 
10 894 1454 1450 852 7772 5828 8396 4017 7773 9298 
10 748 749 1310 1396 3374 7788 8018 8756 8527 5494 
10 1397 749 1472 1396 6680 6681 5732 5499 8527 5733 
10 844 1470 1471 1395 7036 5731 7617 7747 5726 5730 
10 843 1394 1395 746 8375 5493 7746 3677 9141 9142 
10 352 497 1070 351 2594 9301 9022 2163 2593 8977 
10 490 1193 1194 1065 8204 4862 9018 9164 4857 4861 
10 833 832 911 1462 3649 3898 3899 7821 7820 9139 
10 751 1399 752 1312 9105 8557 3383 8753 5504 8882 
10 972 971 1588 1527 4118 7834 7833 8790 8677 6120 
10 847 1474 751 1398 8448 9103 3690 7178 5739 8526 
10 1474 847 751 848 8448 3690 9103 8449 3694 3692 
10 662 1332 774 775 7422 7927 3443 3445 7964 3447 
10 660 1227 1330 1228 6896 5278 8875 9302 4959 5277 
10 1463 1527 1462 912 5914 5915 5707 8347 8679 9300 
10 1150 501 1019 1020 8292 8768 4730 4729 8293 4339 
10 705 706 1274 1367 3247 9166 6785 9266 9197 5410 
10 1200 1199 498 632 4880 6849 6696 6697 6848 3010 
10 353 1200 498 499 9191 6696 2597 2599 8301 2601 
10 751 1312 752 631 8753 8882 3383 3379 8755 3381 
10 859 860 1482 856 3727 8261 8635 3809 3950 8153 
10 302 301 449 1030 2010 2450 2451 6630 6672 6674 
10 852 1454 755 791 7773 7591 3705 3704 7774 3499 
10 894 940 1450 811 3850 9295 8396 3847 3841 8206 
10 310 309 457 1037 2034 2474 2475 8796 7531 8163 
10 237 133 238 1073 6381 6382 1853 4498 8894 4497 
10 1342 1419 795 694 5566 7761 9106 7295 7296 3521 
10 1342 1375 795 1419 5581 7265 9106 5566 5790 7761 
10 1498 1519 1557 887 5891 6012 6010 7673 9218 8050 
10 552 365 1083 1084 2817 6881 8096 7839 8134 4531 
10 1420 1452 762 1567 5677 7597 7489 5883 6101 8297 
10 706 705 807 1367 3247 3571 3572 9197 9266 7490 
10 895 935 956 1549 4160 4167 4065 9090 9303 9124 
10 767 860 768 1406 3725 3726 3426 6582 8262 6938 
10 1046 320 321 466 6653 2070 7050 7718 2500 2501 
10 1377 1453 1492 818 5680 5796 5794 6812 7853 8538 
10 1427 667 780 779 7880 3460 7897 7882 3458 3462 
10 889 1424 797 813 8267 7682 3951 3832 8993 4040 
10 852 1454 1450 1494 7773 5828 9298 7913 5896 5803 
10 792 596 1286 597 3500 6722 8934 3501 2906 6720 
10 1552 1453 897 896 5987 7855 9184 8846 7854 3858 
10 1210 514 1088 372 7284 7285 4907 7319 2642 6823 
10 911 1526 1527 1462 9286 5916 8678 9139 5911 5915 
10 475 609 1182 1181 2941 7740 7392 7755 8406 4826 
10 990 1587 1583 995 7760 6117 7459 4217 7763 7224 
10 940 892 1494 809 4175 9269 9297 4003 3839 9270 
10 1070 234 129 350 4489 6375 8975 8976 6764 2156 
10 660 1227 659 1330 6896 7165 3086 8875 5278 6816 
10 1543 884 1495 1483 8705 8264 5964 5963 8475 5826 
10 1594 994 1559 1611 7963 7671 6139 6216 7280 6215 
10 1595 1575 1000 1565 6173 7273 8797 6213 6136 9304 
10 980 924 1537 943 4156 7103 7733 4150 4060 9054 
10 685 682 1425 758 3165 7923 7807 3396 3397 7809 
10 980 1563 950 928 8940 9276 4149 4148 8502 4038 
10 1309 748 1310 1396 7303 8018 5219 5495 8756 5494 
10 682 1445 756 676 7922 7792 3392 3156 8773 3393 
10 682 1445 758 756 7922 7794 3397 3392 7792 3398 
10 1203 690 1268 1314 7448 8891 5139 5229 7450 5356 
10 990 995 1583 989 4217 7224 7459 4214 4216 7225 
10 929 863 1479 930 3961 7583 7779 3966 3964 7781 
10 1430 760 855 717 7714 3712 7418 7417 3403 3711 
10 1536 1471 1472 845 5942 5734 5941 8829 8722 8724 
10 1515 854 893 796 7055 4059 8937 7481 3708 3846 
10 1221 1101 1222 526 4936 4940 4941 9174 8251 9145 
10 1553 893 1515 1522 9140 8937 6107 6106 8047 5903 
10 893 1553 1515 796 9140 6107 8937 3846 9220 7481 
10 814 1551 872 1497 7974 7128 3767 9156 5986 9129 
10 1551 1496 872 1497 5985 7129 7128 5986 5810 9129 
10 979 1534 921 920 7251 7890 4141 4140 7253 3930 
10 1420 1515 691 1428 5872 7482 7488 5597 5871 7429 
10 854 695 691 1428 3710 3211 3709 7054 8896 7429 
10 1374 691 570 695 7428 3193 9149 7931 3211 3209 
10 253 148 149 368 6283 1758 6306 8453 2208 2209 
10 695 1498 1428 854 7672 5814 8896 3710 7473 7054 
10 1083 365 251 1084 6881 8133 4526 4531 8134 4530 
10 1367 807 1493 1449 7490 7492 5798 5670 7757 5799 
10 1473 925 1474 1513 7150 8305 5740 5947 7151 5865 
10 1276 1277 708 587 5122 8399 7558 6644 7549 3252 
10 909 1525 910 1461 7872 8336 3897 8721 5909 8337 
10 1311 495 1197 1198 9292 8623 5221 5220 8285 4874 
10 770 1408 1328 657 7785 5531 8815 3430 7786 8874 
10 1014 1003 1610 996 4295 8602 8603 4312 4327 9180 
10 16 264 38 1096 4564 8052 1916 4566 4702 8054 
10 1338 788 1440 669 7064 6806 5634 7195 3488 7822 
10 1527 1573 970 971 6066 8322 9035 8677 9227 4115 
10 1576 1531 976 975 6073 7707 9085 6839 6577 4130 
10 380 18 381 40 6709 6710 2249 2245 1920 2247 
10 839 840 1468 918 3670 7748 7750 3919 3920 7408 
10 1221 1222 653 526 4941 6928 6666 9174 9145 3063 
10 913 1463 1528 1464 8346 5918 7343 8108 5710 5917 
10 1111 539 1232 538 6611 7072 4970 6773 2717 8740 
10 996 1610 1601 1010 9180 6259 7331 4272 9181 7332 
10 1546 990 932 933 7461 4194 9045 9047 4195 3978 
10 914 1529 1528 973 8110 5922 7344 4120 8031 7345 
10 1608 992 1559 1571 9151 7669 6206 6205 8266 6062 
10 533 1106 1227 1107 8782 4955 6895 9235 4599 4954 
10 1566 853 1517 1594 8597 7797 6046 6235 7545 6204 
10 1565 942 1000 954 9161 4232 9304 7245 4062 4289 
10 382 523 1219 1098 2668 7367 8691 7376 7497 4931 
10 1016 1606 993 1012 8864 8573 4306 4323 8580 4332 
10 936 1585 1542 949 9069 6109 8135 4036 9088 8137 
10 1542 1585 1572 949 6109 6110 6064 8137 9088 8180 
10 1435 788 1440 1338 6805 6806 5636 5623 7064 5634 
10 1309 748 1396 1395 7303 8756 5495 5491 9234 5496 
10 1534 1533 978 1578 5937 8015 7252 6077 6078 8536 
10 943 1512 802 1506 8667 8302 4014 9032 5861 9225 
10 609 729 1295 1294 3313 8328 7739 8711 8329 5174 
10 1412 774 867 866 7016 3746 8177 7018 3744 3748 
10 320 1045 1174 1046 6597 4801 6599 6653 4418 4800 
10 1008 1018 1009 1593 4318 4319 4269 8952 7953 9108 
10 969 970 910 1526 4112 4110 4108 8923 8682 8338 
10 1512 943 802 890 8667 4014 8302 8243 4047 3834 
10 1474 847 1473 1398 8448 7180 5740 5739 7178 5735 
10 1595 1565 1000 954 6213 9304 8797 8567 7245 4289 
10 734 831 735 1385 3641 3642 3332 8747 8112 8113 
10 1573 971 1527 1588 9227 8677 6066 6121 7834 6120 
10 966 1602 1011 967 8547 8528 4275 4103 9075 4276 
10 254 253 149 1085 1870 6306 6295 4532 4533 8454 
10 927 1543 1544 1483 8579 6041 8616 8474 5963 5966 
10 684 1320 1338 1435 6831 5305 7063 7062 5617 5623 
10 640 543 1171 503 3030 8911 7857 3031 2822 8633 
10 889 1424 813 1511 8267 8993 3832 7161 5857 6572 
10 983 882 944 1592 4161 4019 4184 8439 8391 8392 
10 816 926 895 1549 4016 4054 3851 7579 9305 9090 
10 62 36 403 63 1962 7541 2313 1669 1957 2314 
10 1574 1606 1004 1616 6193 6959 6961 6249 6250 8683 
10 993 1606 1598 1004 8573 6257 9147 4248 6959 9169 
10 844 843 1395 747 3682 7746 7747 3680 3678 8643 
10 1598 1004 1616 952 9169 8683 6254 8826 4247 8684 
10 1024 188 1025 294 4349 4353 4354 6575 6573 8240 
10 885 1565 954 942 8681 7245 4061 4011 9161 4062 
10 1599 1564 1616 952 6158 6255 6261 8401 7557 8684 
10 1574 968 999 1586 7463 4228 6962 6114 8428 8582 
10 441 1024 294 293 8946 6575 2427 2426 7011 1986 
10 1024 441 294 1025 8946 2427 6575 4354 8791 8240 
10 904 903 964 1561 3879 4089 4090 6719 6717 7208 
10 1024 71 294 293 6574 1984 6575 7011 1982 1986 
10 937 938 1559 1594 3995 7670 8245 6706 6707 6139 
10 844 1471 1396 1395 7617 5729 8757 7747 5730 5496 
10 1475 927 947 1544 9116 4037 6585 5965 8616 7943 
10 200 309 1036 86 7529 7530 4385 6435 2029 6782 
10 499 354 1072 500 2600 8007 8563 2604 2602 8082 
10 1199 496 1198 1070 9063 7810 4877 4876 9306 4872 
10 816 1507 926 1549 7577 8490 4016 7579 6003 9305 
10 948 982 1571 1521 4238 7936 7667 7666 9146 6063 
10 948 981 1543 1571 4152 8578 7668 7667 9272 6131 
10 199 308 85 86 7598 2026 6433 6434 2027 1693 
10 310 201 1038 311 8794 4392 8795 2037 9004 7200 
10 1608 994 1611 1559 8982 7280 6214 6206 7671 6215 
10 93 92 314 205 1701 2047 2048 6321 6320 9190 
10 1608 992 994 1559 9151 4211 8982 6206 7669 7671 
10 981 948 992 1571 4152 4239 4240 9272 7667 8266 
10 983 1001 1616 1592 4235 9265 8438 8439 9016 6258 
10 1512 943 1581 1506 8667 6793 6097 5861 9032 6089 
10 902 903 1570 963 3876 8550 9307 4086 4087 9172 
10 105 215 1051 216 6341 4432 8211 6342 1831 4431 
10 1455 902 1570 1555 8098 9307 6057 5997 8164 6058 
10 473 474 1052 1180 2526 8094 8084 7308 9262 4818 
10 630 1398 751 1312 9121 8526 3378 8754 5500 8753 
10 496 1199 497 1070 9063 6847 2595 9306 4876 9301 
10 442 1025 1153 1154 6634 4738 7902 6636 4742 4743 
10 128 1069 349 350 6765 6991 2153 2155 6766 2157 
10 127 1068 348 349 8858 6523 2150 2152 6990 2154 
10 1398 1399 751 1312 5505 9105 8526 5500 5504 8753 
10 474 1181 1053 1052 9120 4821 8095 8094 4822 4439 
10 1168 673 1205 509 8941 7086 4894 8354 3185 8981 
10 363 508 509 1081 2625 2629 2627 8733 8646 8596 
10 903 902 1570 1455 3876 9307 8550 8097 8098 6057 
10 509 364 1081 1082 2628 6564 8596 7037 6546 4525 
10 378 264 1095 1096 8770 4561 8024 9206 4702 4703 
10 376 157 1093 377 2233 8671 8104 2237 2235 6869 
10 771 772 1329 1410 3438 6813 7159 8915 8712 5538 
10 1188 617 483 618 7113 2965 8064 8802 2969 2967 
10 518 375 1213 1214 2652 7374 7375 6892 8985 4919 
10 17 39 380 1096 1918 2244 6843 4565 8983 9308 
10 375 518 376 1214 2652 2653 2234 8985 6892 8105 
10 226 1062 340 119 4465 8345 8344 6385 9309 2126 
10 224 1060 337 338 4459 8002 7380 7381 8004 2121 
10 962 902 1570 963 4084 9307 9173 4088 4086 9172 
10 529 388 1103 1224 2686 7177 7175 7466 9176 4946 
10 1555 902 1570 962 8164 9307 6058 8865 4084 9173 
10 1067 232 1068 348 4479 4483 4484 6521 7990 6523 
10 1223 529 1103 1224 7469 7175 4942 4947 7466 4946 
10 59 34 400 60 1952 9310 2304 1666 1953 2305 
10 541 1113 400 399 8989 9059 2722 2721 9057 2306 
10 1234 1336 667 1363 5295 7879 7632 5395 5396 7634 
10 1335 778 779 1416 8959 3459 7901 5556 7862 7863 
10 1041 314 460 503 9189 2483 8956 8955 2612 2613 
10 1311 495 1198 630 9292 8285 5220 9122 3003 7811 
10 716 797 1424 813 3763 7682 7509 3590 4040 8993 
10 943 801 1506 802 4013 9224 9032 4014 3556 9225 
10 511 638 1255 544 3026 8045 9253 3146 3147 7803 
10 378 264 379 159 8770 8051 2409 2239 6267 2392 
10 627 628 493 1196 2999 2997 2995 8651 8854 6950 
10 484 1188 483 618 8665 8064 2556 2968 8802 2967 
10 509 1168 688 1207 8354 7957 3179 7038 4900 7958 
10 1536 980 922 923 7732 4178 7654 7734 4181 3939 
10 980 1536 1581 1537 7732 6087 6792 7733 5946 6086 
10 246 1079 142 247 4516 8387 6314 1863 4515 6307 
10 139 244 359 140 6275 6632 2181 1749 6276 2182 
10 884 858 788 1483 3812 3719 3811 8475 8469 6807 
10 1536 980 1581 1580 7732 6792 6087 6083 8349 6088 
10 940 1369 809 1494 8402 7197 4003 9297 5800 9270 
10 297 298 75 191 1998 1996 1994 7886 7567 6417 
10 243 358 1077 1076 9171 8143 4510 4506 8144 4511 
10 1369 1368 809 1494 5417 7561 7197 5800 5801 9270 
10 704 583 1273 1274 3240 8405 6693 7294 6784 5113 
10 452 1161 1162 1033 7125 4767 7346 6618 4762 4766 
10 641 717 642 1319 3278 3279 3037 7709 8124 8126 
10 695 1498 1451 1374 7672 5817 7930 7931 5813 5675 
10 1588 1605 1013 986 6186 8605 9034 7835 8834 4300 
10 1287 668 670 780 9260 3508 9311 9074 3461 3507 
10 1287 1170 1346 670 5149 5328 5329 9311 8880 8881 
10 1001 1592 1605 1616 9016 6187 8833 9265 6258 6251 
10 598 718 1447 1286 3281 8425 9226 6837 8486 5661 
10 1415 871 778 1416 8916 3758 8917 5557 7861 7862 
10 1443 599 1315 720 7432 6817 5645 7433 3285 9207 
10 598 718 719 1447 3281 3284 3282 9226 8425 8427 
10 668 667 780 1363 3110 3460 3461 7635 7634 7898 
10 815 1507 719 1447 8481 8477 3595 8426 6152 8427 
10 1568 1592 1605 944 6133 6187 6184 7415 8392 9312 
10 825 728 1380 729 3623 8516 8515 3624 3314 9313 
10 1555 1456 901 1560 5998 7058 7828 6025 6023 7829 
10 408 268 162 163 8208 4094 2327 2326 4093 1774 
10 726 605 1292 606 3303 8324 8707 3304 2933 8325 
10 1430 855 1505 878 7418 8233 5839 7419 3783 8234 
10 1568 986 944 1605 8412 4183 7415 6184 8834 9312 
10 1606 1004 1616 1598 6959 8683 6250 6257 9169 6254 
10 1551 1566 1603 951 6045 6170 6171 7917 7918 9150 
10 711 1279 1371 1372 7356 5421 7181 7183 5425 5426 
10 1598 1551 1603 951 6153 6171 6172 8898 7917 9150 
10 1278 1279 711 589 5128 7356 9073 8367 7359 3260 
10 308 309 1036 456 2031 7530 7599 2471 2472 6686 
10 1091 517 1212 374 8581 8609 4911 7105 2649 9056 
10 1506 924 1537 1513 7955 7103 6060 5866 7152 6029 
10 1343 517 1212 1213 8057 8609 5318 5317 7373 4916 
10 1321 517 1343 1213 8056 8057 5320 5250 7373 5317 
10 1444 1478 1403 764 5753 5751 5650 7758 7759 9259 
10 365 145 250 146 2199 6279 6547 2200 1755 6299 
10 388 1103 1224 1104 7177 4946 9176 8586 4590 4945 
10 1430 1514 1505 855 5869 5870 5839 7418 8150 8233 
10 1602 1586 1011 967 6167 9314 8528 9075 8430 4276 
10 183 66 184 1020 6402 6403 1798 4338 6777 4337 
10 1354 574 1284 1252 7352 7353 5508 5355 7994 5375 
10 1479 929 1538 1539 7779 7780 5949 5950 7825 5952 
10 1586 1012 1011 967 8436 4279 9314 8430 4277 4276 
10 1021 438 437 290 8577 2419 8697 8668 2417 2415 
10 1576 1585 1550 954 6217 6111 6099 7246 9084 7247 
10 36 61 62 402 1956 1668 1962 8814 2310 2311 
10 574 1354 575 1252 7352 7526 2842 7994 5355 7528 
10 640 542 1235 543 3111 8372 9255 3030 2730 9315 
10 420 421 1132 553 2406 8570 8571 2757 2758 8657 
10 564 1247 1237 1337 8185 5074 8866 8785 5298 5299 
10 553 420 564 1247 2757 2788 2825 8186 9316 8185 
10 563 418 1245 556 2785 9200 8861 2786 2763 8863 
10 1134 423 1217 555 7020 9252 4927 7262 2762 6568 
10 1016 1606 1012 1586 8864 8580 4323 7235 6194 8436 
10 1361 798 1341 692 7515 8659 5383 9117 3532 7339 
10 1607 1589 1614 997 6199 6228 6264 8611 8612 9283 
10 1254 647 561 545 8674 3048 7752 8675 3049 2779 
10 507 1079 1203 1206 8759 4887 8760 7889 4896 4897 
10 996 1607 1614 997 8380 6264 9284 4224 8611 9283 
10 1610 1607 1614 996 6260 6264 6230 9180 8380 9284 
10 195 303 1032 1031 8006 7992 4374 4370 8173 4375 
10 1168 672 1241 1339 8353 7349 5387 5376 7400 5307 
10 594 715 1357 696 3272 6638 6640 3218 3505 6850 
10 587 451 1161 588 2877 7126 7551 2881 2879 7552 
10 590 1280 712 591 8309 6734 3263 2890 8310 3264 
10 349 1068 494 1197 6990 8884 2585 8624 4870 8625 
10 1375 715 795 800 7819 3787 7265 7267 3551 3792 
10 348 1068 494 349 6523 8884 2584 2154 6990 2585 
10 314 313 1040 205 2049 6555 9290 9190 6551 4399 
10 92 313 314 205 2046 2049 2047 6320 6551 9190 
10 1579 950 1580 1590 8442 8351 6085 6222 8789 6200 
10 727 1379 1380 1293 7547 5448 8010 8317 5443 5447 
10 1505 947 1475 878 6583 6585 5838 8234 4030 8566 
10 742 621 1304 1305 3351 7596 8413 8731 8517 5204 
10 953 1562 1569 1505 7701 6148 8467 7700 6030 6055 
10 1013 1573 1588 971 8320 6121 9034 4283 9227 7834 
10 740 836 1390 1389 3657 9317 7517 6906 6905 5478 
10 1514 953 1505 855 8466 7700 5870 8150 4052 8233 
10 330 331 109 1054 2100 2098 2096 7584 7108 9318 
10 1069 1070 1198 350 4490 4872 4873 6766 8976 8286 
10 291 290 438 1022 1977 2417 2418 7534 8587 8407 
10 805 891 1417 1418 3837 7123 9319 7519 9204 5564 
10 1070 496 1198 350 9306 7810 4872 8976 2590 8286 
10 639 1093 376 1215 9320 8104 2655 8805 4921 8106 
10 804 891 805 1418 3836 3837 3565 7520 9204 7519 
10 155 1091 260 259 7535 4549 6285 6284 4550 1876 
10 1063 342 120 228 6900 2131 8943 4467 6901 6364 
10 661 660 1330 1228 3089 8875 9247 7410 9302 5277 
10 639 649 1215 519 3166 8806 8805 2657 3204 9123 
10 370 513 371 1087 2638 2639 2219 7141 7268 6606 
10 341 487 1063 1062 2563 7688 8213 9198 8202 4469 
10 343 342 488 1063 2136 2566 2567 6898 6900 7686 
10 1591 1545 989 988 6165 7791 9256 8561 9118 4241 
10 990 1587 1005 1547 7760 7830 4253 6802 6115 8933 
10 1287 1235 668 1363 5151 8373 9260 5397 5394 7635 
10 1062 341 227 1063 9198 8942 4464 4469 8213 4468 
10 805 1272 1418 1417 9203 5561 7519 9319 5559 5564 
10 143 363 144 248 2193 2194 1753 6303 9233 6304 
10 1013 1001 1605 1616 4324 8833 8605 8606 9265 6251 
10 344 123 229 1065 2138 6367 9163 8964 9229 4474 
10 910 1526 911 1462 8338 9286 3900 9138 5911 9139 
10 970 1526 1527 911 8682 5916 9035 4111 9286 8678 
10 1070 496 350 351 9306 2590 8976 8977 2591 2160 
10 1585 936 1542 1510 9069 8135 6109 6108 7899 5962 
10 971 970 1527 911 4115 9035 8677 4113 4111 8678 
10 908 909 1460 1525 3894 8720 8930 7966 7872 5910 
10 1367 706 808 807 9197 3574 7491 7490 3572 3576 
10 762 850 796 1567 3698 3699 3525 8297 7574 8727 
10 1366 705 807 806 8415 3571 8938 7988 3569 3573 
10 911 833 1462 912 3899 7821 9139 3903 3901 9300 
10 705 1366 807 1367 8415 8938 3571 9266 5411 7490 
10 1158 584 1275 1274 9007 9039 5115 5111 6783 5116 
10 364 144 249 145 2196 6305 6563 2197 1754 6278 
10 1582 900 899 1504 6590 3867 9231 6091 6591 6732 
10 365 146 250 251 2200 6299 6547 8133 6293 1867 
10 606 726 727 1292 3304 3308 3306 8325 8707 8699 
10 833 1463 1462 912 8071 5707 7821 3901 8347 9300 
10 726 1378 1379 1292 8706 5445 7548 8707 5441 5444 
10 831 830 909 1460 3643 3892 3893 9177 8929 8720 
10 946 1569 1514 953 7908 6054 8149 4053 8467 8466 
10 1015 1016 998 1612 4304 4305 4299 8621 6587 6589 
10 946 1477 1482 1539 7818 5765 8512 7824 6118 6019 
10 1464 836 1389 1465 7874 6905 5708 5713 7471 5712 
10 1464 1388 835 834 5709 6872 6879 7398 7399 3655 
10 619 740 620 1303 3345 3346 2975 8968 8966 7602 
10 1189 1188 618 1302 4847 8802 8781 5193 5194 7603 
10 946 861 1477 1539 4024 7396 7818 7824 7823 6118 
10 1477 861 1481 1539 7396 7783 5762 6118 7823 5951 
10 861 929 1481 1539 3959 7784 7783 7823 7825 5951 
10 495 496 1198 630 2592 7810 8285 3003 3004 7811 
10 1514 946 1482 1539 8149 8512 5889 6020 7824 6019 
10 1124 166 271 411 7910 3962 4646 7912 2335 9321 
10 1151 438 1022 439 8154 8407 4734 8160 2422 8159 
10 1410 772 865 864 8712 3740 9322 8523 3738 3742 
10 677 1203 637 754 6922 8451 3184 3506 7449 3504 
10 165 1123 271 411 7553 4644 3963 2336 6876 9321 
10 166 165 271 411 1777 3963 3962 2335 2336 9321 
10 926 935 1549 1489 4043 9303 9305 8493 8932 5980 
10 282 423 424 1135 9323 2404 9324 4677 7022 9242 
10 1421 1443 1315 720 5644 5645 5570 7563 7433 9207 
10 1177 1048 469 468 4810 8996 6845 6844 7385 2511 
10 957 1552 897 896 8907 9184 4069 4068 8846 3858 
10 282 423 1135 281 9323 7022 4677 1902 7021 4678 
10 831 1386 1385 1461 8111 5466 8112 9178 5699 5700 
10 1554 908 1460 1525 8961 8930 5994 5996 7966 5910 
10 1257 683 1341 1250 7336 7337 5313 5042 8141 5314 
10 1135 1136 424 282 4681 9003 9242 4677 4680 9324 
10 1617 177 424 282 8225 2371 8229 8227 6507 9324 
10 282 423 281 177 9323 7021 1902 6507 2369 6508 
10 935 926 1549 895 4043 9305 9303 4160 4054 9090 
10 188 1025 294 72 4353 8240 6573 6412 8414 1985 
10 1489 926 1490 1549 8493 8491 5789 5980 9305 5979 
10 1604 1008 1007 960 8950 4266 8316 8951 4264 4262 
10 926 1507 1490 1549 8490 5993 8491 9305 6003 5979 
10 1016 1586 1012 1011 7235 8436 4323 4322 9314 4279 
10 441 442 294 1025 2431 2429 2427 8791 6634 8240 
10 727 726 1379 1292 3308 7548 7547 8699 8707 5444 
10 837 915 916 1466 3911 3915 3913 6658 9325 8537 
10 915 837 1465 1466 3911 9208 6927 9325 6658 5716 
10 915 1530 916 1466 6925 6578 3915 9325 5923 8537 
10 1530 915 1465 1466 6925 6927 5924 5923 9325 5716 
10 1034 1035 454 306 4384 7609 8311 6986 7611 2465 
10 195 81 196 1032 6426 6427 1810 4374 7991 4373 
10 89 311 312 1039 2036 2040 2038 9009 7199 6795 
10 929 1479 1481 1539 7779 5840 7784 7825 5950 5951 
10 1007 1587 1613 1604 8315 6223 7485 8316 6182 6226 
10 815 871 926 1490 3947 3948 3949 8489 8906 8491 
10 829 830 1460 908 3640 8929 8701 3889 3890 8930 
10 451 304 1032 1033 2457 7136 9136 7127 6619 4378 
10 1582 900 960 899 6590 4078 9273 9231 3867 4077 
10 959 898 1558 1582 4074 7962 8714 9279 9230 6093 
10 881 1553 1516 1499 6561 5989 6889 6559 5990 5875 
10 850 807 1491 1449 4002 9271 8224 7575 7757 5793 
10 891 1417 1418 1516 7123 5564 9204 7124 5873 5874 
10 1366 806 807 1491 7988 3573 8938 5791 7231 9271 
10 806 850 807 1491 3843 4002 3573 7231 8224 9271 
10 67 184 1021 185 6404 4341 8662 6405 1799 4340 
10 152 257 372 153 6310 7970 2220 1762 6311 2221 
10 94 315 316 1042 2051 2055 2053 7362 7361 8067 
10 915 1530 974 975 6925 8376 4123 4125 6579 4127 
10 151 256 371 152 6308 6605 2217 1761 6309 2218 
10 961 1555 1560 1593 7826 6025 7827 9182 6137 6138 
10 147 366 252 251 2203 6678 6281 6280 6679 1868 
10 960 1560 1604 1593 9274 6189 8951 8953 6138 6188 
10 105 1051 327 216 8211 8212 2086 6342 4431 9168 
10 898 959 899 1582 4074 4075 3864 9230 9279 9231 
10 898 1501 1558 1582 7960 6015 7962 9230 6092 6093 
10 473 1051 1052 327 8288 4436 8084 2521 8212 8085 
10 1051 216 1052 327 4431 4435 4436 8212 9168 8085 
10 1190 1061 1062 340 4849 4466 4848 6908 6910 8345 
10 1467 839 1468 918 7749 7750 5722 7877 3919 7408 
10 123 344 345 1065 2138 2142 2140 9229 8964 8856 
10 684 1210 514 1338 6830 7284 3160 7063 5302 7194 
10 884 788 1440 1483 3811 6806 9109 8475 6807 5767 
10 438 291 1022 439 2418 7534 8407 2422 2420 8159 
10 1257 567 1139 1140 7310 7312 5041 5040 9215 4722 
10 414 1618 413 168 6963 6966 2346 2345 7137 2341 
10 116 224 338 117 6394 7381 2119 1725 6359 2120 
10 1298 733 1384 1297 7096 8077 5458 5183 9232 5459 
10 1589 997 965 998 8612 4223 8408 8960 4227 4225 
10 827 826 905 1457 3631 3880 3881 8183 8505 8181 
10 1211 1090 1212 516 4908 4912 4913 7710 9080 8913 
10 730 827 731 1382 3629 3630 3320 9051 9050 7274 
10 480 614 615 1186 2956 2960 2958 8852 7211 7212 
10 1595 1575 973 1000 6173 8030 8478 8797 7273 4287 
10 124 345 346 1066 2141 2145 2143 8871 8484 8483 
10 832 1386 1461 1462 7728 5699 9288 7820 5703 5704 
10 1565 1575 1000 942 6136 7273 9304 9161 7271 4232 
10 1509 1500 1402 875 5853 5818 5852 7412 7866 7804 
10 885 936 954 1550 3990 4170 4061 8334 9062 7247 
10 1543 981 1600 1571 8578 8608 6161 6131 9272 6176 
10 981 1608 1600 1571 8604 6210 8608 9272 6205 6176 
10 1604 1008 1593 1613 8950 8952 6188 6226 7486 6245 
10 1596 1531 976 1576 6146 7707 7705 6179 6073 9085 
10 975 1576 954 976 6839 7246 4281 4130 9085 4280 
10 1587 990 1546 1547 7760 7461 6116 6115 6802 5975 
10 234 128 129 350 6389 1737 6375 6764 2155 2156 
10 895 1552 956 896 8974 8908 4065 3855 8846 4066 
10 506 360 1141 361 2619 7843 7844 2620 2189 7940 
10 1485 1486 932 865 5777 6941 8199 8954 6939 3970 
10 722 1289 723 602 9133 7572 3296 3292 6859 3294 
10 637 1141 1203 506 9243 4888 8451 3024 7844 8366 
10 381 523 382 1098 2667 2668 2252 7368 7497 7376 
10 1078 244 245 140 4513 1861 4512 9244 6276 6277 
10 564 674 1247 1337 3128 8187 8185 8785 8784 5298 
10 1367 1368 808 1275 5414 6689 7491 5409 5413 6691 
10 1016 1606 1586 1609 8864 6194 7235 7236 6209 6207 
10 991 993 1609 1598 4208 7998 7999 9148 9147 6263 
10 991 1609 1611 1603 7999 6241 7281 6617 6242 6232 
10 244 1078 359 140 4513 6631 6632 6276 9244 2182 
10 1604 1008 1613 1007 8950 7486 6226 8316 4266 7485 
10 961 960 1593 1560 4082 8953 9182 7827 9274 6138 
10 1015 1014 994 1611 4308 4311 4297 7919 7171 7280 
10 556 1347 646 681 8434 8042 3047 3151 8433 3190 
10 1589 1612 1614 997 6219 6227 6228 8612 9101 9283 
10 1006 959 1604 1007 4259 8713 8287 4263 4261 8316 
10 1560 960 1604 1582 9274 8951 6189 6094 9273 6262 
10 511 1255 1209 1261 9253 5398 6903 6827 5301 5067 
10 255 256 1087 151 1872 4537 4538 6296 6308 7142 
10 992 937 1559 982 4203 8245 7669 4290 4157 7935 
10 958 959 1604 1006 4076 8713 8715 4258 4259 8287 
10 1211 515 373 516 6751 2644 7945 7710 2648 2646 
10 1098 382 1099 1219 7376 8693 4575 4931 8691 4930 
10 1333 663 776 775 8732 3448 7627 7644 3446 3450 
10 380 1096 502 1097 9308 9205 2610 6711 4569 8800 
10 1018 1008 1613 1593 4318 7486 7952 7953 8952 6245 
10 533 391 1106 392 2697 8783 8782 2698 2282 9236 
10 869 1488 1414 868 9112 5781 8447 3754 8455 8456 
10 1003 1002 1615 1018 4291 7190 7192 4331 4333 7221 
10 1610 1003 1615 1010 8602 7192 6253 9181 4326 7222 
10 30 55 1110 395 1945 8808 4607 6884 2290 6885 
10 533 534 392 1107 2702 2700 2698 9235 7650 7507 
10 1115 543 403 1040 8910 2729 8994 4726 8663 7542 
10 543 1115 403 402 8910 8994 2729 2728 8813 2315 
10 711 710 879 1371 3262 3789 3790 7181 8232 7842 
10 36 402 62 403 8814 2311 1962 7541 2315 2313 
10 558 1075 1167 357 8231 5055 7085 2769 6801 8739 
10 36 1115 402 403 4621 8813 8814 7541 8994 2315 
10 959 1558 1604 1582 8714 6183 8713 9279 6093 6262 
10 960 959 1604 1582 4079 8713 8951 9273 9279 6262 
10 552 1126 414 415 6980 6981 2754 2753 8352 2349 
10 1211 641 515 516 7708 3033 6751 7710 3034 2648 
10 1127 552 432 415 8132 2773 7325 7484 2753 2395 
10 958 1584 1604 1558 7977 6181 8715 8716 6159 6183 
10 1248 1137 557 425 5013 7291 8275 7838 7292 2765 
10 1250 1364 1251 679 5403 5404 5023 8888 8283 8147 
10 717 641 763 1401 3278 3411 3412 7894 9326 7895 
10 641 1320 763 1401 8341 8022 3411 9326 5512 7895 
10 1139 1138 285 426 4689 4684 4688 8189 8544 8632 
10 554 1138 1139 426 8885 4689 9214 2759 8544 8189 
10 501 288 1019 1020 2800 9217 8768 8293 6776 4339 
10 1584 958 1604 1006 7977 8715 6181 7973 4258 8287 
10 641 1320 1401 1319 8341 5512 9326 7709 5248 5511 
10 528 1223 527 654 8355 9327 2684 3067 8356 3066 
10 838 837 1466 1391 3664 6658 7978 7420 6660 5714 
10 946 1569 953 929 7908 8467 4053 4025 7909 4204 
10 693 1432 877 689 7995 7996 3779 3536 8842 3780 
10 1223 1222 527 654 4944 6929 9327 8356 6930 3066 
10 1222 1102 1223 527 4939 4943 4944 6929 7883 9327 
10 689 563 571 1262 3181 2828 3183 8841 9212 9094 
10 1601 1009 1615 1593 9070 9071 6238 6163 9108 6239 
10 570 1344 560 648 6648 9328 2823 3051 7077 3050 
10 587 451 450 1160 2877 2458 2876 6646 8172 8247 
10 838 839 1467 917 3667 7749 7980 3916 3917 7876 
10 1029 300 448 447 6608 2447 9187 9010 2445 2449 
10 1356 563 689 1262 9002 3181 8935 5362 9212 8841 
10 1158 585 448 1159 9241 2870 8554 4758 7323 8176 
10 463 462 1043 317 2493 8695 8821 2491 2489 8696 
10 97 208 318 1044 6327 9044 2060 8488 4411 8314 
10 1009 1018 1615 1593 4319 7221 9071 9108 7953 6239 
10 1166 1037 458 457 4778 9329 6833 6834 8163 2479 
10 101 212 322 323 6391 8717 2072 2074 9167 2076 
10 1037 1166 458 1038 4778 6833 9329 4393 4777 8627 
10 597 1169 1286 1172 6721 5148 6720 6835 4796 5147 
10 1037 310 458 457 8796 2477 9329 8163 2475 2479 
10 310 1037 458 1038 8796 9329 2477 8795 4393 8627 
10 1102 528 1223 527 8278 8355 4943 7883 2684 9327 
10 727 728 1293 1380 3311 8704 8317 8010 8516 5447 
10 258 1089 153 373 4543 7972 6312 9330 7946 2223 
10 1177 469 604 603 6845 2925 7642 6846 2923 2927 
10 396 1111 538 397 8702 6773 2712 2297 6774 2713 
10 1442 798 1341 1361 7514 8659 5641 5640 7515 5383 
10 1087 513 1253 1208 7268 7269 5029 4901 7163 5062 
10 1377 1376 819 722 5440 7715 7692 7693 8812 3605 
10 1068 1196 493 494 4866 6950 6522 8884 8883 2586 
10 1047 467 1176 1175 9013 9015 4807 4803 7090 4808 
10 82 196 1033 197 6428 4377 9331 6429 1811 4376 
10 1090 1089 258 373 4548 4543 4547 8157 7946 9330 
10 616 481 615 1186 2961 2959 2963 7220 6915 7212 
10 1387 737 833 736 7817 3648 7713 6602 3338 3647 
10 1591 1545 1583 989 6165 6096 6166 9256 7791 7225 
10 1089 257 258 153 4544 1874 4543 7972 6311 6312 
10 305 82 1033 197 2017 9331 6620 8020 6429 4376 
10 304 82 196 1033 2015 6428 7135 6619 9331 4377 
10 82 304 305 1033 2015 2019 2017 9331 6619 6620 
10 1265 688 550 549 8462 3198 8999 7148 3214 2749 
10 549 1265 1124 412 7148 5084 7147 2744 7906 7911 
10 550 1265 549 412 8999 7148 2749 2748 7906 2744 
10 1265 688 549 1266 8462 3214 7148 5087 8463 7149 
10 1545 1540 988 1591 5969 8568 9118 6165 6129 8561 
10 246 141 142 361 6301 1751 6314 6947 2187 2188 
10 1442 1431 1341 798 5642 5604 5641 7514 7674 8659 
10 246 245 141 360 1862 6300 6301 6946 8389 2185 
10 683 798 1341 789 3531 8659 7337 3491 3533 8296 
10 863 1479 930 1484 7583 7781 3964 7865 5771 7950 
10 1508 1521 889 1495 5900 9158 7681 6040 6007 8265 
10 1236 430 1263 560 8299 8298 5073 6622 2775 8476 
10 1344 680 1285 560 9209 7315 5323 9328 3149 9296 
10 594 696 1357 1316 3218 6850 6640 7139 7305 5385 
10 359 1204 1077 504 8849 4890 6633 2615 8902 8904 
10 243 138 139 358 6273 1748 6274 9171 2178 2179 
10 369 512 370 1086 2636 2637 2216 8461 6699 7189 
10 1236 1344 1285 560 5322 5323 5145 6622 9328 9296 
10 1546 1487 1547 933 5970 5974 5975 9047 7661 6803 
10 1591 985 989 1583 7229 4313 9256 6166 7204 7225 
10 570 1344 1263 560 6648 5321 6649 2823 9328 8476 
10 525 1100 384 383 9194 7029 2674 2673 7028 2258 
10 1344 1236 1263 560 5322 5073 5321 9328 6622 8476 
10 1074 429 241 1075 8385 9287 4501 4505 6799 4504 
10 1360 689 693 571 8840 3536 8685 9258 3183 3202 
10 463 317 1044 318 2491 9332 9157 2492 2061 8314 
10 317 463 1044 1043 2491 9157 9332 8696 8821 4412 
10 55 30 1110 31 1945 4607 8808 1946 1636 4606 
10 14 1144 1148 15 6855 4719 7051 1910 4706 4718 
10 15 14 171 417 1910 1784 6493 7525 2353 2354 
10 220 332 333 1055 8087 2106 6692 4443 7624 9333 
10 1205 673 1339 1283 7086 7401 5377 5140 7087 5390 
10 1267 434 573 430 7041 2835 8541 7042 2400 2834 
10 1056 220 333 1055 4447 6692 7390 4448 4443 9333 
10 26 49 390 1105 1936 2274 8809 4591 8116 7283 
10 1156 1157 582 446 4752 8540 7014 7013 7067 2862 
10 770 771 658 1328 3435 3433 3431 8815 7158 8589 
10 1157 583 582 446 7676 2866 8540 7067 2864 2862 
10 859 766 1407 767 3723 9135 7242 3724 3423 6581 
10 1224 388 530 529 9176 2688 8196 7466 2686 2690 
10 1444 764 1403 1340 7758 9259 5650 5649 8253 5519 
10 1114 35 401 60 4618 6882 6952 6953 1954 2307 
10 798 1431 789 886 7674 8277 3533 3817 7503 3816 
10 332 333 1055 478 2106 9333 7624 2536 2537 7625 
10 180 286 427 181 6514 7585 2379 1794 6496 2380 
10 333 1056 1055 478 7390 4448 9333 2537 7382 7625 
10 22 44 1101 21 1928 8769 4579 1627 1927 4580 
10 1342 694 568 521 7295 3207 8128 7391 3208 2809 
10 521 1236 1218 1285 6621 4984 8138 7333 5145 5146 
10 431 520 568 1258 2661 2807 2808 9072 7287 7289 
10 24 388 1104 1103 9195 8586 4589 4585 7177 4590 
10 47 24 388 48 1932 9195 2268 1654 1933 2269 
10 578 1269 700 579 7537 7538 3227 2854 9024 3228 
10 1272 1155 581 580 5106 7070 8494 7202 7071 2860 
10 391 27 1106 392 9237 4594 8783 2282 7506 9236 
10 33 1113 399 59 4616 9057 9099 1951 9058 2302 
10 33 34 1113 59 1639 4615 4616 1951 1952 9058 
10 592 1281 713 714 6786 6758 3267 3269 6759 3271 
10 1269 578 1317 1153 7537 9245 5239 5099 7904 5236 
10 57 398 58 32 2298 2299 1664 1948 8270 1949 
10 452 453 1162 589 2464 7121 7346 2882 2883 7347 
10 301 1030 448 449 6672 6673 2448 2450 6674 2452 
10 357 358 1076 459 2180 8144 8237 2480 2481 8877 
10 586 1159 450 449 7321 8246 2874 2873 6675 2455 
10 1278 589 711 710 8367 3260 9073 7342 3258 3262 
10 1289 1376 1377 722 5437 5440 5438 9133 8812 7693 
10 1323 651 1220 1340 7173 9125 5260 5311 7174 5310 
10 1282 1281 593 714 5137 7562 6828 7576 6759 3270 
10 1288 466 601 600 8437 2916 7680 7678 2914 2918 
10 467 468 1176 602 2508 7386 9015 2919 2920 6861 
10 1112 33 58 32 4612 1950 8271 4613 1638 1949 
10 1282 459 635 714 8614 3019 8847 7576 3205 3541 
10 124 231 230 1066 6370 1846 6369 8871 4476 4477 
10 20 1100 1099 383 4577 4578 4573 9334 7028 9127 
10 469 1177 604 470 6845 7642 2925 2514 8410 2926 
10 1101 44 384 21 8769 2257 8417 4580 1927 8470 
10 474 473 1052 328 2526 8084 8094 2524 2522 8086 
10 104 103 325 214 1712 2080 2081 6339 6338 8033 
10 1048 1049 469 324 4427 8358 8996 9134 8357 2510 
10 611 477 1183 612 2947 7111 7255 2951 2949 8102 
10 1057 221 113 334 4450 6353 8962 8963 8969 2108 
10 1298 612 1184 613 7987 8103 5182 7098 2954 6744 
10 1058 222 223 114 4453 1838 4452 6746 6355 6356 
10 686 1282 714 459 6902 7576 3206 3178 8614 3205 
10 1057 222 1058 335 4449 4453 4454 8835 9137 6912 
10 126 232 347 348 6387 7989 2147 2149 7990 2151 
10 231 124 346 1066 6370 2143 8971 4476 8871 8483 
10 743 840 744 1392 3668 3669 3359 8729 8924 9291 
10 744 623 1306 624 3357 8845 8939 3358 2987 6985 
10 650 651 524 1220 3059 3057 3055 9126 9125 9257 
10 798 1431 1341 789 7674 5604 8659 3533 8277 8296 
10 202 311 1039 1038 9005 7199 4395 4391 7200 4396 
10 311 89 202 1039 2036 6440 9005 7199 9009 4395 
10 1108 393 53 394 6791 2284 6771 6772 2288 2286 
10 88 89 202 311 1696 6440 6439 2035 2036 9005 
10 312 136 240 1074 2043 6268 7444 6796 8107 4502 
10 1247 674 1352 1337 8187 8655 5347 5298 8784 5348 
10 35 1115 401 402 4622 6956 6882 7153 8813 2312 
10 674 1437 790 1352 9335 7925 3493 8655 5622 8869 
10 28 393 53 1108 7511 2284 1941 4601 6791 6771 
10 38 1 264 16 1914 1881 8052 1916 1621 4564 
10 674 1337 1437 1352 8784 5620 9335 8655 5348 5622 
10 717 1430 1319 1401 7417 5601 8124 7894 5602 5511 
10 377 1094 263 262 6870 4558 8268 6868 4559 1879 
10 1497 783 1426 1400 9065 9066 5809 5808 8926 5590 
10 783 1400 678 1426 8926 9251 3470 9066 5590 7769 
10 1146 10 433 1147 7324 2397 6705 4723 7248 6737 
10 1521 948 889 1495 7666 4048 9158 6007 8263 8265 
10 785 645 1426 678 3478 7691 6854 3479 3142 7769 
10 531 1225 657 1328 7216 8872 3076 8588 5272 8874 
10 1224 530 1327 656 8196 8362 5269 7468 3073 7228 
10 29 28 53 1108 1634 1941 1942 4600 4601 6771 
10 1509 882 1437 1556 7813 7814 5851 6001 6917 6000 
10 424 1248 1249 566 7836 5017 7023 2793 7837 7024 
10 542 640 1235 668 3111 9255 8372 3109 3194 8373 
10 1123 1124 271 411 4648 4646 4644 6876 7912 9321 
10 80 302 195 194 2009 8005 6425 6424 6628 1809 
10 1178 1177 470 604 4814 8410 6725 8922 7642 2926 
10 1234 541 542 668 8988 2726 8371 7633 3108 3109 
10 302 1031 449 450 6629 6676 2451 2453 8248 2455 
10 299 192 76 1028 8416 6419 1999 8555 4361 7569 
10 668 667 1234 541 3110 7632 7633 3108 3106 8988 
10 1400 685 678 1348 7806 3171 9251 5510 9280 7768 
10 783 685 678 1400 3471 3171 3470 8926 7806 9251 
10 1177 1178 1291 604 4814 5160 5161 7642 8922 7622 
10 1482 860 1407 1406 8261 9020 5764 5763 8262 5530 
10 1039 312 240 1074 6795 7444 4693 5054 6796 4502 
10 89 202 1039 203 6440 4395 9009 6441 1817 4394 
10 1039 558 311 312 6797 2804 7199 6795 2805 2040 
10 90 89 1039 203 1697 9009 8029 6399 6441 4394 
10 1245 1356 646 1347 5361 8936 8862 5332 5360 8042 
10 213 1048 324 1049 4422 9134 9100 4426 4427 8357 
10 1245 1347 646 556 5332 8042 8862 8863 8434 3047 
10 859 860 1407 1482 3727 9020 7242 8635 8261 5764 
10 1498 1519 887 888 5891 9218 7673 9254 9023 4033 
10 816 1421 817 720 8972 7099 3601 3597 7563 3599 
10 1422 1376 820 1501 5574 7716 7723 5823 5821 7094 
10 1148 1129 571 417 4717 9092 9093 8257 7047 2827 
10 434 1148 571 417 7043 9093 2826 2399 8257 2827 
10 132 353 354 1072 2165 2169 2167 8009 8230 8007 
10 1148 1360 571 1262 5379 9258 9093 5065 5378 9094 
10 1068 233 349 127 4482 6989 6990 8858 6374 2152 
10 1200 353 1072 499 9191 8230 4878 8301 2599 8563 
10 1269 579 701 700 9024 3230 9210 7538 3228 3232 
10 1078 359 140 360 6631 2182 9244 8390 2186 2184 
10 803 1365 701 700 6993 8694 3558 3557 9082 3232 
10 1498 695 1451 888 7672 7930 5817 9254 3828 8260 
10 1365 1269 701 700 5406 9210 8694 9082 7538 3232 
10 1272 805 702 703 9203 3563 8792 7059 3564 3238 
10 298 191 76 75 7567 6418 1997 1996 6417 1683 
10 864 863 930 1484 3739 3964 3965 8255 7865 7950 
10 800 1371 812 879 7984 7182 3829 3842 7842 3791 
10 764 759 644 1403 3524 3399 3523 9259 8552 9293 
10 764 761 1404 644 3543 7447 9336 3523 3405 8021 
10 371 514 1088 1253 2641 7285 6607 7270 7286 5028 
10 668 1287 1363 780 9260 5397 7635 3461 9074 7898 
10 1280 1281 713 591 5134 6758 6736 8310 7799 3266 
10 553 1246 1132 1247 7298 5009 8657 8186 5012 5010 
10 176 177 281 423 1790 6508 6505 2368 2369 7021 
10 1289 601 602 722 7093 2921 6859 9133 3291 3292 
10 420 553 1132 1247 2757 8657 8571 9316 8186 5010 
10 309 310 87 1037 2034 2032 2030 7531 8796 8743 
10 828 829 1459 907 3637 8700 8509 3886 3887 7580 
10 421 553 565 1246 2758 2810 2790 8658 7298 7299 
10 513 514 1253 669 2821 7286 7269 3112 3113 9337 
10 407 267 161 162 9113 4139 2324 2323 4138 1773 
10 1239 546 1339 1240 9179 9048 5515 4994 7652 5306 
10 201 310 1037 87 8794 8796 4388 6437 2032 8743 
10 595 1149 437 436 8092 8897 3121 2900 6669 2416 
10 1379 1455 824 1380 5684 8099 8011 5448 5683 8012 
10 1193 490 1194 624 8204 9018 4862 6984 2986 6982 
10 490 1194 625 491 9018 6983 2988 2577 7742 2989 
10 1029 300 1030 448 6608 6671 4369 9187 2447 6673 
10 1158 1157 1029 447 4755 4750 4754 9098 7677 9010 
10 1393 744 1307 745 8839 6972 5485 6943 3362 6945 
10 841 1393 1394 745 8838 5490 9249 3672 6943 6944 
10 1236 430 560 404 8299 2775 6622 6623 2388 2774 
10 125 232 347 126 6371 7989 2146 1734 6387 2147 
10 200 201 1037 87 1815 4388 4389 6436 6437 8743 
10 514 1338 1253 669 7194 5303 7286 3113 7195 9337 
10 1049 324 325 470 8357 2082 6726 6727 2512 2513 
10 570 1355 648 691 6647 7079 3051 3193 7430 3192 
10 748 1309 747 1395 7303 7756 3371 9234 5491 8643 
10 1422 1290 1291 724 5573 5162 5572 7664 8617 8811 
10 212 1048 323 213 4423 8995 9167 1828 4422 9165 
10 102 212 323 213 6335 9167 2075 6336 1828 9165 
10 222 1057 113 335 4449 8962 6354 9137 8835 2110 
10 737 616 736 1300 3336 3334 3338 6596 6594 6604 
10 221 1056 112 334 4446 7388 6352 8969 7389 2107 
10 1056 221 1057 334 4446 4450 4451 7389 8969 8963 
10 733 732 1384 1297 3326 7279 8077 9232 7278 5459 
10 748 844 1395 747 3681 7747 9234 3371 3680 8643 
10 1325 655 1326 767 7475 7476 5267 6580 3422 9061 
10 929 1569 1538 1539 7909 6090 7780 7825 6056 5952 
10 1325 654 767 766 9144 3421 6580 9289 3419 3423 
10 629 495 1197 1311 3001 8623 8851 7648 9292 5221 
10 1338 669 1318 1253 7195 9175 5304 5303 9337 5240 
10 1408 1327 769 1405 5532 9338 7787 5533 5523 7851 
10 1394 746 1308 1395 9141 9238 5488 5493 9142 5492 
10 1334 1333 777 1414 5291 7628 8534 5549 5550 7630 
10 1203 1314 637 754 5229 8758 8451 7449 7451 3504 
10 1574 1013 1004 999 8321 4328 6961 6962 4302 4329 
10 851 1427 780 779 8997 7897 3762 3761 7882 3462 
10 1489 870 1415 1490 8444 8532 5784 5789 8492 5788 
10 1127 552 415 1126 8132 2753 7484 4657 6980 8352 
10 1192 489 1193 623 8514 8203 4859 8513 2983 9275 
10 594 1260 637 505 6641 9076 3025 2898 8384 3023 
10 218 330 109 1054 8063 2096 6347 4441 7584 9318 
10 594 715 637 1260 3272 3273 3025 6641 6639 9076 
10 639 1093 1215 1094 9320 4921 8805 8775 4560 4920 
10 1062 341 340 119 9198 2130 8345 9309 2128 2126 
10 502 1096 1095 1097 9205 4703 8025 8800 4569 4932 
10 1212 1343 1319 642 5318 5319 5244 8912 7441 8126 
10 396 537 538 1110 2710 2714 2712 8703 8673 9154 
10 1260 1141 637 505 5053 9243 9076 8384 7845 3023 
10 660 661 534 1228 3089 3087 3085 9302 7410 7499 
10 341 1062 227 119 9198 4464 8942 2128 9309 6386 
10 1062 226 227 119 4465 1842 4464 9309 6385 6386 
10 34 1113 59 400 4615 9058 1952 9310 9059 2304 
10 1113 34 1114 400 4615 4619 4620 9059 9310 6951 
10 1267 573 1374 570 8541 8542 5430 8698 2833 9149 
10 1234 1113 1114 400 4976 4620 4975 8393 9059 6951 
10 541 1113 1234 400 8989 4976 8988 2722 9059 8393 
10 235 352 130 131 7815 2161 6396 6377 2162 1739 
10 709 710 1370 811 3259 8214 8404 3583 3584 8205 
10 132 353 236 131 2165 7075 6379 1740 2164 6378 
10 1089 372 153 373 7971 2221 7972 7946 2225 2223 
10 825 1476 1380 824 8735 5746 8515 3625 8736 8012 
10 154 374 1090 373 2226 7104 8857 2224 2228 8157 
10 563 418 1129 1245 2785 7046 7045 8861 9200 5006 
10 1369 940 810 811 8402 3840 7198 8508 3841 3585 
10 715 1314 637 1260 6948 8758 3273 6639 5230 9076 
10 1134 422 423 555 6624 2370 7020 7262 2761 2762 
10 566 1353 1248 1249 8576 5350 7837 7024 5351 5017 
10 1441 760 856 855 7455 3713 8152 8165 3712 3715 
10 433 10 1146 432 2397 7324 6705 2410 2394 6704 
10 150 369 370 1086 2212 2216 2214 6664 8461 7189 
10 1141 506 637 505 7844 3024 9243 7845 2815 3023 
10 507 506 1079 361 2623 7938 8759 2621 2620 7939 
10 374 1090 373 516 7104 8157 2228 2647 9080 2646 
10 585 706 707 1275 3246 3250 3248 7322 9040 6690 
10 1291 724 604 725 8811 3298 7622 7623 3302 3300 
10 143 1080 247 362 9277 4518 6302 2191 9030 9021 
10 1155 1156 445 1027 4749 7012 8909 4744 4748 7985 
10 806 1366 1417 1491 7988 5560 7230 7231 5791 5792 
10 755 1423 648 680 7593 9339 3391 3390 7314 3150 
10 154 258 153 373 6313 6312 1763 2224 9330 2223 
10 1281 1280 1164 591 5134 5129 5133 7799 8310 6992 
10 1087 371 1088 1253 6606 6607 4542 5029 7270 5028 
10 1048 322 323 468 9014 2076 8995 7385 2506 2507 
10 321 1047 467 322 7154 9013 2503 2073 7156 2504 
10 1526 910 1461 1462 8338 8337 5912 5911 9138 5704 
10 1476 1455 1380 824 5747 5683 5746 8736 8099 8012 
10 1488 935 1489 1548 7933 8932 5786 5977 7934 5976 
10 829 908 1460 1459 3889 8930 8701 8700 9160 5698 
10 1049 103 325 324 8044 2080 6726 8357 2078 2082 
10 826 904 905 1457 3878 3882 3880 8505 8927 8181 
10 829 830 1384 1460 3640 8075 8076 8701 8929 5697 
10 968 1574 1525 1586 7463 6069 7462 8428 6114 6112 
10 968 1012 999 1586 4278 4288 4228 8428 8436 8582 
10 342 487 488 1063 2564 2568 2566 6900 7688 7686 
10 739 619 1303 740 3343 8968 8967 3347 3345 8966 
10 1423 1344 648 680 5576 7077 9339 7314 9209 3150 
10 684 1210 515 514 6830 6750 3161 3160 7284 2645 
10 1194 625 1308 1307 6983 9285 5212 5208 6977 5213 
10 1423 1420 755 648 5643 8279 7593 9339 7078 3391 
10 1313 1200 633 632 5226 6698 7605 7435 6697 3014 
10 840 1468 1393 1392 7748 5720 9097 8924 5721 5487 
10 1312 1199 631 1198 5223 9064 8755 5224 4877 7812 
10 408 409 1121 163 2331 7007 8209 2326 2330 8210 
10 1392 840 744 1393 8924 3669 9291 5487 9097 8839 
10 510 550 1207 688 3199 9077 7040 3180 3198 7958 
10 1553 1520 1515 796 5991 6142 6107 9220 8726 7481 
10 1202 1204 1316 504 4891 5234 5235 8903 8902 9340 
10 1533 1534 978 920 5937 7252 8015 8014 7253 4137 
10 772 1410 865 1411 8712 9322 3740 9155 5542 9019 
10 1486 1485 1411 865 5777 5772 5776 6939 8954 9019 
10 1344 1420 1423 648 5568 5643 5576 7077 7078 9339 
10 669 513 1318 1253 3112 9095 9175 9337 7269 5240 
10 12 1117 405 1143 6762 6763 2319 8127 4724 7107 
10 431 12 405 1143 2390 2319 2393 8398 8127 7107 
10 20 19 42 1099 1625 1923 1924 4573 4574 9341 
10 1485 1410 865 864 5773 9322 8954 8564 8523 3742 
10 1410 1485 865 1411 5773 8954 9322 5542 5772 9019 
10 935 1548 956 1549 7934 8710 4167 9303 5981 9124 
10 530 531 1225 657 2693 7216 8363 3075 3076 8872 
10 1227 1226 659 1329 4956 7167 7165 5274 5275 6815 
10 421 279 175 174 6821 6504 2364 2363 6501 1788 
10 1114 542 1115 1235 6954 6955 4623 4979 8372 4978 
10 1235 542 1115 543 8372 6955 4978 9315 2730 8910 
10 532 1226 659 1227 8120 7167 3081 7164 4956 7165 
10 1235 640 543 1171 9255 3030 9315 4981 7857 8911 
10 1170 1171 1041 460 4793 4790 4788 7858 7859 8956 
10 1618 412 167 272 9001 2338 7138 8458 9000 3932 
10 1364 786 679 789 8282 3482 8283 8295 3492 3490 
10 178 179 1137 425 1792 8273 8274 2373 2374 7292 
10 166 167 412 272 1778 2338 2339 3933 3932 9000 
10 1124 166 412 272 7910 2339 7911 4647 3933 9000 
10 1518 880 790 785 7920 3795 7916 6853 3793 3495 
10 640 1170 1287 670 7856 5149 8817 3117 8880 9311 
10 242 137 1075 241 6271 6800 4503 1858 6270 4504 
10 640 1170 670 460 7856 8880 3117 3032 7858 3114 
10 1354 849 784 697 9143 3721 8810 8303 3722 3476 
10 136 429 137 241 2386 2387 1746 6269 9287 6270 
10 1542 949 888 877 8137 4034 8259 8136 4035 3827 
10 575 576 1151 1270 2845 8522 7527 8499 7543 5101 
10 19 382 42 1099 7498 2251 1923 4574 8693 9341 
10 187 1023 186 292 4346 4347 1801 6957 7606 6958 
10 1277 1276 1160 587 5122 5117 5121 7549 6644 6646 
10 641 717 1319 1401 3278 8124 7709 9326 7894 5511 
10 291 1023 292 186 7532 7606 1980 7533 4347 6958 
10 1105 390 1106 1226 7283 8778 4596 4952 8779 4951 
10 815 1507 816 719 8481 7577 3598 3595 8477 3596 
10 385 1101 527 1102 6887 8250 2679 6886 4584 7883 
10 596 792 1286 1346 3500 8934 6722 7516 9042 5330 
10 1288 1421 600 721 5569 7564 7678 7679 7100 3288 
10 1584 957 1558 958 7025 9264 6159 7977 4073 8716 
10 1456 900 901 1560 7057 3870 7058 6023 6592 7829 
10 1460 830 1384 1385 8929 8075 5697 5696 8798 5463 
10 1612 1589 1602 998 6219 6177 6218 6589 8960 6588 
10 1422 1501 820 1504 5823 7094 7723 5834 6009 6731 
10 837 1465 1466 1390 9208 5716 6658 6659 5711 5715 
10 1572 978 977 1577 8553 4136 8686 6247 8535 9060 
10 382 42 1099 383 2251 9341 8693 2255 2253 9127 
10 1190 485 620 619 6907 2973 7601 8801 2971 2975 
10 486 485 620 1190 2562 2973 2974 7131 6907 7601 
10 69 291 292 186 1976 1980 1978 6443 7533 6958 
10 42 20 1099 383 1924 4573 9341 2253 9334 9127 
10 81 304 196 1032 2014 7135 6427 7991 7136 4373 
10 495 1069 1197 1198 8284 4869 8623 8285 4873 4874 
10 496 1199 631 497 9063 9064 3006 2595 6847 3007 
10 453 1034 305 1033 7120 8019 2462 6934 4381 6620 
10 517 1343 1212 642 8057 5318 8609 3036 7441 8912 
10 651 759 764 1403 3535 3524 3413 7172 8552 9259 
10 517 518 1321 643 2654 6891 8056 3038 3039 7457 
10 1161 451 1032 1033 7126 9136 4763 4762 7127 4378 
10 519 518 644 1322 2658 3041 3042 7615 6893 7616 
10 1324 653 1325 766 6667 9193 5264 9342 3418 9289 
10 317 95 1043 208 2056 7301 8696 7725 6326 4407 
10 652 653 1324 765 3065 6667 6534 3415 3416 7626 
10 1535 1536 922 1471 5943 7654 7655 5938 5942 7619 
10 97 96 318 208 1705 2059 2060 6327 6390 9044 
10 1054 331 109 219 7108 2098 9318 4440 8752 6348 
10 538 1111 1110 1231 6773 4611 9154 8742 4966 4967 
10 1486 1485 932 1545 5777 8199 6941 5967 5968 8197 
10 218 1054 109 219 4441 9318 6347 1834 4440 6348 
10 1347 1402 681 1337 5514 9343 8433 5333 5513 8786 
10 532 531 658 1226 2696 3078 3079 8120 7217 7166 
10 477 476 1183 1054 2535 7254 7111 7110 7109 4828 
10 1347 782 681 1402 8041 3468 8433 5514 8520 9343 
10 1337 1402 681 757 5513 9343 8786 8628 7766 3394 
10 345 123 1065 230 2140 9229 8856 8870 6368 4473 
10 971 1013 986 1588 4283 4300 4284 7834 9034 7835 
10 309 1036 456 1037 7530 6686 2472 7531 4390 8162 
10 308 1036 455 456 7599 6684 2469 2471 6686 2473 
10 1500 1565 942 1568 6042 9161 7867 6051 6052 7868 
10 1565 1500 942 885 6042 7867 9161 8681 9152 4011 
10 1402 782 681 757 8520 3468 9343 7766 3469 3394 
10 698 577 1270 1317 3222 8289 7187 9278 8290 5238 
10 1059 223 224 115 4456 1839 4455 8918 6357 6358 
10 1364 683 1341 789 8889 7337 5402 8295 3491 8296 
10 1017 1018 1008 1613 4321 4318 4317 7427 7952 7486 
10 586 1276 708 587 6643 7558 3251 2878 6644 3252 
10 1276 586 708 707 6643 3251 7558 9202 3249 3253 
10 1257 683 567 692 7336 3158 7310 7338 3195 3196 
10 708 709 1369 810 3256 8400 7196 3580 3581 7198 
10 572 1257 567 692 8764 7310 2831 3197 7338 3196 
10 1421 816 1443 720 8972 8843 5644 7563 3597 7433 
10 1446 718 1286 1447 9267 8486 5657 5662 8425 5661 
10 1505 947 878 953 6583 4030 8234 7700 4058 4055 
10 827 828 1382 1458 3634 8744 9050 8184 8432 5691 
10 830 734 1384 1385 3639 8925 8075 8798 8747 5463 
10 335 1058 481 336 6912 6914 2545 2115 6747 2546 
10 1457 905 1524 1561 8181 8594 5907 6027 9185 6026 
10 1359 569 716 687 7237 3275 7238 6998 3173 3277 
10 805 1272 1417 703 9203 5559 9319 3564 7059 7571 
10 366 367 252 1142 2207 6757 6678 8452 6756 4700 
10 848 849 752 1399 3697 3695 3693 9104 9263 8557 
10 1358 787 634 1284 8394 3487 6863 5368 7355 6864 
10 1399 1312 1313 752 5504 5228 5503 8557 8882 7434 
10 253 368 1085 1142 8453 6824 4533 4699 9201 4698 
10 1596 1532 1577 977 6145 6076 6178 7704 8583 9060 
10 1338 669 1440 1318 7195 7822 5634 5304 9175 5635 
10 1202 1316 635 504 5235 7306 8848 8903 9340 3020 
10 1531 916 917 976 6576 3918 8188 7707 4128 4129 
10 1475 1401 1505 878 5741 5837 5838 8566 7896 8234 
10 1401 1430 1505 878 5602 5839 5837 7896 7419 8234 
10 773 1331 1411 774 9246 5540 7722 3444 7926 7015 
10 1575 1588 973 986 6122 8688 8030 7272 7835 4286 
10 661 1331 773 774 7409 9246 3440 3442 7926 3444 
10 1331 661 662 774 7409 3092 7423 7926 3442 3443 
10 975 1595 1000 954 6838 8797 4230 4281 8567 4289 
10 103 102 324 213 1711 2077 2078 6337 6336 9100 
10 814 880 1518 785 3794 7920 8258 3592 3793 6853 
10 814 1497 783 785 9156 9065 3593 3592 6852 3480 
10 814 1518 1497 785 8258 5880 9156 3592 6853 6852 
10 1595 973 974 1000 8478 4124 8377 8797 4287 4231 
10 1535 950 922 1580 8525 4179 7655 6084 8351 7656 
10 1374 691 695 1428 7428 3211 7931 5595 7429 8896 
10 1522 1498 1557 887 5901 6010 6011 8049 7673 8050 
10 368 433 1261 1142 2820 6738 6825 9201 6703 5058 
10 1344 680 560 648 9209 3149 9328 7077 3150 3050 
10 1568 1575 942 986 6135 7271 7868 8412 7272 4182 
10 1564 1598 1616 952 6154 6254 6255 7557 8826 8684 
10 1432 794 1510 877 6931 6932 5856 7996 3808 7900 
10 1052 216 328 327 4435 9012 8086 8085 9168 2091 
10 444 297 296 1027 2436 1995 2435 9041 7885 8895 
10 1592 1001 1605 944 9016 8833 6187 8392 4234 9312 
10 368 1085 1142 1261 6824 4698 9201 6825 5057 5058 
10 1453 1377 819 818 5680 7692 7860 7853 6812 3607 
10 1014 1608 1614 1610 7169 6231 7170 8603 6212 6230 
10 1014 1015 1614 1611 4308 9282 7170 7171 7919 6256 
10 1611 1015 1614 1612 7919 9282 6256 6246 8621 6227 
10 99 210 98 320 6331 6330 1707 2066 6651 2065 
10 664 1333 1231 1230 7631 5286 8771 8465 5287 4968 
10 467 1047 1176 468 9013 4807 9015 2508 7893 7386 
10 1053 217 108 329 4438 6345 6920 6921 7364 2093 
10 960 961 900 1560 4082 4080 4078 9274 7827 6592 
10 961 1008 1009 1593 4265 4269 4267 9182 8952 9108 
10 1587 995 1007 1613 7763 4315 8315 6223 7764 7485 
10 378 264 159 263 8770 6267 2239 8350 1880 6292 
10 231 1067 1066 346 4480 4481 4476 8971 6713 8483 
10 919 1533 920 1469 8013 8014 3927 7639 5932 8065 
10 487 486 621 1191 2565 2976 2977 8201 7132 7134 
10 6 135 182 239 1744 8899 6397 6316 6317 4334 
10 599 1443 1315 1349 7432 5645 6817 6818 5646 5339 
10 665 1334 777 778 8819 8534 3452 3454 8958 3456 
10 1334 664 665 777 8973 3101 8819 8534 3451 3452 
10 287 239 182 135 8365 4334 8168 2384 6317 8899 
10 1589 964 997 1607 7206 4222 8612 6199 7207 8611 
10 771 1409 864 1410 7157 7954 3737 8915 5539 8523 
10 377 1093 262 157 6869 4555 6868 2235 8671 6289 
10 157 377 158 262 2235 2236 1767 6289 6868 6290 
10 770 771 1409 863 3435 7157 8222 3734 3735 7864 
10 697 873 698 1439 3768 3769 3223 7186 8308 7188 
10 585 584 1275 1158 2872 9039 7322 9241 9007 5115 
10 451 303 1032 304 2456 7992 9136 2457 2016 7136 
10 1269 579 1153 1154 9024 9037 5099 5098 9025 4743 
10 884 1483 1440 1495 8475 5767 9109 8264 5826 5804 
10 198 83 306 197 6431 2020 6987 1812 6430 6988 
10 687 1433 1359 1259 6997 5609 6998 8294 5610 5370 
10 935 1489 1548 1549 8932 5976 7934 9303 5980 5981 
10 1377 1421 817 1492 5571 7099 6810 5794 5795 8016 
10 1158 584 447 448 9007 2867 9098 8554 2868 2449 
10 826 729 1381 730 3626 8327 8498 3627 3317 8504 
10 8 11 9 1128 6229 1895 1911 7328 4659 4660 
10 377 158 263 378 2236 6291 8268 2240 2238 8350 
10 1230 537 1110 1231 7405 8673 4963 4968 9153 4967 
10 704 806 1417 703 3567 7230 7570 3241 3566 7571 
10 806 805 1417 703 3568 9319 7230 3566 3564 7571 
10 740 1389 1390 1303 6906 5478 7517 8966 5473 5477 
10 1040 314 205 1041 9290 9190 4399 4403 9189 4402 
10 838 916 917 1466 3914 3918 3916 7978 8537 7979 
10 916 1531 917 1466 6576 8188 3918 8537 5927 7979 
10 949 1519 888 955 8178 9023 4034 4155 9219 4154 
10 1269 578 699 1317 7537 3225 7539 5239 9245 8539 
10 180 286 285 1139 6514 1906 6515 8190 4687 4688 
10 107 217 328 329 6344 9344 2090 2092 7364 2094 
10 1563 1553 928 1499 6036 6560 8502 6034 5990 6558 
10 700 699 802 1438 3229 3554 3555 8333 8332 8361 
10 1281 1282 1373 714 5137 5647 5427 6759 7576 6760 
10 1138 179 285 426 8545 6512 4684 8544 2376 8632 
10 699 1436 801 1438 6974 6976 3553 8332 5626 9223 
10 1563 1512 890 1581 6035 8243 8501 6102 6097 6794 
10 799 713 1373 714 3549 6735 8610 3546 3271 6760 
10 928 1563 950 1590 8502 9276 4038 8788 6127 8789 
10 1282 635 1373 714 8847 8306 5647 7576 3541 6760 
10 20 42 43 383 1924 1649 1925 9334 2253 2254 
10 635 799 1373 714 3547 8610 8306 3541 3546 6760 
10 1542 1432 1510 877 5960 5856 5962 8136 7996 7900 
10 762 1420 1567 1515 7489 5883 8297 7487 5872 5884 
10 957 1584 1558 1552 7025 6159 9264 8907 6103 6017 
10 905 964 965 1561 4092 4097 4095 9185 7208 8409 
10 343 1063 1064 228 6898 4472 8174 6899 4467 4471 
10 963 903 1570 964 4087 8550 9172 4091 4089 8549 
10 343 488 1064 1063 2567 8919 8174 6898 7686 4472 
10 897 958 898 1558 4071 4072 3861 9183 8716 7962 
10 1379 726 823 822 7548 3617 7031 8987 3615 3619 
10 983 882 1592 1599 4161 8391 8439 7318 7316 6157 
10 57 397 398 32 2296 2300 2298 1948 6935 8270 
10 794 1356 1429 646 6933 5599 6654 3518 8936 8043 
10 973 1575 986 1000 8030 7272 4286 4287 7273 4233 
10 1045 319 98 320 8074 2063 9011 6597 2067 2065 
10 1500 782 875 885 8519 3774 7866 9152 3814 3815 
10 397 1111 398 32 6774 6613 2300 6935 4609 8270 
10 1204 594 1316 504 8382 7139 5234 8902 2897 9340 
10 313 314 1040 503 2049 9290 6555 2611 2612 8664 
10 880 882 1599 1556 4006 7316 7317 6916 6917 6156 
10 991 1015 1611 1609 4296 7919 7281 7999 8620 6241 
10 1014 992 994 1608 4293 4211 4311 7169 9151 8982 
10 537 664 1231 1230 3096 8771 9153 7405 8465 4968 
10 429 136 312 1074 2386 2043 2806 8385 8107 6796 
10 1005 1584 987 1547 7027 7026 4250 8933 6105 6804 
10 297 190 296 1027 9008 8648 1995 7885 4359 8895 
10 558 1075 357 429 8231 6801 2769 2768 6799 2408 
10 990 1587 995 1005 7760 7763 4217 4253 7830 4292 
10 558 1075 429 1074 8231 6799 2768 6798 4505 8385 
10 1057 335 1186 480 8835 6913 4837 9017 2543 8852 
10 730 826 1382 1381 3627 8506 9051 8504 8498 5454 
10 244 243 139 1077 1860 6274 6275 4509 4510 8860 
10 732 1383 1297 1296 7277 5455 7278 8192 5456 5180 
10 1378 821 725 822 8944 3612 7658 8945 3616 3614 
10 1596 949 977 1572 9087 4309 7704 6240 8180 8686 
10 1221 1100 1101 384 4937 4581 4936 9186 7029 8417 
10 189 1026 295 296 4356 6780 6778 8649 7665 1992 
10 1026 1155 444 1027 4745 7069 8818 4360 4744 9041 
10 151 370 371 1087 2215 2219 2217 7142 7141 6606 
10 311 310 458 1038 2037 2477 2478 7200 8795 8627 
10 1617 425 1137 1136 9294 7292 8660 9026 8244 4721 
10 455 1035 1163 1164 7613 4768 7082 6685 4772 4773 
10 1037 309 457 456 7531 2474 8163 8162 2472 2476 
10 479 478 613 1184 2541 2952 2953 6742 7384 6744 
10 1221 1101 526 384 4936 8251 9174 9186 8417 2676 
10 502 1096 380 379 9205 9308 2610 2609 8053 2246 
10 380 17 1096 1097 6843 4565 9308 6711 4568 4569 
10 484 1188 1189 1060 8665 4847 8059 8060 4842 4846 
10 1324 1325 1407 766 5264 5528 5529 9342 9289 9135 
10 1316 594 635 504 7139 3170 7306 9340 2897 3020 
10 502 1096 379 378 9205 8053 2609 2608 9206 2409 
10 380 522 381 1097 2664 2665 2249 6711 8524 6712 
10 1070 352 235 1071 9022 7815 4488 4493 7816 4492 
10 1199 1200 498 1071 4880 6696 6849 4875 4879 9170 
10 352 497 1071 1070 2594 9345 7816 9022 9301 4493 
10 497 1199 1071 1070 6847 4875 9345 9301 4876 4493 
10 352 497 498 1071 2594 2598 2596 7816 9345 9170 
10 497 1199 498 1071 6847 6849 2598 9345 4875 9170 
10 205 93 206 1041 6321 6322 1821 4402 9188 4401 
10 143 1080 248 247 9277 4517 6303 6302 4518 1864 
10 364 365 1082 510 2201 6548 6546 2630 2631 7039 
10 682 1445 676 1362 7922 8773 3156 8575 5654 7588 
10 364 509 510 1082 2628 2816 2630 6546 7037 7039 
10 510 1082 1207 1083 7039 4899 7040 8340 4528 4898 
10 524 1219 1220 1099 8690 4935 9257 8692 4930 4934 
10 1216 522 502 1097 6875 2666 8777 5043 8524 8800 
10 861 862 769 1481 3733 3731 3729 7783 7371 7850 
10 930 864 1484 931 3965 8255 7950 3969 3967 7951 
10 773 772 1411 1330 3441 9155 7722 8876 6814 5541 
10 530 389 1104 1225 2689 8584 8585 8363 8634 4949 
10 661 534 1228 535 3087 7499 7410 3088 2705 6808 
10 1224 530 1104 1225 8196 8585 4945 4950 8363 4949 
10 1171 543 1040 503 8911 8663 4791 8633 2822 8664 
10 777 1334 1415 778 8534 5553 8533 3456 8958 8917 
10 534 660 1228 1227 3085 9302 7499 6897 6896 4959 
10 1170 315 460 1041 8830 2484 7858 4788 7699 8956 
10 392 1107 393 52 7507 7510 2285 2281 7508 2283 
10 903 1476 1570 1561 6716 6059 8550 6717 6028 6174 
10 1118 266 406 1119 4629 8640 8762 4633 4631 8642 
10 11 1146 10 1127 4713 7324 1912 4658 4712 7326 
10 93 315 206 1041 2050 7360 6322 9188 7699 4401 
10 561 1254 406 1118 7752 9299 2778 7754 5032 8762 
10 1083 365 250 251 6881 6547 4527 4526 8133 1867 
10 1255 569 416 544 8046 2812 7802 7803 2813 2731 
10 545 1254 405 406 8675 9033 2734 2733 9299 2322 
10 682 1353 1350 1425 7921 5352 9239 7923 5584 5585 
10 1118 160 405 406 8236 2318 8235 8762 2321 2322 
10 282 423 177 424 9323 2369 6507 9324 2404 2371 
10 682 1353 566 559 7921 8576 3155 3154 9261 2795 
10 1100 20 21 43 4577 1626 4576 7030 1925 1926 
10 83 82 305 197 1690 2017 2018 6430 6429 8020 
10 418 419 1130 556 2405 8216 8780 2763 2764 8218 
10 418 276 1129 1130 7048 4661 7046 8780 4664 4665 
10 563 1129 571 1262 7045 9092 2828 9212 5064 9094 
10 421 1133 279 1132 6748 4672 6821 8570 4673 4668 
10 301 193 1030 194 8167 4368 6672 7805 1808 4367 
10 1158 1029 448 447 4754 9187 8554 9098 9010 2449 
10 20 1100 383 43 4577 7028 9334 1925 7030 2254 
10 716 1345 1264 1359 7214 5433 7240 7238 5591 5371 
10 181 8 9 428 1795 1911 6495 2381 2382 7261 
10 1145 435 9 1128 7334 7329 4710 4709 7327 4660 
10 315 314 460 1041 2052 2483 2484 7699 9189 8956 
10 1235 543 1115 1171 9315 8910 4978 4981 8911 4792 
10 608 474 1180 1181 2938 9262 9027 9028 9120 4823 
10 831 832 1461 910 3646 9288 9178 3895 3896 8337 
10 903 1476 1455 1570 6716 5747 8097 8550 6059 6057 
10 728 727 824 1380 3311 3620 3621 8516 8010 8012 
10 1379 1456 822 823 5685 7056 8987 7031 7033 3619 
10 1179 606 1293 1292 7377 8318 5167 5163 8325 5168 
10 578 442 1153 579 2850 7902 7904 2854 2852 9037 
10 576 577 1152 1270 2848 8291 8521 7543 8289 5100 
10 577 698 699 1317 3222 3226 3224 8290 9278 8539 
10 726 1378 725 822 8706 7658 3305 3615 8945 3614 
10 226 1061 118 340 4461 8058 6362 8344 6910 2125 
10 1532 1467 1468 918 5930 5722 5929 7406 7877 7408 
10 578 577 699 1317 2851 3224 3225 9245 8290 8539 
10 1519 887 888 955 9218 4033 9023 9219 4144 4154 
10 453 1034 1163 454 7120 4769 8793 2467 8311 6753 
10 664 537 1231 538 3096 9153 8771 3097 2714 8742 
10 519 376 1214 1215 2656 8105 9192 9123 8106 4922 
10 639 376 519 1215 2655 2656 2657 8805 8106 9123 
10 518 376 1214 519 2653 8105 6892 2658 2656 9192 
10 547 1240 1121 1241 7653 4993 9346 7350 4997 4995 
10 519 1322 1215 1214 7615 5251 9123 9192 5252 4922 
10 29 394 54 1109 6770 2287 1943 4604 7478 8471 
10 30 29 54 1109 1635 1943 1944 4603 4604 8471 
10 547 409 1121 1240 2739 7007 9346 7653 7651 4993 
10 656 530 1327 657 3073 8362 7228 3077 3075 8873 
10 671 520 1268 690 3119 8530 8487 3187 3188 8891 
10 319 1045 1044 1173 8074 4415 8073 9159 4797 4798 
10 982 937 1559 1502 4157 8245 7935 7697 7436 6021 
10 208 317 318 1044 7725 2061 9044 4411 9332 8314 
10 1360 689 571 1262 8840 3183 9258 5378 8841 9094 
10 1356 1347 1429 646 5360 5598 5599 8936 8042 8043 
10 278 420 174 1132 7932 2361 6502 4669 8571 8572 
10 420 564 1247 1131 2788 8185 9316 8403 8992 5011 
10 1237 419 1130 1131 8215 8216 4986 4985 8991 4714 
10 12 14 15 1116 1770 1910 2042 8342 6857 4624 
10 430 1144 14 404 7052 6855 2389 2388 6856 2317 
10 319 209 97 1044 8072 6328 2062 8073 4410 8488 
10 464 463 1044 318 2496 9157 8313 2494 2492 8314 
10 1122 547 1121 1241 7458 9346 4642 4996 7350 4995 
10 803 1365 1438 1512 6993 5627 8360 8241 5859 5860 
10 577 576 698 1270 2848 3221 3222 8289 7543 7187 
10 477 478 1055 1184 2538 7625 7112 9228 7384 4831 
10 1052 474 328 329 8094 2524 8086 7363 2525 2094 
10 1183 477 1055 1184 7111 7112 4827 4832 9228 4831 
10 1056 1057 1185 334 4451 4833 4834 7389 8963 8749 
10 480 1057 1185 1186 9017 4833 6942 8852 4837 4838 
10 1166 1037 457 1165 4778 8163 6834 4779 4774 6767 
10 334 479 480 1185 2540 2544 2542 8749 6743 6942 
10 715 1375 1357 800 7819 5435 6638 3551 7267 6851 
10 507 506 677 1203 2623 3137 3138 8760 8366 6922 
10 217 1052 328 329 4434 8086 9344 7364 7363 2094 
10 1193 489 1065 490 8203 8965 4857 8204 2574 9164 
10 1378 1422 725 821 5575 7657 7658 8944 7663 3612 
10 466 465 600 1174 2502 2913 2914 7720 6600 8480 
10 491 1195 492 1066 7744 8837 2580 8485 4864 8828 
10 489 344 1065 490 2570 8964 8965 2574 2572 9164 
10 345 1194 491 1066 8855 7742 2575 8484 4860 8485 
10 1188 617 1302 1301 7113 9347 5194 5190 8804 5195 
10 617 1188 1302 618 7113 5194 9347 2969 8802 7603 
10 617 738 1302 1301 3339 6866 9347 8804 6867 5195 
10 738 617 1302 618 3339 9347 6866 3340 2969 7603 
10 216 107 217 328 6343 6344 1832 9012 2090 9344 
10 784 849 1434 753 3721 8666 9055 3703 3696 6662 
10 849 1399 1434 752 9263 5614 8666 3695 8557 8558 
10 625 1194 1308 626 6983 5212 9285 2993 7743 8591 
10 1199 497 632 631 6847 3009 6848 9064 3007 3011 
10 1199 631 632 1313 9064 3011 6848 5227 8411 7435 
10 1309 628 1196 1310 7304 8854 5214 5219 7789 5218 
10 429 136 1074 241 2386 8107 8385 9287 6269 4501 
10 1444 859 764 765 7241 3797 7758 7243 3821 3417 
10 1327 1408 657 1328 5532 7786 8873 5273 5531 8874 
10 508 507 1206 1080 2626 7889 7066 8645 9029 4895 
10 1052 216 217 328 4435 1832 4434 8086 9012 9344 
10 1222 653 1325 1324 6928 9193 5263 5258 6667 5264 
10 1079 507 1080 1206 8759 9029 4519 4896 7889 4895 
10 815 871 1446 851 3947 8905 8482 3702 3820 9111 
10 225 1060 338 339 4458 8004 8339 8122 8335 2124 
10 792 718 1446 851 3502 9267 9196 3700 3701 9111 
10 1335 1415 778 1416 5552 8917 8959 5556 5557 7862 
10 1060 225 1061 339 4458 4462 4463 8335 8122 8123 
10 118 226 340 119 6362 8344 2125 1727 6385 2126 
10 566 1353 1249 559 8576 5351 7024 2795 9261 6565 
10 1282 1281 1165 593 5137 5132 5136 6828 7562 6769 
10 685 555 1348 1350 3163 8827 9280 9240 6569 5342 
10 485 1061 340 339 6909 6910 2558 2557 8123 2127 
10 1069 234 1070 350 4485 4489 4490 6766 6764 8976 
10 1282 1316 1373 635 5399 5507 5647 8847 7306 8306 
10 497 496 1070 351 2595 9306 9301 2593 2591 8977 
10 707 1276 1368 708 9202 5412 6688 3253 7558 7559 
10 862 1408 769 1481 7370 7787 3731 7371 5760 7850 
10 396 55 1110 31 2292 8808 8703 6739 1946 4606 
10 1122 409 1121 547 7006 7007 4642 7458 2739 9346 
10 1158 585 1159 1275 9241 7323 4758 5115 7322 5114 
10 1277 1276 708 1369 5122 7558 8399 5415 5416 7196 
10 606 727 1293 1292 3306 8317 8318 8325 8699 5168 
10 728 1380 1294 1293 8516 5446 8496 8704 5447 5171 
10 1247 420 1131 1132 9316 8403 5011 5010 8571 4670 
10 1359 569 687 1145 7237 3173 6998 5369 8220 8418 
10 607 1179 1293 1180 8312 5167 8319 7307 4820 5166 
10 837 836 1390 740 3661 9317 6659 3659 3657 7517 
10 836 1465 1390 1389 7471 5711 9317 6905 5712 5478 
10 836 837 1390 1465 3661 6659 9317 7471 9208 5711 
10 1475 858 1435 763 9119 8468 5742 8565 3720 7454 
10 858 1475 1435 1483 9119 5742 8468 8469 5768 5766 
10 407 266 267 1119 8639 1885 9113 8641 4631 4632 
10 363 143 362 1080 2193 2191 2195 8836 9277 9030 
10 507 508 362 1080 2626 2624 2622 9029 8645 9030 
10 246 360 361 1141 6946 2189 6947 4696 7843 7940 
10 408 409 546 1240 2331 2736 2737 8529 7651 7652 
10 1079 246 361 1141 4516 6947 7939 4695 4696 7940 
10 1320 684 515 641 6831 3161 6749 8341 3162 3033 
10 1488 1487 1413 868 5783 5778 5782 8455 8369 8368 
10 1332 1412 775 1413 5543 7965 7964 5547 5548 7645 
10 682 1353 1445 1362 7921 5652 7922 8575 5392 5654 
10 1278 709 710 1370 7341 3259 7342 5418 8404 8214 
10 857 1494 892 1493 7741 9269 3956 7600 5802 7846 
10 1211 1320 515 641 5246 6749 6751 7708 8341 3033 
10 154 1090 258 373 8857 4547 6313 2224 8157 9330 
10 557 554 1251 679 2767 8886 8148 3143 3144 8147 
10 368 433 511 1261 2820 2836 2634 6825 6738 6827 
10 1159 586 450 1160 7321 2874 8246 4761 6645 8247 
10 1147 1255 433 1261 5035 7801 6737 5300 5301 6738 
10 1354 574 784 787 7352 3474 8810 7354 3485 3486 
10 1397 1398 1473 750 5502 5735 5736 7117 7179 7118 
10 1035 198 307 306 4383 8249 7610 7611 6987 2025 
10 575 576 1270 697 2845 7543 8499 3219 3220 7185 
10 305 83 197 306 2018 6430 8020 2022 2020 6988 
10 576 575 1151 439 2845 7527 8522 2843 2841 8160 
10 698 1270 1439 1436 7187 5631 7188 6975 5619 5633 
10 783 1496 872 758 9128 7129 3764 3472 7847 3765 
10 937 982 876 1502 4157 4158 3992 7436 7697 7437 
10 358 1202 459 504 8142 8622 2481 2614 8903 2802 
10 1496 872 1517 1566 7129 7800 5878 6044 7130 6046 
10 1445 682 758 1425 7922 3397 7794 5653 7923 7809 
10 511 1255 1261 433 9253 5301 6827 2836 7801 6738 
10 902 1455 824 823 8098 8099 3872 3871 7032 3622 
10 511 1255 433 544 9253 7801 2836 3146 7803 2732 
10 701 1271 1418 702 8767 5562 7554 3235 8914 7521 
10 148 253 1142 368 6283 4699 6755 2208 8453 9201 
10 891 805 1417 806 3837 9319 7123 4056 3568 7230 
10 491 1195 626 492 7744 7745 2991 2580 8837 2992 
10 459 1202 635 504 8622 8848 3019 2802 8903 3020 
10 1322 644 1403 1404 7616 9293 5518 5520 8021 5522 
10 650 524 1219 1220 3055 8690 7366 9126 9257 4935 
10 625 746 1308 1307 3363 9238 9285 6977 6978 5213 
10 627 1309 626 747 7302 8590 2996 3367 7756 3366 
10 764 644 1404 1403 3523 8021 9336 9259 9293 5522 
10 269 409 163 1121 7008 2330 4005 4638 7007 8210 
10 957 1584 1552 1548 7025 6103 8907 8709 6104 6100 
10 1547 1584 987 1548 6105 7026 6804 5978 6104 8055 
10 815 718 851 1446 3594 3701 3702 8482 9267 9111 
10 870 871 1490 926 3760 8906 8492 3985 3948 8491 
10 718 815 1447 1446 3594 8426 8425 9267 8482 5662 
10 847 750 846 1473 3689 3687 3691 7180 7118 7119 
10 781 546 1339 1239 3466 9048 7731 7730 9179 5515 
10 419 277 172 1130 9199 6497 2358 8216 4663 8689 
10 547 1122 548 1241 7458 7975 2743 7350 4996 7351 
10 608 607 1294 1180 2939 9348 8495 9027 7307 5170 
10 1001 1013 1004 1616 4324 4328 4249 9265 8606 8683 
10 729 1380 1381 1294 9313 5451 8327 8329 5446 5450 
10 1499 928 890 939 6558 4067 8242 7483 4028 4001 
10 793 1508 1511 1433 7501 6033 7160 7502 5846 6018 
10 638 1255 544 569 8045 7803 3147 3213 8046 2813 
10 370 513 1087 1208 2638 7268 7141 7162 7163 4901 
10 729 728 1380 1294 3314 8516 9313 8329 8496 5446 
10 1511 1508 889 1495 6033 7681 7161 5886 6040 8265 
10 884 797 889 1495 3810 3951 3952 8264 8464 8265 
10 607 728 1294 1293 3309 8496 9348 8319 8704 5171 
10 628 629 494 1197 3002 3000 2998 8850 8851 8625 
10 728 607 1294 608 3309 9348 8496 3310 2939 8495 
10 1191 621 622 1305 7134 2981 9052 5203 8517 8423 
10 910 832 1461 1462 3896 9288 8337 9138 7820 5704 
10 393 535 394 1108 2703 2704 2288 6791 6789 6772 
10 986 1001 944 1605 4236 4234 4183 8834 8833 9312 
10 831 909 910 1461 3893 3897 3895 9178 8721 8337 
10 1365 804 1418 1499 6995 7520 5563 5816 6996 5815 
10 1400 1496 758 1425 5807 7847 7808 5586 5806 7809 
10 885 1500 1429 1550 9152 5819 6656 8334 5982 5983 
10 1108 535 394 1229 6789 2704 6772 4961 6809 9091 
10 535 536 394 1229 2708 2706 2704 6809 8140 9091 
10 1310 628 1196 1197 7789 8854 5218 5217 8850 4871 
10 1244 1254 405 545 5034 9033 7106 8823 8675 2734 
10 451 1160 1161 1032 8172 4764 7126 9136 4759 4763 
10 783 1496 758 1400 9128 7847 3472 8926 5807 7808 
10 1562 947 1544 1475 6584 7943 6032 6031 6585 5965 
10 1507 816 1421 1492 7577 8972 5844 5843 7578 5795 
10 1475 927 1483 858 9116 8474 5768 9119 3954 8469 
10 1475 927 858 947 9116 3954 9119 6585 4037 4029 
10 1196 628 493 494 8854 2997 6950 8883 2998 2586 
10 1544 927 984 1600 8616 4168 7942 6160 8615 8607 
10 1376 1453 819 1501 5679 7860 7715 5821 5822 7717 
10 266 160 406 161 4165 2321 8640 4164 1772 2320 
10 820 1501 898 899 7094 7960 3860 3862 7095 3864 
10 407 266 406 161 8639 8640 2325 2324 4164 2320 
10 1254 561 406 545 7752 2778 9299 8675 2779 2733 
10 706 1367 808 1275 9197 7491 3574 9040 5409 6691 
10 1610 1014 996 1614 8603 4312 9180 6230 7170 9284 
10 1310 629 1197 1311 7790 8851 5217 5222 7648 5221 
10 937 874 1503 876 3991 8600 7438 3992 3778 7439 
10 641 642 516 1319 3037 3035 3034 7709 8126 7711 
10 442 1025 443 295 6634 6635 2434 2430 6779 2432 
10 707 706 808 1275 3250 3574 3575 6690 9040 6691 
10 1147 1128 10 416 4716 7249 7248 9049 8890 2352 
10 1128 8 10 416 7328 1783 7249 8890 2351 2352 
10 1147 1255 1128 416 5035 5036 4716 9049 7802 8890 
10 257 152 372 1088 6310 2220 7970 4540 6822 6823 
10 669 797 1440 1318 3528 7683 7822 9175 7684 5635 
10 555 565 678 1348 2792 3140 3141 8827 9250 7768 
10 1255 1147 433 416 5035 6737 7801 7802 9049 2396 
10 419 277 1131 173 9199 4667 8991 2359 6500 8256 
10 554 1139 427 426 9214 8191 2760 2759 8189 2407 
10 1596 1585 949 1572 6225 9088 9087 6240 6110 8180 
10 554 567 427 1139 2798 2796 2760 9214 7312 8191 
10 1327 656 769 1405 7228 3427 9338 5523 7227 7851 
10 1607 1610 1601 996 6260 6259 6198 8380 9180 7331 
10 34 35 1114 60 1640 4618 4619 1953 1954 6953 
10 1018 1009 1615 1010 4319 9071 7221 4320 4273 7222 
10 1610 1003 1600 1615 8602 7213 6211 6253 7192 6252 
10 995 1587 1007 1006 7763 8315 4315 4314 7831 4263 
10 1607 963 1570 964 8379 9172 6197 7207 4091 8549 
10 1408 1327 657 769 5532 8873 7786 7787 9338 3428 
10 960 961 1593 1008 4082 9182 8953 4264 4265 8952 
10 765 1324 1407 766 7626 5529 7244 3420 9342 9135 
10 599 464 1349 1173 2910 8090 6818 6819 8091 5336 
10 1476 903 1455 824 6716 8097 5747 8736 3874 8099 
10 598 464 1349 599 2908 8090 7565 2912 2910 6818 
10 1327 656 657 769 7228 3077 8873 9338 3427 3428 
10 1129 563 571 417 7045 2828 9092 7047 2784 2827 
10 1245 563 1356 1262 8861 9002 5361 5066 9212 5362 
10 1023 440 439 292 8948 2425 8158 7606 2423 2421 
10 231 1067 347 232 4480 6715 8970 1847 4479 7989 
10 434 693 571 1360 3201 3202 2826 8626 8685 9258 
10 34 1114 400 60 4619 6951 9310 1953 6953 2305 
10 331 1054 1055 219 7108 4445 7729 8752 4440 4444 
10 657 770 658 1328 3430 3431 3080 8874 8815 8589 
10 894 1375 800 1450 7266 7267 3849 8396 5827 8069 
10 1369 1370 1450 811 5420 5672 5673 8508 8205 8206 
10 892 852 940 1494 3955 4205 4175 9269 7913 9297 
10 828 907 1459 1458 3886 7580 8509 8432 7581 5695 
10 1013 1574 970 999 8321 8000 4282 4302 6962 4301 
10 35 36 1115 402 1641 4621 4622 7153 8814 8813 
10 904 905 1457 1561 3882 8181 8927 6719 9185 6027 
10 907 1554 908 1459 7002 8961 3891 7580 5995 9160 
10 435 1140 9 428 7335 4690 7329 2403 7587 7261 
10 828 731 1383 732 3632 7276 8510 3633 3323 7277 
10 1325 1326 1406 767 5267 5525 5526 6580 9061 6582 
10 1139 567 427 1140 7312 2796 8191 4722 9215 7586 
10 732 829 733 1384 3635 3636 3326 7279 8076 8077 
10 1452 852 755 857 7778 3705 7592 7522 3718 3716 
10 1026 444 296 1027 8818 2435 7665 4360 9041 8895 
10 731 828 1383 1382 3632 8510 7276 7274 8744 5457 
10 1392 743 1306 744 8729 8844 5482 9291 3359 8939 
10 842 841 1394 745 3676 9249 8719 3674 3672 6944 
10 1031 1160 450 1032 4760 8247 8248 4375 4759 8595 
10 1469 841 1393 1394 7638 8838 5724 5723 9249 5490 
10 303 302 450 1031 2013 2453 2454 8173 6629 8248 
10 596 1346 670 780 7516 8881 3116 3785 9043 3507 
10 842 843 746 1394 3679 3677 3675 8719 8375 9141 
10 1148 14 417 434 7051 2353 8257 7043 2398 2399 
10 418 419 172 1130 2405 2358 2356 8780 8216 8689 
10 1148 15 1129 417 4718 4662 4717 8257 7525 7047 
10 596 792 1346 780 3500 9042 7516 3785 3786 9043 
10 1478 764 1404 1403 7759 9336 5752 5751 9259 5522 
10 1478 761 1404 764 7446 7447 5752 7759 3543 9336 
10 1043 317 208 1044 8696 7725 4407 4412 9332 4411 
10 1346 1287 670 780 5329 9311 8881 9043 9074 3507 
10 1180 607 1294 1293 7307 9348 5170 5166 8319 5171 
10 969 909 1525 910 4107 7872 7464 4108 3897 8336 
10 1170 1169 461 1042 4789 7257 8957 4787 4786 7259 
10 1016 1586 1011 1602 7235 9314 4322 6586 6167 8528 
10 315 1170 460 461 8830 7858 2484 2485 8957 2487 
10 1287 1346 1427 780 5329 5592 5593 9074 9043 7897 
10 665 1335 778 666 8037 8959 3454 3104 7914 3455 
10 331 110 1055 332 2099 8751 7729 2103 2101 7624 
10 596 462 461 1169 2903 2490 2902 6723 7256 7257 
10 1336 1416 779 1427 5555 7863 7881 5656 5668 7882 
10 640 1287 668 670 8817 9260 3194 3117 9311 3508 
10 1050 325 326 471 8034 2085 8038 8631 2515 2516 
10 1246 1256 1351 565 5039 5343 5344 7299 9131 9068 
10 1050 1051 472 326 4433 7416 8728 8038 8040 2518 
10 1437 674 790 757 9335 3493 7925 7767 3395 3496 
10 345 344 490 1065 2142 2572 2573 8856 8964 9164 
10 117 225 338 339 6360 8339 2120 2122 8122 2124 
10 1337 674 1437 757 8784 9335 5620 8628 3395 7767 
10 1060 484 338 339 8060 2554 8004 8335 2555 2124 
10 1423 755 791 680 7593 3499 9349 7314 3390 3498 
10 1051 326 327 472 8040 2088 8212 7416 2518 2519 
10 319 209 1045 98 8072 4414 8074 2063 6329 9011 
10 565 1256 1351 1348 9131 5343 9068 9250 5335 5345 
10 553 1246 1247 1352 7298 5012 8186 8656 5346 5347 
10 1566 872 1517 853 7130 7800 6046 8597 3766 7797 
10 1496 1425 1517 758 5806 5877 5878 7847 7809 7795 
10 1519 1542 1572 949 6005 6064 6065 8178 8137 8180 
10 553 1246 1352 645 7298 5346 8656 3044 7300 8868 
10 678 645 1426 1351 3142 7691 7769 7770 9067 5589 
10 1179 1050 472 471 4816 8728 7378 7379 8631 2520 
10 645 1426 1351 1448 7691 5589 9067 7690 5667 5664 
10 1419 1423 791 680 5578 9349 7762 7313 7314 3498 
10 825 729 1380 1381 3624 9313 8515 8497 8327 5451 
10 1298 612 733 1297 7987 3324 7096 5183 7453 9232 
10 1454 1423 755 791 5681 7593 7591 7774 9349 3499 
10 1454 1419 1423 791 5682 5578 5681 7774 7762 9349 
10 1182 610 611 1296 7738 2948 8378 5176 9221 9268 
10 371 256 1088 152 6605 4541 6607 2218 6309 6822 
10 611 731 732 1296 3319 3323 3321 9268 7275 8192 
10 1322 519 1215 1323 7615 9123 5251 5256 8238 5255 
10 639 1093 1094 377 9320 4560 8775 3028 6869 6870 
10 48 25 389 49 1934 8115 2271 1655 1935 2272 
10 1534 920 1470 921 7253 8066 5935 7890 3930 7035 
10 157 1093 262 261 8671 4555 6289 6288 4556 1878 
10 639 1093 377 376 9320 6869 3028 2655 8104 2237 
10 39 379 380 1096 2243 2246 2244 8983 8053 9308 
10 653 1324 765 766 6667 7626 3416 3418 9342 3420 
10 264 378 379 1096 8770 2409 8051 4702 9206 8053 
10 523 522 1216 1098 2669 6875 8252 7497 7496 5071 
10 980 1563 890 1581 8940 8501 4147 6792 6102 6794 
10 26 25 49 1105 1631 1935 1936 4591 4592 8116 
10 667 1336 1427 1363 7879 5656 7880 7634 5396 5594 
10 843 842 921 1470 3679 3928 3929 7034 8718 7035 
10 1512 1438 802 1506 5860 8361 8302 5861 5841 9225 
10 844 1470 921 1471 7036 7035 3931 7617 5731 7618 
10 389 531 1105 1225 2691 7218 7282 8634 7216 4948 
10 1326 655 656 768 7476 3074 7226 9031 3424 3425 
10 771 1328 1329 658 7158 5276 7159 3433 8589 7168 
10 1617 1136 283 282 9026 4679 8226 8227 4680 1903 
10 1617 425 424 178 9294 2375 8229 8228 2373 2372 
10 1617 424 425 1136 8229 2375 9294 9026 9003 8244 
10 1136 1617 424 282 9026 8229 9003 4680 8227 9324 
10 414 1618 168 273 6963 7137 2345 8343 8170 3539 
10 414 1618 273 1125 6963 8170 8343 6964 6965 4650 
10 1125 1618 273 272 6965 8170 4650 4649 8458 1891 
10 1618 167 412 413 7138 2338 9001 6966 2342 2343 

CELL_TYPES 4498
24
24
24
24
24
24
24
24
24
24
24
24
24
24
24
24
24
24
24
24
24
24
24
24
24
24
24
24
24
24
24
24
24
24
24
24
24
24
24
24
24
24
24
24
24
24
24
24
24
24
24
24
24
24
24
24
24
24
24
24
24
24
24
24
24
24
24
24
24
24
24
24
24
24
24
24
24
24
24
24
24
24
24
24
24
24
24
24
24
24
24
24
24
24
24
24
24
24
24
24
24
24
24
24
24
24
24
24
24
24
24
24
24
24
24
24
24
24
24
24
24
24
24
24
24
24
24
24
24
24
24
24
24
24
24
24
24
24
24
24
24
24
24
24
24
24
24
24
24
24
24
24
24
24
24
24
24
24
24
24
24
24
24
24
24
24
24
24
24
24
24
24
24
24
24
24
24
24
24
24
24
24
24
24
24
24
24
24
24
24
24
24
24
24
24
24
24
24
24
24
24
24
24
24
24
24
24
24
24
24
24
24
24
24
24
24
24
24
24
24
24
24
24
24
24
24
24
24
24
24
24
24
24
24
24
24
24
24
24
24
24
24
24
24
24
24
24
24
24
24
24
24
24
24
24
24
24
24
24
24
24
24
24
24
24
24
24
24
24
24
24
24
24
24
24
24
24
24
24
24
24
24
24
24
24
24
24
24
24
24
24
24
24
24
24
24
24
24
24
24
24
24
24
24
24
24
24
24
24
24
24
24
24
24
24
24
24
24
24
24
24
24
24
24
24
24
24
24
24
24
24
24
24
24
24
24
24
24
24
24
24
24
24
24
24
24
24
24
24
24
24
24
24
24
24
24
24
24
24
24
24
24
24
24
24
24
24
24
24
24
24
24
24
24
24
24
24
24
24
24
24
24
24
24
24
24
24
24
24
24
24
24
24
24
24
24
24
24
24
24
24
24
24
24
24
24
24
24
24
24
24
24
24
24
24
24
24
24
24
24
24
24
24
24
24
24
24
24
24
24
24
24
24
24
24
24
24
24
24
24
24
24
24
24
24
24
24
24
24
24
24
24
24
24
24
24
24
24
24
24
24
24
24
24
24
24
24
24
24
24
24
24
24
24
24
24
24
24
24
24
24
24
24
24
24
24
24
24
24
24
24
24
24
24
24
24
24
24
24
24
24
24
24
24
24
24
24
24
24
24
24
24
24
24
24
24
24
24
24
24
24
24
24
24
24
24
24
24
24
24
24
24
24
24
24
24
24
24
24
24
24
24
24
24
24
24
24
24
24
24
24
24
24
24
24
24
24
24
24
24
24
24
24
24
24
24
24
24
24
24
24
24
24
24
24
24
24
24
24
24
24
24
24
24
24
24
24
24
24
24
24
24
24
24
24
24
24
24
24
24
24
24
24
24
24
24
24
24
24
24
24
24
24
24
24
24
24
24
24
24
24
24
24
24
24
24
24
24
24
24
24
24
24
24
24
24
24
24
24
24
24
24
24
24
24
24
24
24
24
24
24
24
24
24
24
24
24
24
24
24
24
24
24
24
24
24
24
24
24
24
24
24
24
24
24
24
24
24
24
24
24
24
24
24
24
24
24
24
24
24
24
24
24
24
24
24
24
24
24
24
24
24
24
24
24
24
24
24
24
24
24
24
24
24
24
24
24
24
24
24
24
24
24
24
24
24
24
24
24
24
24
24
24
24
24
24
24
24
24
24
24
24
24
24
24
24
24
24
24
24
24
24
24
24
24
24
24
24
24
24
24
24
24
24
24
24
24
24
24
24
24
24
24
24
24
24
24
24
24
24
24
24
24
24
24
24
24
24
24
24
24
24
24
24
24
24
24
24
24
24
24
24
24
24
24
24
24
24
24
24
24
24
24
24
24
24
24
24
24
24
24
24
24
24
24
24
24
24
24
24
24
24
24
24
24
24
24
24
24
24
24
24
24
24
24
24
24
24
24
24
24
24
24
24
24
24
24
24
24
24
24
24
24
24
24
24
24
24
24
24
24
24
24
24
24
24
24
24
24
24
24
24
24
24
24
24
24
24
24
24
24
24
24
24
24
24
24
24
24
24
24
24
24
24
24
24
24
24
24
24
24
24
24
24
24
24
24
24
24
24
24
24
24
24
24
24
24
24
24
24
24
24
24
24
24
24
24
24
24
24
24
24
24
24
24
24
24
24
24
24
24
24
24
24
24
24
24
24
24
24
24
24
24
24
24
24
24
24
24
24
24
24
24
24
24
24
24
24
24
24
24
24
24
24
24
24
24
24
24
24
24
24
24
24
24
24
24
24
24
24
24
24
24
24
24
24
24
24
24
24
24
24
24
24
24
24
24
24
24
24
24
24
24
24
24
24
24
24
24
24
24
24
24
24
24
24
24
24
24
24
24
24
24
24
24
24
24
24
24
24
24
24
24
24
24
24
24
24
24
24
24
24
24
24
24
24
24
24
24
24
24
24
24
24
24
24
24
24
24
24
24
24
24
24
24
24
24
24
24
24
24
24
24
24
24
24
24
24
24
24
24
24
24
24
24
24
24
24
24
24
24
24
24
24
24
24
24
24
24
24
24
24
24
24
24
24
24
24
24
24
24
24
24
24
24
24
24
24
24
24
24
24
24
24
24
24
24
24
24
24
24
24
24
24
24
24
24
24
24
24
24
24
24
24
24
24
24
24
24
24
24
24
24
24
24
24
24
24
24
24
24
24
24
24
24
24
24
24
24
24
24
24
24
24
24
24
24
24
24
24
24
24
24
24
24
24
24
24
24
24
24
24
24
24
24
24
24
24
24
24
24
24
24
24
24
24
24
24
24
24
24
24
24
24
24
24
24
24
24
24
24
24
24
24
24
24
24
24
24
24
24
24
24
24
24
24
24
24
24
24
24
24
24
24
24
24
24
24
24
24
24
24
24
24
24
24
24
24
24
24
24
24
24
24
24
24
24
24
24
24
24
24
24
24
24
24
24
24
24
24
24
24
24
24
24
24
24
24
24
24
24
24
24
24
24
24
24
24
24
24
24
24
24
24
24
24
24
24
24
24
24
24
24
24
24
24
24
24
24
24
24
24
24
24
24
24
24
24
24
24
24
24
24
24
24
24
24
24
24
24
24
24
24
24
24
24
24
24
24
24
24
24
24
24
24
24
24
24
24
24
24
24
24
24
24
24
24
24
24
24
24
24
24
24
24
24
24
24
24
24
24
24
24
24
24
24
24
24
24
24
24
24
24
24
24
24
24
24
24
24
24
24
24
24
24
24
24
24
24
24
24
24
24
24
24
24
24
24
24
24
24
24
24
24
24
24
24
24
24
24
24
24
24
24
24
24
24
24
24
24
24
24
24
24
24
24
24
24
24
24
24
24
24
24
24
24
24
24
24
24
24
24
24
24
24
24
24
24
24
24
24
24
24
24
24
24
24
24
24
24
24
24
24
24
24
24
24
24
24
24
24
24
24
24
24
24
24
24
24
24
24
24
24
24
24
24
24
24
24
24
24
24
24
24
24
24
24
24
24
24
24
24
24
24
24
24
24
24
24
24
24
24
24
24
24
24
24
24
24
24
24
24
24
24
24
24
24
24
24
24
24
24
24
24
24
24
24
24
24
24
24
24
24
24
24
24
24
24
24
24
24
24
24
24
24
24
24
24
24
24
24
24
24
24
24
24
24
24
24
24
24
24
24
24
24
24
24
24
24
24
24
24
24
24
24
24
24
24
24
24
24
24
24
24
24
24
24
24
24
24
24
24
24
24
24
24
24
24
24
24
24
24
24
24
24
24
24
24
24
24
24
24
24
24
24
24
24
24
24
24
24
24
24
24
24
24
24
24
24
24
24
24
24
24
24
24
24
24
24
24
24
24
24
24
24
24
24
24
24
24
24
24
24
24
24
24
24
24
24
24
24
24
24
24
24
24
24
24
24
24
24
24
24
24
24
24
24
24
24
24
24
24
24
24
24
24
24
24
24
24
24
24
24
24
24
24
24
24
24
24
24
24
24
24
24
24
24
24
24
24
24
24
24
24
24
24
24
24
24
24
24
24
24
24
24
24
24
24
24
24
24
24
24
24
24
24
24
24
24
24
24
24
24
24
24
24
24
24
24
24
24
24
24
24
24
24
24
24
24
24
24
24
24
24
24
24
24
24
24
24
24
24
24
24
24
24
24
24
24
24
24
24
24
24
24
24
24
24
24
24
24
24
24
24
24
24
24
24
24
24
24
24
24
24
24
24
24
24
24
24
24
24
24
24
24
24
24
24
24
24
24
24
24
24
24
24
24
24
24
24
24
24
24
24
24
24
24
24
24
24
24
24
24
24
24
24
24
24
24
24
24
24
24
24
24
24
24
24
24
24
24
24
24
24
24
24
24
24
24
24
24
24
24
24
24
24
24
24
24
24
24
24
24
24
24
24
24
24
24
24
24
24
24
24
24
24
24
24
24
24
24
24
24
24
24
24
24
24
24
24
24
24
24
24
24
24
24
24
24
24
24
24
24
24
24
24
24
24
24
24
24
24
24
24
24
24
24
24
24
24
24
24
24
24
24
24
24
24
24
24
24
24
24
24
24
24
24
24
24
24
24
24
24
24
24
24
24
24
24
24
24
24
24
24
24
24
24
24
24
24
24
24
24
24
24
24
24
24
24
24
24
24
24
24
24
24
24
24
24
24
24
24
24
24
24
24
24
24
24
24
24
24
24
24
24
24
24
24
24
24
24
24
24
24
24
24
24
24
24
24
24
24
24
24
24
24
24
24
24
24
24
24
24
24
24
24
24
24
24
24
24
24
24
24
24
24
24
24
24
24
24
24
24
24
24
24
24
24
24
24
24
24
24
24
24
24
24
24
24
24
24
24
24
24
24
24
24
24
24
24
24
24
24
24
24
24
24
24
24
24
24
24
24
24
24
24
24
24
24
24
24
24
24
24
24
24
24
24
24
24
24
24
24
24
24
24
24
24
24
24
24
24
24
24
24
24
24
24
24
24
24
24
24
24
24
24
24
24
24
24
24
24
24
24
24
24
24
24
24
24
24
24
24
24
24
24
24
24
24
24
24
24
24
24
24
24
24
24
24
24
24
24
24
24
24
24
24
24
24
24
24
24
24
24
24
24
24
24
24
24
24
24
24
24
24
24
24
24
24
24
24
24
24
24
24
24
24
24
24
24
24
24
24
24
24
24
24
24
24
24
24
24
24
24
24
24
24
24
24
24
24
24
24
24
24
24
24
24
24
24
24
24
24
24
24
24
24
24
24
24
24
24
24
24
24
24
24
24
24
24
24
24
24
24
24
24
24
24
24
24
24
24
24
24
24
24
24
24
24
24
24
24
24
24
24
24
24
24
24
24
24
24
24
24
24
24
24
24
24
24
24
24
24
24
24
24
24
24
24
24
24
24
24
24
24
24
24
24
24
24
24
24
24
24
24
24
24
24
24
24
24
24
24
24
24
24
24
24
24
24
24
24
24
24
24
24
24
24
24
24
24
24
24
24
24
24
24
24
24
24
24
24
24
24
24
24
24
24
24
24
24
24
24
24
24
24
24
24
24
24
24
24
24
24
24
24
24
24
24
24
24
24
24
24
24
24
24
24
24
24
24
24
24
24
24
24
24
24
24
24
24
24
24
24
24
24
24
24
24
24
24
24
24
24
24
24
24
24
24
24
24
24
24
24
24
24
24
24
24
24
24
24
24
24
24
24
24
24
24
24
24
24
24
24
24
24
24
24
24
24
24
24
24
24
24
24
24
24
24
24
24
24
24
24
24
24
24
24
24
24
24
24
24
24
24
24
24
24
24
24
24
24
24
24
24
24
24
24
24
24
24
24
24
24
24
24
24
24
24
24
24
24
24
24
24
24
24
24
24
24
24
24
24
24
24
24
24
24
24
24
24
24
24
24
24
24
24
24
24
24
24
24
24
24
24
24
24
24
24
24
24
24
24
24
24
24
24
24
24
24
24
24
24
24
24
24
24
24
24
24
24
24
24
24
24
24
24
24
24
24
24
24
24
24
24
24
24
24
24
24
24
24
24
24
24
24
24
24
24
24
24
24
24
24
24
24
24
24
24
24
24
24
24
24
24
24
24
24
24
24
24
24
24
24
24
24
24
24
24
24
24
24
24
24
24
24
24
24
24
24
24
24
24
24
24
24
24
24
24
24
24
24
24
24
24
24
24
24
24
24
24
24
24
24
24
24
24
24
24
24
24
24
24
24
24
24
24
24
24
24
24
24
24
24
24
24
24
24
24
24
24
24
24
24
24
24
24
24
24
24
24
24
24
24
24
24
24
24
24
24
24
24
24
24
24
24
24
24
24
24
24
24
24
24
24
24
24
24
24
24
24
24
24
24
24
24
24
24
24
24
24
24
24
24
24
24
24
24
24
24
24
24
24
24
24
24
24
24
24
24
24
24
24
24
24
24
24
24
24
24
24
24
24
24
24
24
24
24
24
24
24
24
24
24
24
24
24
24
24
24
24
24
24
24
24
24
24
24
24
24
24
24
24
24
24
24
24
24
24
24
24
24
24
24
24
24
24
24
24
24
24
24
24
24
24
24
24
24
24
24
24
24
24
24
24
24
24
24
24
24
24
24
24
24
24
24
24
24
24
24
24
24
24
24
24
24
24
24
24
24
24
24
24
24
24
24
24
24
24
24
24
24
24
24
24
24
24
24
24
24
24
24
24
24
24
24
24
24
24
24
24
24
24
24
24
24
24
24
24
24
24
24
24
24
24
24
24
24
24
24
24
24
24
24
24
24
24
24
24
24
24
24
24
24
24
24
24
24
24
24
24
24
24
24
24
24
24
24
24
24
24
24
24
24
24
24
24
24
24
24
24
24
24
24
24
24
24
24
24
24
24
24
24
24
24
24
24
24
24
24
24
24
24
24
24
24
24
24
24
24
24
24
24
24
24
24
24
24
24
24
24
24
24
24
24
24
24
24
24
24
24
24
24
24
24
24
24
24
24
24
24
24
24
24
24
24
24
24
24
24
24
24
24
24
24
24
24
24
24
24
24
24
24
24
24
24
24
24
24
24
24
24
24
24
24
24
24
24
24
24
24
24
24
24
24
24
24
24
24
24
24
24
24
24
24
24
24
24
24
24
24
24
24
24
24
24
24
24
24
24
24
24
24
24
24
24
24
24
24
24
24
24
24
24
24
24
24
24
24
24
24
24
24
24
24
24
24
24
24
24
24
24
24
24
24
24
24
24
24
24
24
24
24
24
24
24
24
24
24
24
24
24
24
24
24
24
24
24
24
24
24
24
24
24
24
24
24
24
24
24
24
24
24
24
24
24
24
24
24
24
24
24
24
24
24
24
24
24
24
24
24
24
24
24
24
24
24
24
24
24
24
24
24
24
24
24
24
24
24
24
24
24
24
24
24
24
24
24
24
24
24
24
24
24
24
24
24
24
24
24
24
24
24
24
24
24
24
24
24
24
24
24
24
24
24
24
24
24
24
24
24
24
24
24
24
24
24
24
24
24
24
24
24
24
24
24
24
24
24
24
24
24
24
24
24
24
24
24
24
24
24
24
24
24
24
24
24
24
24
24
24
24
24
24
24
24
24
24
24
24
24
24
24
24
24
24
24
24
24
24
24
24
24
24
24
24
24
24
24
24
24
24
24
24
24
24
24
24
24
24
24
24
24
24
24
24
24
24
24
24
24
24
24
24
24
24
24
24
24
24
24
24
24
24
24
24
24
24
24
24
24
24
24
24
24
24
24
24
24
24
24
24
24
24
24
24
24
24
24
24
24
24
24
24
24
24
24
24
24
24
24
24
24
24
24
24
24
24
24
24
24
24
24
24
24
24
24
24
24
24
24
24
24
24
24
24
24
24
24
24
24
24
24
24
24
24
24
24
24
24
24
24
24
24
24
24
24
24
24
24
24
24
24
24
24
24
24
24
24
24
24
24
24
24
24
24
24
24
24
24
24
24
24
24
24
24
24
24
24
24
24
24
24
24
24
24
24
24
24
24
24
24
24
24
24
24
24
24
24
24
24
24
24
24
24
24
24
24
24
24
24
24
24
24
24
24
24
24
24
24
24
24
24
24
24
24
24
24
24
24
24
24
24
24
24
24
24
24
24
24
24
24
24
24
24
24
24
24
24
24
24
24
24
24
24
24
24
24
24
24
24
24
24
24
24
24
24
24
24
24
24
24
24
24
24
24
24
24
24
24
24
24
24
24
24
24
24
24
24
24
24
24
24
24
24
24
24
24
24
24
24
24
24
24
24
24
24
24
24
24
24
24
24
24
24
24
24
24
24
24
24
24
24
24
24
24
24
24
24
24
24
24
24
24
24
24
24
24
24
24
24
24
24
24
24
24
24
24
24
24
24
24
24
24
24
24
24
24
24
24
24
24
24
24
24
24
24
24
24
24
24
24
24
24
24
24
24
24
24
24
24
24
24
24
24
24
24
24
24
24
24
24
24
24
24
24
24
24
24
24
24
24
24
24
24
24
24
24
24
24
24
24
24
24
24
24
24
24
24
24
24
24
24
24
24
24
24
24
24
24
24
24
24
24
24
24
24
24
24
24
24
24
24
24
24
24
24
24
24
24
24
24
24
24
24
24
24
24
24
24
24
24
24
24
24
24
24
24
24
24
24
24
24
24
24
24
24
24
24
24
24
24
24
24
24
24
24
24
24
24
24
24
24
24
24
24
24
24
24
24
24
24
24
24
24
24
24
24
24
24
24
24
24
24
24
24
24
24
24
24
24
24
24
24
24
24
24
24
24
24
24
24
24
24
24
24
24
24
24
24
24
24
24
24
24
24
24
24
24
24
24
24
24
24
24
24
24
24
24
24
24
24
24
24
24
24
24
24
24
24
24
24
24
24
24
24
24
24
24
24
24
24
24
24
24
24
24
24
24
24
24
24
24
24
24
24
24
24
24
24
24
24
24
24
24
24
24
24
24
24
24
24
24
24
24
24
24
24
24
24
24
24
24
24
24
24
24
24
24
24
24
24
24
24
24
24
24
24
24
24
24
24
24
24
24
24
24
24
24
24
24
24
24
24
24
24
24
24
24
24
24
24
24
24
24
24
24
24
24
24
24
24
24
24
24
24
24
24
24
24
24
24
24
24
24
24
24
24
24
24
24
24
24
24
24
24
24
24
24
24
24
24
24
24
24
24
24
24
24
24
24
24
24
24
24
24
24
24
24
24
24
24
24
24
24
24
24
24
24
24
24
24
24
24
24
24
24
24
24
24
24
24
24
24
24
24
24
24
24
24
24
24
24
24
24
24
24
24
24
24
24
24
24
24
24
24
24
24
24
24
24
24
24
24
24
24
24
24
24
24
24
24
24
24
24
24
24
24
24
24
24
24
24
24
24
24
24
24
24
24
24
24
24
24
24
24
24
24
24
24
24
24
24
24
24
24
24
24
24
24
24
24
24
24
24
24
24
24
24
24
24
24
24
24
24
24
24
24
24
24
24
24
24
24
24
24
24
24
24
24
24
24
24
24
24
24
24
24
24
24
24
24
24
24
24
24
24
24
24
24
24
24
24
24
24
24
24
24
24
24
24
24
24
24
24
24
24
24
24
24
24
24
24
24
24
24
24
24
24
24
24
24
24
24
24
24
24
24
24
24
24
24
24
24
24
24
24
24
24
24
24
24
24
24
24
24
24
24
24
24
24
24
24
24
24
24
24
24
24
24
24
24
24
24
24
24
24
24
24
24
24
24
24
24
24
24
24
24
24
24
24
24
24
24
24
24
24
24
24
24
24
24
24
24
24
24
24
24
24
24
24
24
24
24
24
24
24
24
24
24
24
24
24
24
24
24
24
24
24
24
24
24
24
24
24
24
24
24
24
24
24
24
24
24
24
24
24
24
24
24
24
24
24
24
24
24
24
24
24
24
24
24
24
24
24
24
24
24
24
24
24
24
24
24
24
24
24
24
24
24
24
24
24
24
24
24
24
24
24
24
24
24
24
24
24
24
24
24
24
24
24
24
24
24
24
24
24
24
24
24
24
24
24
24
24
24
24
24
24
24
24
24
24
24
24
24
24
24
24
24
24
24
24
24
24
24
24
24
24
24
24
24
24
24
24
24
24
24
24
24
24
24
24
24
24
24
24
24
24
24
24
24
24
24
24
24
24
24
24
24
24
24
24
24
24
24
24
24
24
24
24
24
24
24
24
24
24
24
24
24
24
24
24
24
24
24
24
24

POINT_DATA 9350
FIELD FieldData 19
Displacement 3 9350 double
0 0 0 0 0 0 0 0 0 
0 0 0 -2.80424 31.9619 -0.244233 -2.80101 31.9591 0.0225057 
5.52412 33.1234 -0.35288 5.52747 33.1193 -0.0862008 -3.10419 16.0837 -0.111257 
-3.0877 16.0792 0.0137125 -3.13287 15.6628 -0.110219 -3.12694 15.6608 0.0226696 
-0.011949 20.8066 -0.139916 0.0168252 20.7806 -0.013777 0.136037 21.0788 -0.174931 
0.122647 21.0604 0.00362659 0 0 0 0 0 0 
0 0 0 0 0 0 0 0 0 
0 0 0 0 0 0 0 0 0 
0 0 0 0 0 0 0 0 0 
0 0 0 0 0 0 0 0 0 
0 0 0 0 0 0 0 0 0 
0 0 0 0 0 0 0 0 0 
0 0 0 0 0 0 0 0 0 
0 0 0 0 0 0 0 0 0 
0 0 0 0 0 0 0 0 0 
0 0 0 0 0 0 0 0 0 
0 0 0 0 0 0 0 0 0 
0 0 0 0 0 0 0 0 0 
0 0 0 0 0 0 0 0 0 
0 0 0 0 0 0 0 0 0 
0 0 0 0 0 0 0 0 0 
0 0 0 5.20419 33.0524 -0.348881 4.92432 32.9899 -0.345351 
4.63628 32.9249 -0.341647 4.33971 32.8573 -0.337715 4.06641 32.7944 -0.333998 
3.79203 32.7308 -0.330148 3.50001 32.6629 -0.325943 3.20598 32.5949 -0.321613 
2.91784 32.5289 -0.317239 2.63543 32.4655 -0.312824 2.35025 32.4035 -0.30832 
2.01953 32.3351 -0.303062 1.73664 32.2805 -0.298555 1.41638 32.2238 -0.293533 
1.10218 32.1744 -0.288807 0.794962 32.1326 -0.284343 0.460599 32.0948 -0.279765 
0.170676 32.0685 -0.275961 -0.152763 32.0458 -0.272098 -0.499093 32.0286 -0.268345 
-0.789883 32.0185 -0.265346 -1.10202 32.0109 -0.262261 -1.39295 32.0055 -0.259468 
-1.68807 32 -0.256603 -1.96351 31.9936 -0.253757 -2.24448 31.9851 -0.250773 
-2.54043 31.9735 -0.247362 1.07409 1.23231 -0.0864647 1.73585 2.07148 -0.0694809 
2.1996 2.80285 -0.0768989 2.54807 3.46214 -0.0878928 2.85639 4.16442 -0.0992207 
3.09538 4.82696 -0.109598 3.29926 5.51647 -0.119423 3.45126 6.14658 -0.128474 
3.57125 6.74935 -0.1368 3.68451 7.44722 -0.146045 3.77243 8.12043 -0.154599 
3.84113 8.76862 -0.162473 3.89773 9.42266 -0.170036 3.94456 10.0825 -0.177369 
3.98367 10.7481 -0.184483 4.01688 11.4194 -0.191391 4.04836 12.1607 -0.198781 
4.07415 12.8429 -0.205386 4.09848 13.5299 -0.211811 4.12361 14.2543 -0.218394 
4.14954 14.983 -0.224803 4.17586 15.682 -0.230858 4.20746 16.451 -0.237313 
4.23946 17.1556 -0.243073 4.27493 17.8619 -0.248696 4.32011 18.6704 -0.254951 
4.36596 19.4121 -0.260581 4.42071 20.221 -0.266621 4.46989 20.8944 -0.271502 
4.52724 21.634 -0.276765 4.5874 22.372 -0.28195 4.65545 23.1751 -0.287527 
4.71639 23.8761 -0.292344 4.77801 24.5757 -0.297132 4.83982 25.2741 -0.301917 
4.91026 26.0713 -0.307344 4.96856 26.7351 -0.311824 5.02928 27.432 -0.316532 
5.09242 28.1623 -0.321436 5.1524 28.8599 -0.32608 5.20947 29.5249 -0.330447 
5.27247 30.2571 -0.335186 5.33597 30.9899 -0.339838 5.40015 31.7232 -0.344378 
5.45905 32.39 -0.348436 -2.81796 31.1949 -0.241116 -2.84054 30.1285 -0.236523 
-2.87012 29.0006 -0.231127 -2.90768 27.6854 -0.224454 -2.94518 26.1579 -0.216502 
-2.96552 24.4828 -0.209247 -2.97119 22.7675 -0.202842 -3.00112 21.2245 -0.199284 
-3.11432 19.6045 -0.193619 -3.32437 18.1084 -0.184152 -3.59562 16.7663 -0.174721 
-3.86406 15.6133 -0.166748 -4.05012 14.6855 -0.161246 -4.14281 13.6257 -0.161376 
-4.13427 12.6046 -0.161954 -4.07747 11.419 -0.159061 -3.96997 9.8717 -0.152002 
-3.80777 8.23746 -0.143608 -3.57692 6.71704 -0.136643 -3.26423 5.36439 -0.132901 
-2.84728 4.13194 -0.134286 -2.40702 3.17255 -0.143675 -1.8472 2.2334 -0.167802 
-1.09198 1.2281 -0.242241 -0.151137 20.4491 -0.134678 -0.349003 20.1079 -0.138798 
-0.577056 19.7145 -0.138975 -0.84391 19.2652 -0.133947 -1.11562 18.8155 -0.131533 
-1.38598 18.3763 -0.126064 -1.68632 17.8869 -0.121328 -1.97023 17.4341 -0.112277 
-2.2686 16.9624 -0.103684 -2.55971 16.5083 -0.100217 -2.84785 16.0883 -0.0820325 
-0.0821192 20.7624 -0.124633 -0.284537 20.4617 -0.133413 -0.506285 20.1374 -0.135291 
-0.780839 19.7373 -0.132826 -1.04293 19.3536 -0.132801 -1.34123 18.9113 -0.12956 
-1.64889 18.4479 -0.122159 -1.93592 18.0116 -0.11723 -2.24037 17.5349 -0.111704 
-2.56077 17.0244 -0.104394 -2.84405 16.5581 -0.101405 5.23954 33.0554 -0.0825839 
4.90369 32.9805 -0.0783442 4.54358 32.8991 -0.0738546 4.16644 32.8127 -0.0691907 
3.81174 32.7307 -0.0648457 3.43845 32.644 -0.060305 3.0618 32.5572 -0.0557872 
2.7059 32.4767 -0.0515626 2.37094 32.4036 -0.0475878 1.9893 32.3249 -0.0430372 
1.61115 32.2535 -0.0385129 1.19363 32.1842 -0.0333529 0.798914 32.1294 -0.0282711 
0.376634 32.0831 -0.0225107 0.00813321 32.0529 -0.0172418 -0.391948 32.0301 -0.0112975 
-0.769271 32.0161 -0.00559109 -1.15708 32.0069 0.000288351 -1.52947 32.0001 0.0058929 
-1.88758 31.9927 0.011063 -2.22545 31.983 0.0156545 -2.52923 31.9711 0.0193104 
1.05364 1.1853 0.274511 1.82515 2.19634 0.200641 2.34933 3.07514 0.169062 
2.75039 3.91126 0.147779 3.07128 4.7578 0.131618 3.32711 5.62812 0.118507 
3.49939 6.37987 0.109092 3.64127 7.16659 0.100483 3.76772 8.08325 0.091611 
3.8494 8.85564 0.0847903 3.91647 9.66751 0.0782712 3.97159 10.52 0.0718307 
4.01591 11.3818 0.0656297 4.05429 12.285 0.0592567 4.08694 13.1643 0.0532391 
4.11803 14.0511 0.0472184 4.15224 15.0111 0.0406647 4.18821 15.9441 0.0342291 
4.22724 16.8483 0.0278863 4.26993 17.7222 0.0216376 4.32028 18.6317 0.0149681 
4.37482 19.5082 0.00836612 4.44246 20.4855 0.000843412 4.51648 21.461 -0.00677431 
4.59563 22.4341 -0.0144051 4.67551 23.3707 -0.0217127 4.75143 24.238 -0.0283579 
4.83392 25.1697 -0.0353053 4.91911 26.1331 -0.0422122 4.9948 26.9961 -0.0481434 
5.0841 28.0252 -0.0549268 5.16415 28.9554 -0.0608286 5.2413 29.8534 -0.066365 
5.31609 30.7192 -0.07162 5.39466 31.6191 -0.0770623 5.46532 32.4193 -0.0819351 
-2.8142 31.2255 0.025524 -2.82979 30.4588 0.0285186 -2.85435 29.4615 0.0319115 
-2.88696 28.3057 0.0353826 -2.92226 27.0304 0.0391045 -2.95099 25.6392 0.043753 
-2.96435 24.093 0.0502879 -2.97249 22.2751 0.0603277 -3.02828 20.6263 0.0678487 
-3.1663 19.1417 0.0711649 -3.37551 17.8211 0.0709359 -3.64458 16.5545 0.0678158 
-3.8843 15.5272 0.0623387 -4.06215 14.6028 0.0594691 -4.14384 13.5659 0.0670725 
-4.1229 12.3006 0.0803948 -4.03861 10.7982 0.0914058 -3.92456 9.34276 0.0980325 
-3.7356 7.68545 0.102721 -3.47971 6.2338 0.105237 -3.18572 5.09486 0.106387 
-2.82121 4.07169 0.108566 -2.35954 3.09164 0.104955 -1.80486 2.18002 0.103383 
-1.0919 1.22229 0.118305 -0.147285 20.4647 -0.0308052 -0.333061 20.1347 -0.0255213 
-0.556689 19.7454 -0.0229021 -0.791502 19.3463 -0.0193413 -1.07003 18.8829 -0.0161659 
-1.35388 18.4179 -0.0140924 -1.64043 17.9558 -0.014778 -1.94665 17.4648 -0.0121705 
-2.28143 16.9369 -0.0158315 -2.58146 16.4703 -0.0161122 -2.85534 16.0593 -0.0217304 
-0.0903537 20.7453 -0.0384101 -0.310904 20.4197 -0.03215 -0.564208 20.0506 -0.0268209 
-0.809726 19.692 -0.0233098 -1.07497 19.3024 -0.0202266 -1.36008 18.8791 -0.0182111 
-1.63618 18.4626 -0.0153766 -1.93723 18.0024 -0.0138539 -2.23726 17.5367 -0.00992774 
-2.52232 17.0821 -0.00863083 -2.83089 16.5731 -0.00674674 5.06329 32.429 -0.34408 
4.76381 32.3824 -0.340371 4.45288 32.3129 -0.336352 4.17301 32.2027 -0.33242 
3.88189 32.1108 -0.328371 3.59944 32.045 -0.324462 3.29757 31.9622 -0.320142 
3.00872 31.8794 -0.315891 2.7095 31.8023 -0.31143 2.42219 31.7491 -0.307134 
2.12615 31.6849 -0.302639 1.82867 31.6211 -0.298084 1.52789 31.5606 -0.293509 
1.21082 31.5083 -0.288767 0.906222 31.4687 -0.284363 0.585085 31.4313 -0.27987 
0.28841 31.4025 -0.275866 -0.0282037 31.3907 -0.27188 -0.345591 31.3819 -0.26811 
-0.648002 31.3772 -0.264741 -0.960432 31.3737 -0.261369 -1.26089 31.3754 -0.258267 
-1.55116 31.3832 -0.255322 -1.83512 31.3756 -0.252368 -2.11564 31.311 -0.249121 
-2.41174 31.2195 -0.245561 1.06091 1.12405 -0.113081 1.70354 2.07517 -0.100542 
2.11382 2.8159 -0.103744 2.46274 3.5672 -0.10988 2.72557 4.2538 -0.116681 
2.94913 4.95657 -0.124202 3.12443 5.66315 -0.132312 3.2567 6.33166 -0.14006 
3.37592 6.97438 -0.146868 3.47222 7.66493 -0.154438 3.54562 8.36204 -0.161925 
3.60931 9.03534 -0.168843 3.65841 9.68912 -0.175405 3.70075 10.3762 -0.182143 
3.73606 11.0417 -0.188481 3.77437 11.7594 -0.195131 3.79651 12.4548 -0.201466 
3.82096 13.1535 -0.207673 3.84263 13.8816 -0.213973 3.86214 14.6048 -0.220067 
3.88519 15.2987 -0.225823 3.91866 16.0439 -0.231928 3.9434 16.7583 -0.237586 
3.97183 17.5021 -0.243347 4.01194 18.2502 -0.249085 4.0599 19.0032 -0.254792 
4.10939 19.7536 -0.260385 4.15815 20.4912 -0.265755 4.22335 21.2324 -0.271179 
4.28365 21.9606 -0.276382 4.34657 22.6765 -0.281452 4.41055 23.4237 -0.286653 
4.4742 24.1416 -0.291613 4.54939 24.8753 -0.296744 4.61582 25.5962 -0.301683 
4.67078 26.3312 -0.306544 4.73177 27.0629 -0.311406 4.79487 27.7354 -0.315918 
4.86303 28.4445 -0.320655 4.9224 29.1344 -0.32514 4.98899 29.8559 -0.329819 
5.05333 30.5883 -0.334462 5.11079 31.274 -0.338707 5.1818 31.9249 -0.342872 
-2.50053 29.5012 -0.237265 -2.4824 28.2767 -0.232127 -2.5044 26.7916 -0.225335 
-2.50726 25.1273 -0.217715 -2.48344 23.4931 -0.209774 -2.49234 22.0164 -0.202387 
-2.56638 20.3692 -0.193799 -2.75379 18.9643 -0.185349 -3.05487 17.5285 -0.176274 
-3.36318 16.3173 -0.16985 -3.64025 15.2528 -0.170342 -3.78873 14.2363 -0.171328 
-3.80997 13.1291 -0.167258 -3.73009 11.9648 -0.163353 -3.59405 10.5368 -0.15808 
-3.45346 9.0371 -0.152057 -3.27313 7.44702 -0.146211 -3.03343 5.97453 -0.142605 
-2.70649 4.62457 -0.143204 -2.20849 3.27297 -0.151748 -1.79798 2.28421 -0.167037 
-1.30066 1.46349 -0.195193 -0.606938 0.661592 -0.215079 -0.466616 0.570189 -0.191894 
-0.38892 0.517006 -0.181874 -0.311842 0.485754 -0.186982 -0.266667 0.486835 -0.185692 
-0.223977 0.48788 -0.181843 -0.175092 0.474767 -0.170496 -0.151085 0.482629 -0.163616 
-0.128925 0.474011 -0.170161 -0.0935622 0.487828 -0.181147 -0.0595599 0.493866 -0.181083 
-0.0251672 0.491959 -0.183748 0.00904316 0.503986 -0.181034 0.0215353 0.50374 -0.181119 
0.0578521 0.50426 -0.182228 0.0925041 0.498336 -0.183501 0.128097 0.493304 -0.184763 
0.168082 0.489251 -0.171343 0.191997 0.503582 -0.1649 0.221876 0.496876 -0.17161 
0.259932 0.48399 -0.180328 0.298551 0.468117 -0.183135 0.283749 0.377563 -0.171511 
0.381936 0.46258 -0.164419 0.54532 0.586354 -0.144069 -0.0112373 22.0708 -0.286623 
-0.472001 21.4885 -0.212147 -0.515693 20.8389 -0.181754 -0.653348 20.315 -0.176655 
-0.885897 19.8198 -0.177246 -1.14058 19.364 -0.177977 -1.38656 18.8904 -0.178293 
-1.64999 18.3914 -0.178074 -1.93617 17.8976 -0.176508 -2.23882 17.4258 -0.166759 
-2.55879 16.9176 -0.169137 -2.87194 16.364 -0.164873 -3.10357 15.0338 -0.201495 
0.0969236 21.2016 -0.203185 -0.105167 20.5919 -0.187509 -0.296983 20.0998 -0.186401 
-0.516982 19.6022 -0.187988 -0.744582 19.1499 -0.18994 -0.996833 18.6712 -0.190167 
-1.2763 18.1679 -0.188223 -1.5462 17.6975 -0.185329 -1.79663 17.2007 -0.188474 
-2.08285 16.6852 -0.191213 -2.35055 16.1615 -0.185999 -2.55232 15.5765 -0.187933 
-2.5505 30.4768 -0.240945 0.390753 22.4293 -0.267426 -0.499038 22.2291 -0.259723 
-3.21966 15.8826 -0.168238 -3.43299 14.8802 -0.184382 0.408556 21.9587 -0.242205 
-2.72034 14.878 -0.192876 4.57855 31.8091 -0.335292 4.2801 31.6228 -0.330845 
3.99466 31.499 -0.326811 3.7041 31.3943 -0.322761 3.39863 31.2852 -0.318451 
3.09955 31.2155 -0.314317 2.79556 31.1413 -0.310001 2.50383 31.0619 -0.305754 
2.21388 31.0104 -0.301588 1.9236 30.9617 -0.297386 1.6333 30.9079 -0.293138 
1.32627 30.8234 -0.288562 1.02327 30.7832 -0.284229 0.704841 30.7351 -0.279723 
0.400916 30.7225 -0.275606 0.103868 30.6959 -0.271668 -0.227672 30.6662 -0.267432 
-0.52925 30.6426 -0.263762 -0.825474 30.6721 -0.260435 -1.1441 30.694 -0.256955 
-1.4312 30.7238 -0.253946 -1.7054 30.7262 -0.251012 -1.96107 30.7365 -0.24832 
-2.0913 28.9658 -0.239531 1.64111 2.18901 -0.121291 2.02455 2.96312 -0.123473 
2.33102 3.69481 -0.126785 2.56442 4.38342 -0.131576 2.76612 5.12566 -0.137396 
2.92466 5.84846 -0.14371 3.04796 6.53085 -0.149749 3.14337 7.19615 -0.155822 
3.22901 7.89983 -0.162132 3.30848 8.62322 -0.168389 3.35789 9.28083 -0.17425 
3.39914 9.95305 -0.180168 3.43926 10.6328 -0.186043 3.47386 11.3536 -0.192153 
3.50115 12.085 -0.198268 3.51668 12.7564 -0.203827 3.53603 13.4775 -0.209689 
3.56636 14.2026 -0.215524 3.586 14.9224 -0.221171 3.61181 15.6269 -0.226674 
3.64114 16.3893 -0.232531 3.66792 17.0986 -0.237888 3.70545 17.8364 -0.243438 
3.75425 18.6021 -0.249178 3.7926 19.3258 -0.254447 3.84226 20.0804 -0.259942 
3.89588 20.7919 -0.2651 3.95944 21.5494 -0.270568 4.02809 22.2632 -0.275747 
4.10029 22.981 -0.280916 4.17227 23.7055 -0.286051 4.24029 24.436 -0.291124 
4.30484 25.1733 -0.296155 4.3567 25.9049 -0.300976 4.41397 26.6338 -0.305765 
4.47671 27.3522 -0.310495 4.5366 28.0199 -0.314863 4.61458 28.7406 -0.319668 
4.69245 29.451 -0.324361 4.77032 30.1732 -0.329071 4.8201 30.9075 -0.333468 
4.86888 31.693 -0.338067 -1.09916 1.34428 -0.184799 1.1823 1.41789 -0.123802 
-2.10163 27.4241 -0.233009 -2.07994 25.9031 -0.226841 -2.03329 24.1997 -0.218889 
-1.99671 22.6708 -0.208897 -2.02787 21.1245 -0.197195 -2.19645 19.6622 -0.186601 
-2.54056 18.1675 -0.177342 -3.5097 13.7238 -0.174918 -3.415 12.6023 -0.168923 
-3.24307 11.2262 -0.163694 -3.07356 9.78633 -0.158884 -2.90459 8.2129 -0.154049 
-2.704 6.65813 -0.150468 -2.44792 5.23513 -0.149593 -2.10297 3.95633 -0.152807 
-1.67653 2.85432 -0.159294 -0.844225 22.3861 -0.226678 -0.280242 23.2507 -0.259506 
-0.880022 1.21933 -0.176209 -0.708548 1.10985 -0.172455 -0.583169 1.05419 -0.172718 
-0.507564 1.07649 -0.17059 -0.428314 1.07227 -0.166312 -0.344227 1.04931 -0.163965 
-0.277728 1.06427 -0.164562 -0.217955 1.0811 -0.167067 -0.153477 1.08859 -0.17089 
-0.0866236 1.09211 -0.172918 -0.0233412 1.08838 -0.173778 0.0378644 1.09763 -0.174955 
0.0982799 1.08082 -0.174695 0.166376 1.08621 -0.175349 0.234523 1.08505 -0.173542 
0.305575 1.09031 -0.169169 0.378532 1.1034 -0.166037 0.457224 1.10576 -0.165012 
0.5458 1.10513 -0.165789 0.641735 1.10032 -0.165898 0.68711 0.991603 -0.160159 
0.805821 1.00908 -0.146364 -3.23886 14.2235 -0.183655 -0.835707 21.6576 -0.207041 
-1.22474 20.0322 -0.182475 -1.46009 19.5084 -0.180439 -1.69688 18.9298 -0.178321 
-1.9059 18.4018 -0.176229 -2.20573 18.0124 -0.174548 -2.50186 17.4607 -0.171862 
-2.88922 16.9031 -0.170096 -0.441366 19.0166 -0.191609 -1.90577 15.84 -0.184023 
-0.90648 17.9275 -0.188951 -0.0147217 20.2194 -0.198909 -1.66398 16.3802 -0.187058 
-2.23513 30.3183 -0.243607 -1.16314 17.4104 -0.187995 0.206576 23.2983 -0.266119 
-0.874301 20.9518 -0.190659 -0.974456 20.4074 -0.183702 0.200675 20.8879 -0.211102 
-0.224003 19.5914 -0.193587 -0.664238 18.4698 -0.190621 -1.41181 16.8885 -0.187883 
-2.13567 15.2503 -0.182736 -0.75918 23.3254 -0.243318 -2.91507 14.075 -0.184386 
0.636319 23.4592 -0.263318 0.418607 21.5527 -0.227211 -2.33289 14.5867 -0.183964 
0.667165 22.7117 -0.25568 4.12442 30.8922 -0.325386 3.81915 30.7352 -0.321017 
3.51539 30.6131 -0.316815 3.19781 30.4792 -0.312346 2.89243 30.3777 -0.308102 
2.58461 30.3372 -0.304008 2.29671 30.2984 -0.300114 2.01728 30.2549 -0.296264 
1.73208 30.2206 -0.292318 1.42692 30.0962 -0.28781 1.13764 29.9938 -0.283595 
0.818449 29.968 -0.279184 0.524592 29.9732 -0.275239 0.209436 29.9553 -0.271004 
-0.109645 29.8785 -0.266631 -0.427177 29.8325 -0.26248 -0.725207 29.8472 -0.258872 
-1.03952 29.9236 -0.255394 -1.34784 30.0087 -0.252157 -1.60283 30.0898 -0.249597 
-1.7013 26.6348 -0.234918 4.4953 31.0752 -0.330606 1.91316 3.13806 -0.137805 
2.186 3.86351 -0.139871 2.37147 4.54071 -0.143814 2.55684 5.31248 -0.148422 
2.69812 6.0445 -0.15327 2.803 6.72453 -0.158158 2.89376 7.43394 -0.16336 
2.97043 8.14377 -0.168561 3.03651 8.86824 -0.173948 3.08421 9.53747 -0.17903 
3.12904 10.2263 -0.184297 3.16089 10.9246 -0.189638 3.19311 11.6577 -0.195187 
3.20956 12.3853 -0.20069 3.22356 13.0728 -0.205859 3.24316 13.7968 -0.211264 
3.26667 14.5392 -0.216755 3.2952 15.2408 -0.221929 3.32247 15.9582 -0.227184 
3.35393 16.7064 -0.23266 3.38657 17.4277 -0.237894 3.42172 18.1779 -0.243292 
3.46915 18.9406 -0.248828 3.51351 19.6657 -0.254026 3.56825 20.391 -0.259285 
3.63001 21.124 -0.2646 3.69034 21.8585 -0.26986 3.75677 22.5469 -0.274841 
3.83238 23.2827 -0.280146 3.89893 24.0125 -0.285249 3.9632 24.7345 -0.29022 
4.02813 25.478 -0.295257 4.08253 26.2228 -0.30012 4.14029 26.9549 -0.304849 
4.20758 27.6389 -0.309348 4.28312 28.3425 -0.313982 4.35966 29.0632 -0.318667 
4.45191 29.7926 -0.323523 4.5607 30.4667 -0.328241 -1.71374 27.9737 -0.24002 
-1.56194 21.7537 -0.203132 -1.61824 25.0222 -0.229372 -3.13717 13.2984 -0.175899 
-1.5138 2.14811 -0.166802 1.18199 1.63936 -0.140374 -2.31488 7.32674 -0.157168 
-2.1187 5.86675 -0.155204 -1.86835 4.50265 -0.155706 -1.57893 3.37863 -0.158262 
-0.328221 18.3616 -0.195695 0.361316 20.4858 -0.215103 -1.15661 21.5554 -0.202034 
0.491403 24.3824 -0.263344 -1.17486 1.8835 -0.166575 -0.908996 1.6207 -0.167701 
-0.852388 1.76752 -0.165927 -0.716315 1.73244 -0.164708 -0.564932 1.63562 -0.163489 
-0.470028 1.68547 -0.163796 -0.383901 1.76752 -0.165451 -0.288029 1.79079 -0.167792 
-0.181479 1.77269 -0.170196 -0.0787042 1.7648 -0.172055 0.0170698 1.75479 -0.173253 
0.11106 1.74751 -0.173983 0.214117 1.75736 -0.173846 0.318352 1.77269 -0.172475 
0.429955 1.7907 -0.17011 0.5402 1.77981 -0.167492 0.663657 1.79818 -0.165647 
0.798119 1.79727 -0.164058 0.943008 1.79009 -0.161131 1.06388 1.71898 -0.153857 
-2.70655 10.5655 -0.165046 1.55073 2.35868 -0.138746 -1.19766 22.3637 -0.214823 
-1.80262 19.4967 -0.183003 -1.63877 20.3735 -0.189259 -0.105083 19.0062 -0.199035 
-2.94268 12.0353 -0.169686 -1.25845 16.0405 -0.187567 -1.54776 23.3316 -0.218952 
-0.548427 17.7471 -0.193468 -1.49766 15.5244 -0.18544 0.00140103 24.343 -0.258064 
0.12183 19.7222 -0.205013 -1.02202 16.5678 -0.189455 -1.72831 14.9378 -0.183236 
-2.49966 8.96944 -0.160833 -0.7759 17.1509 -0.19144 -1.88847 29.9517 -0.245871 
-2.52178 13.8278 -0.181626 -2.07141 18.7884 -0.179422 0.604026 21.2904 -0.227815 
-1.11606 23.1753 -0.2271 0.917239 24.406 -0.265126 -1.93611 14.3139 -0.182225 
0.788486 22.2474 -0.243941 -0.546967 24.3793 -0.248276 1.01003 23.3688 -0.258868 
-1.30562 27.2897 -0.24285 3.64252 29.9109 -0.314981 3.31527 29.7218 -0.310306 
2.99518 29.5852 -0.305922 2.66982 29.4867 -0.301596 2.37382 29.4539 -0.29784 
2.08309 29.4661 -0.29427 1.80473 29.4209 -0.290568 1.53592 29.4021 -0.287039 
1.2513 29.1011 -0.282441 0.951763 29.1067 -0.278531 0.620624 29.1708 -0.274308 
0.328529 29.1772 -0.27044 0.00373605 29.1044 -0.265915 -0.31921 28.9731 -0.261284 
-0.638476 28.9495 -0.257054 -0.971948 29.0585 -0.253242 -1.27093 29.2741 -0.250361 
-1.63684 29.2 -0.245746 -1.2307 25.9267 -0.239204 -2.72292 12.9595 -0.176282 
-1.73795 6.43919 -0.160695 1.99483 3.99902 -0.150254 2.15995 4.71775 -0.153643 
2.31029 5.48002 -0.157306 2.43505 6.23644 -0.161246 2.53229 6.94306 -0.165248 
2.6141 7.66921 -0.169571 2.68349 8.41675 -0.174163 2.73551 9.1086 -0.17858 
2.77625 9.79399 -0.18307 2.80956 10.5009 -0.187806 2.83666 11.2334 -0.192716 
2.86183 11.9708 -0.197678 2.88731 12.6662 -0.202405 2.90541 13.3863 -0.207326 
2.93012 14.12 -0.212355 2.95439 14.8489 -0.217345 2.98301 15.5559 -0.222218 
3.01477 16.2999 -0.227375 3.04825 17.0256 -0.232434 3.07679 17.7728 -0.237568 
3.11837 18.5206 -0.242809 3.1605 19.266 -0.248026 3.2057 19.9862 -0.253101 
3.25508 20.7207 -0.258302 3.31548 21.4671 -0.263656 3.38524 22.165 -0.268766 
3.45362 22.8594 -0.273799 3.53636 23.5999 -0.279194 3.62038 24.3023 -0.284293 
3.68029 25.045 -0.289311 3.71164 25.7737 -0.293882 3.77331 26.5279 -0.29877 
3.85003 27.2641 -0.303629 3.92872 27.955 -0.308177 4.02371 28.7404 -0.313333 
4.13107 29.5216 -0.318559 -1.10389 24.3818 -0.236603 0.319175 25.4256 -0.261728 
-0.855842 15.695 -0.189762 0.281507 19.0647 -0.208161 -0.615652 16.2567 -0.192482 
-1.24187 2.39605 -0.162644 -1.57934 5.01015 -0.159273 -1.372 3.7982 -0.159623 
0.821183 25.4799 -0.26733 -1.88624 8.09648 -0.163622 -1.10365 2.6684 -0.161756 
-0.833862 2.33729 -0.162847 -0.687907 2.2908 -0.163377 -0.614013 2.51797 -0.164482 
-0.473083 2.5649 -0.166456 -0.323554 2.5241 -0.168583 -0.174235 2.49976 -0.170652 
-0.0395448 2.52017 -0.172139 0.0968982 2.522 -0.173121 0.229415 2.49403 -0.173396 
0.368409 2.506 -0.172715 0.519703 2.56572 -0.171299 0.673916 2.56933 -0.169399 
0.836064 2.55572 -0.167118 1.00162 2.54574 -0.164517 1.18726 2.52285 -0.160345 
1.4177 2.54418 -0.152109 -1.25836 20.8272 -0.191752 0.551237 19.9216 -0.217292 
-0.385873 16.9259 -0.195413 3.9489 30.1014 -0.319439 -0.168632 17.5974 -0.198524 
-1.09634 15.164 -0.18729 4.27066 30.3055 -0.324132 -2.07255 9.79699 -0.167204 
-1.33608 14.6296 -0.184836 0.0506106 18.3103 -0.202378 -0.173983 25.5224 -0.255488 
1.82634 3.36571 -0.147589 -2.12232 13.5391 -0.180466 0.814935 20.7966 -0.22805 
-0.709712 25.6159 -0.246717 1.29984 25.5877 -0.271588 -2.3179 11.5289 -0.171616 
-1.55212 13.9926 -0.182772 -1.32494 28.4088 -0.246553 -0.823213 26.9447 -0.248526 
3.12048 28.7387 -0.303475 2.77101 28.5526 -0.298712 2.42802 28.4945 -0.29457 
2.13188 28.5815 -0.291498 1.86817 28.7067 -0.288809 1.49467 28.2649 -0.282803 
1.03073 27.9267 -0.276098 0.71645 28.3549 -0.273305 0.421004 28.3247 -0.269337 
0.136408 28.4294 -0.265842 -0.172694 28.106 -0.260749 -0.924009 28.0556 -0.250594 
-2.28492 12.7638 -0.177138 0.0270707 16.7279 -0.199959 1.75813 4.05716 -0.158235 
1.91873 4.87036 -0.16108 2.05159 5.67859 -0.164222 2.15076 6.42016 -0.167395 
2.23855 7.17118 -0.170884 2.30962 7.92018 -0.174592 2.36544 8.67186 -0.178529 
2.40409 9.36297 -0.18234 2.43777 10.0725 -0.186368 2.47586 10.8327 -0.190785 
2.51058 11.5414 -0.194967 2.53269 12.2672 -0.199363 2.54227 12.952 -0.20354 
2.56442 13.6904 -0.208133 2.59693 14.4467 -0.212915 2.63054 15.1585 -0.217479 
2.66204 15.8808 -0.222165 2.69785 16.6243 -0.227068 2.7165 17.3753 -0.231904 
2.75317 18.111 -0.236821 2.79576 18.8775 -0.242022 2.83063 19.5993 -0.246902 
2.86997 20.3276 -0.251902 2.90835 21.0723 -0.25702 2.98256 21.8113 -0.262489 
3.0778 22.507 -0.267858 3.16058 23.2347 -0.273258 3.23987 23.9433 -0.278413 
3.36231 24.6124 -0.283654 3.3206 25.2736 -0.287179 3.37161 26.0347 -0.292031 
3.47044 26.8417 -0.297489 3.56172 27.5891 -0.302424 3.66807 28.3889 -0.307695 
3.80007 29.2523 -0.31352 1.19574 26.8299 -0.274738 1.58297 3.28169 -0.155691 
0.185989 26.5159 -0.261785 -0.442469 15.2987 -0.19247 1.29212 24.4868 -0.266644 
-1.18781 5.49994 -0.163868 -1.11075 4.20822 -0.162337 0.685393 26.6001 -0.268323 
-1.41144 8.86485 -0.169651 -0.949229 3.11805 -0.162317 -0.7419 3.3935 -0.164755 
-0.525734 3.44314 -0.167277 -0.321773 3.25732 -0.169268 -0.153046 3.37924 -0.170874 
0.0356402 3.45604 -0.172287 0.227013 3.48609 -0.173099 0.380145 3.27085 -0.173082 
0.567662 3.44648 -0.17236 0.761241 3.45443 -0.171053 0.966314 3.4213 -0.168932 
1.16044 3.36772 -0.166084 1.37207 3.31799 -0.161843 -0.203632 15.9672 -0.196017 
3.46008 28.9653 -0.308333 -0.694373 14.7363 -0.18943 0.730155 19.1835 -0.21758 
-0.957384 14.2296 -0.186539 1.0761 21.7549 -0.240514 -1.2663 7.11833 -0.166467 
-0.5439 27.9508 -0.255339 0.236405 17.5013 -0.204202 1.69979 26.7823 -0.279594 
0.473091 18.3056 -0.209835 -1.72686 13.3283 -0.180782 -1.59276 10.655 -0.173422 
1.02276 20.1085 -0.227425 -1.2109 13.7169 -0.18396 1.48128 23.8688 -0.263152 
1.31128 22.7999 -0.253104 -1.78405 12.212 -0.177182 2.49659 27.4429 -0.290698 
1.85684 27.9091 -0.285744 0.521859 27.4508 -0.268432 1.76647 25.2229 -0.273348 
-0.312252 26.8642 -0.25573 1.64956 5.01113 -0.166719 1.76881 5.85348 -0.169354 
1.85385 6.62001 -0.17205 1.92763 7.40594 -0.175092 1.9846 8.20714 -0.1785 
2.01268 8.92396 -0.181776 2.04184 9.64695 -0.1852 2.04972 10.4097 -0.188976 
2.08916 11.1935 -0.192952 2.19893 11.8602 -0.196547 2.13007 12.4927 -0.199803 
2.13632 13.2287 -0.203776 2.18849 14.0059 -0.208265 2.24364 14.7716 -0.21284 
2.2989 15.4747 -0.217178 2.31615 16.2145 -0.221577 2.31975 16.9931 -0.226128 
2.36684 17.7136 -0.230779 2.41453 18.4628 -0.235699 2.45542 19.1996 -0.240573 
2.47306 19.945 -0.245352 2.4527 20.7053 -0.249914 2.52554 21.4712 -0.255585 
2.65506 22.2218 -0.261787 2.81586 22.9118 -0.26783 2.83466 23.6636 -0.272785 
2.99758 24.5106 -0.279566 2.87157 25.4308 -0.283797 3.08764 26.3503 -0.291008 
3.16705 27.1834 -0.296236 3.30797 28.0414 -0.302097 1.51858 4.13193 -0.164033 
-0.869015 9.79546 -0.176042 2.15768 26.427 -0.282563 -0.413133 4.35046 -0.169226 
-0.106405 4.31138 -0.171394 0.166563 4.64043 -0.173183 0.470128 4.41796 -0.173598 
0.766884 4.44174 -0.172981 1.04294 4.34388 -0.171087 1.27988 4.23846 -0.168208 
1.33698 21.0839 -0.238735 -0.604873 13.6723 -0.187699 -0.277839 14.0937 -0.191163 
2.13006 27.5388 -0.287278 0.128802 27.5408 -0.26341 0.0148799 14.8092 -0.195389 
1.23105 19.233 -0.225902 2.91665 27.6538 -0.296057 0.943916 18.351 -0.217482 
-1.35029 12.8345 -0.181166 -0.778763 4.45947 -0.165932 -0.777357 7.96149 -0.17228 
-1.01257 11.5943 -0.179864 1.71217 22.2233 -0.251982 2.32163 25.2554 -0.277795 
0.284927 15.6251 -0.200086 0.479064 16.5292 -0.204857 -0.699354 5.99991 -0.168919 
1.52223 20.2203 -0.235681 1.91675 23.6898 -0.264804 1.37595 5.14169 -0.170693 
1.46575 6.02776 -0.173084 1.54752 6.83565 -0.175309 1.58301 7.64241 -0.178064 
1.60089 8.4235 -0.180977 1.63118 9.18031 -0.183862 1.612 10.03 -0.187351 
1.59885 10.9154 -0.191068 1.71861 11.8098 -0.195285 1.69409 12.686 -0.199235 
1.76374 13.5337 -0.203614 1.83102 14.3982 -0.208278 1.85932 15.1372 -0.212225 
1.95791 15.8199 -0.216508 1.87345 16.5509 -0.21968 1.90425 17.3654 -0.224297 
2.04662 18.0729 -0.229648 2.03184 18.7909 -0.233579 2.1296 19.5067 -0.238891 
2.02461 20.213 -0.241984 1.94716 21.1215 -0.246862 2.23056 22.0069 -0.25597 
2.37644 22.9915 -0.264097 2.5245 24.2326 -0.27352 2.70199 26.4885 -0.288036 
-0.235335 10.822 -0.182738 -0.865209 12.9481 -0.18421 0.663263 17.4305 -0.209979 
-0.234201 9.0179 -0.17824 -0.208192 7.1921 -0.174639 1.53875 18.1874 -0.224576 
1.08801 5.32048 -0.173447 -0.165069 5.56675 -0.172226 0.361907 6.29498 -0.176141 
0.747055 5.57808 -0.174996 0.494183 14.3811 -0.198214 -0.307715 12.4896 -0.186789 
0.833057 15.3643 -0.204588 0.172145 13.3331 -0.19257 0.857002 6.7989 -0.177235 
1.03744 11.2495 -0.190731 1.14037 12.2559 -0.194918 1.27586 13.1798 -0.199321 
1.46168 15.8704 -0.212563 1.71414 19.337 -0.232987 1.11629 17.4786 -0.216057 
0.268497 8.26188 -0.179295 0.428931 10.1753 -0.184813 0.976136 16.4806 -0.210342 
1.15293 6.23968 -0.17549 1.25184 7.06834 -0.177281 1.17038 7.77654 -0.17959 
1.15956 8.58345 -0.181932 1.23886 9.43616 -0.184892 1.08835 10.2406 -0.18733 
1.42556 14 -0.203781 1.37746 14.8839 -0.207355 1.47697 16.9595 -0.217805 
0.423776 11.8276 -0.189606 0.733299 13.0751 -0.195571 0.978881 14.1069 -0.201064 
0.719103 7.82208 -0.179523 0.768158 9.10826 -0.183057 5.07396 32.1232 -0.0760728 
4.66867 32.2363 -0.0720974 4.30641 32.1691 -0.0677324 3.95129 31.9911 -0.0629446 
3.56886 31.8596 -0.0581061 3.19428 31.7454 -0.053422 2.80991 31.6571 -0.0487715 
2.45758 31.5617 -0.044406 2.09014 31.4899 -0.0399115 1.7171 31.4127 -0.0352505 
1.34016 31.3464 -0.0304632 0.943203 31.2901 -0.0252815 0.533241 31.2336 -0.019726 
0.158012 31.1979 -0.0145398 -0.229944 31.1849 -0.00910104 -0.599835 31.1372 -0.00365775 
-0.987369 31.1585 0.0016908 -1.36384 31.1552 0.00696299 -1.72011 31.1194 0.0119659 
-2.06159 31.1174 0.0164658 -2.4038 31.2472 0.0203528 0.886093 0.974541 0.236801 
1.77104 2.24056 0.187814 2.2821 3.22163 0.159557 2.65875 4.12205 0.141255 
2.93654 5.00121 0.127078 3.14393 5.8388 0.115795 3.30251 6.67955 0.106195 
3.41467 7.51551 0.0978247 3.50003 8.35393 0.0902807 3.58241 9.1721 0.0834132 
3.64673 10.0254 0.0767792 3.69069 10.9101 0.0702756 3.72382 11.7849 0.0640575 
3.76418 12.6588 0.057965 3.78978 13.5895 0.0516341 3.81157 14.4945 0.0454991 
3.84956 15.4243 0.0391117 3.89339 16.3327 0.0327979 3.93612 17.2243 0.0265203 
3.98478 18.1518 0.0198679 4.0267 19.0372 0.0134362 4.08563 19.961 0.00658839 
4.15491 20.9364 -0.000752935 4.23483 21.8813 -0.00795376 4.31616 22.8036 -0.0149634 
4.39523 23.737 -0.0219294 4.48272 24.6466 -0.0286602 4.57024 25.571 -0.0352923 
4.64896 26.5194 -0.0417831 4.73616 27.4462 -0.0480082 4.82769 28.3669 -0.0540517 
4.90309 29.2931 -0.0597909 4.96946 30.2275 -0.0653546 5.03241 31.1163 -0.0705624 
-2.57449 30.6767 0.0244806 -2.59978 29.9186 0.0273346 -2.51309 29.0222 0.0291317 
-2.50887 27.7898 0.0328452 -2.56739 26.4571 0.0375065 -2.33688 23.2041 0.0473039 
-2.40674 21.6068 0.0537339 -2.49788 20.1177 0.0581294 -2.66992 18.8498 0.0612663 
-2.9233 17.6395 0.064495 -3.13554 16.5185 0.0674578 -3.81362 14.0117 0.0716101 
-3.74072 12.8379 0.0814334 -3.64207 11.4511 0.0902496 -3.53679 10.0205 0.0973654 
-3.40599 8.57354 0.103449 -3.2204 6.98153 0.109243 -2.99558 5.67022 0.113597 
-2.69225 4.47265 0.118002 -2.27637 3.34085 0.122929 -1.77336 2.30639 0.129226 
-1.19351 1.36589 0.143224 -0.547668 0.553161 0.177772 -0.541764 0.632911 0.177719 
-0.432145 0.613358 0.186024 -0.343255 0.581696 0.176477 -0.285873 0.572279 0.17657 
-0.225748 0.54582 0.182733 -0.175792 0.553294 0.183248 -0.12257 0.554471 0.18234 
-0.0845387 0.552782 0.174939 -0.0443545 0.550776 0.17346 -0.00769735 0.565791 0.178071 
0.0444285 0.574816 0.173467 0.0877364 0.588832 0.171496 0.131941 0.601972 0.171355 
0.166144 0.575705 0.182457 0.211094 0.548209 0.184928 0.267071 0.554526 0.186772 
0.305273 0.531004 0.181415 0.363722 0.547744 0.188037 0.515813 0.652946 0.202402 
-0.0760522 21.9956 0.0792794 -0.442174 21.4055 0.033846 -0.509631 20.8685 0.0195056 
-0.671004 20.4014 0.0189715 -0.87592 19.8949 0.023628 -1.11491 19.3879 0.0292701 
-1.38374 18.9073 0.0362639 -1.64712 18.4035 0.0430336 -1.92105 17.9153 0.0501159 
-2.25261 17.4024 0.0528263 -2.60163 16.8822 0.0644138 -2.90703 16.2897 0.0721547 
-3.09468 15.0985 0.106371 0.098243 21.1804 0.0193458 -0.120467 20.539 0.0144715 
-0.32312 20.0261 0.0201052 -0.548235 19.5265 0.0283418 -0.776202 19.0786 0.0355317 
-1.02415 18.619 0.0444815 -1.27703 18.1696 0.0501927 -1.54521 17.6796 0.0527028 
-1.81612 17.1935 0.0625236 -2.06815 16.6851 0.0732136 -2.30845 16.127 0.0868167 
-2.5329 15.518 0.101842 -2.33007 25.1236 0.0400345 -3.62914 15.1583 0.0686024 
-0.467265 22.1142 0.0528157 0.33224 22.2826 0.0447589 -2.72755 14.8199 0.0993172 
-3.2347 15.7587 0.0693559 -3.36131 15.1 0.0773541 0.382679 21.8931 0.0322439 
4.42513 31.5877 -0.0662419 4.71551 31.3932 -0.0684819 3.73322 31.0866 -0.0562183 
3.33602 30.9252 -0.0510675 2.93703 30.7793 -0.0459401 2.55141 30.6833 -0.0411398 
2.19536 30.604 -0.036658 1.82951 30.5191 -0.0319268 1.47525 30.4898 -0.0275157 
1.07321 30.4163 -0.0221546 0.682722 30.3576 -0.016837 0.295185 30.3117 -0.0115251 
-0.0727303 30.2719 -0.00640993 -0.469615 30.2513 -0.00100798 -0.824962 30.2474 0.00372877 
-1.19895 30.2956 0.00841495 -1.56887 30.2518 0.0133577 -1.91575 30.1223 0.0182189 
-2.2699 30.1715 0.0224226 -1.9699 19.6404 0.0481796 2.21058 3.52163 0.14851 
1.80756 2.60695 0.166799 1.22767 1.60789 0.191161 2.5251 4.39467 0.134489 
2.78226 5.27814 0.122227 2.9408 6.12795 0.112186 3.052 6.95423 0.103678 
3.15647 7.79702 0.0958956 3.23203 8.64823 0.0886706 3.28864 9.49568 0.0819715 
3.34545 10.3856 0.0753067 3.4003 11.2704 0.0688816 3.43553 12.1759 0.0625334 
3.45713 13.0672 0.0564754 3.48626 14.0109 0.0500723 3.51804 14.8884 0.0440852 
3.55767 15.8209 0.0376913 3.5908 16.7294 0.0314341 3.63362 17.6324 0.0251168 
3.68151 18.5827 0.0183511 3.73224 19.4589 0.0120481 3.79351 20.3927 0.00526179 
3.87914 21.353 -0.00188643 3.94914 22.2874 -0.00871571 4.01913 23.1897 -0.0152404 
4.11943 24.1127 -0.0220415 4.209 25.0437 -0.0286541 4.29982 25.9994 -0.0352622 
4.39436 26.9088 -0.0414667 4.48346 27.8099 -0.0474087 4.56482 28.7316 -0.0532249 
4.63037 29.6839 -0.0589051 4.67678 30.5479 -0.0638211 -2.11155 28.7316 0.0255365 
-1.73745 23.8788 0.038497 -2.11316 26.9448 0.0317906 -1.90193 20.8912 0.0460986 
-1.79524 22.3157 0.0428647 -2.25283 18.4959 0.0537948 -3.26453 12.1098 0.090775 
-3.39196 13.5012 0.0846957 -3.01005 9.27557 0.102729 -2.84299 7.76227 0.109764 
-2.65497 6.30646 0.116759 -2.44651 5.03141 0.123108 -2.11832 3.76881 0.130307 
-1.65361 2.60315 0.138942 -1.08292 1.51395 0.153618 -0.933128 17.9132 0.0465065 
-0.353253 23.0551 0.0456584 -0.74044 1.21177 0.161627 -0.638384 1.23613 0.161319 
-0.50968 1.19541 0.164151 -0.404255 1.19193 0.16789 -0.306315 1.20354 0.167046 
-0.219473 1.20338 0.162862 -0.129223 1.20578 0.159587 -0.0432955 1.202 0.157469 
0.0393229 1.21872 0.156531 0.129205 1.24463 0.155321 0.2206 1.25443 0.156209 
0.307999 1.25293 0.159358 0.398933 1.23259 0.1648 0.495391 1.22022 0.166901 
0.587917 1.19212 0.165582 0.674552 1.15372 0.168417 0.875168 1.2758 0.179715 
0.108062 23.0271 0.0416412 -0.0434466 20.1264 0.0230932 -0.938127 21.189 0.0286899 
-1.07894 20.5572 0.0296996 -1.19971 19.9341 0.0308813 -1.4785 19.5351 0.0370515 
-1.7563 18.9435 0.0427919 -2.56992 17.4794 0.0601447 -0.763331 22.2201 0.0366916 
0.185455 20.7939 0.021285 -0.479324 18.9267 0.0331051 -0.252841 19.5068 0.0275446 
-1.42407 16.8996 0.0593941 -1.17566 17.415 0.0536236 -1.88049 15.7649 0.0759484 
-1.67194 16.3515 0.0663193 4.10077 31.3162 -0.0613587 -3.14777 10.7533 0.0961922 
-0.771819 21.6278 0.0310714 -3.28301 14.4314 0.0858244 -0.698047 18.4137 0.0394215 
-2.09451 15.1361 0.0868682 -0.812762 23.203 0.0372171 -2.31551 14.486 0.0924731 
-1.70035 25.8754 0.0319436 -3.55497 14.4362 0.0763352 0.444818 21.5122 0.0229185 
0.445472 23.1437 0.0303363 -2.98029 14.0161 0.0931078 -2.1891 17.9273 0.0525512 
-1.93044 18.3613 0.0463369 0.61326 22.7557 0.0251072 -1.19782 22.4848 0.0360929 
2.67572 29.7604 -0.0380096 3.48924 30.0756 -0.0485998 2.31356 29.68 -0.0334192 
1.94293 29.6101 -0.0286409 1.59242 29.566 -0.0241456 1.20135 29.5036 -0.0189206 
0.817289 29.4423 -0.0136705 0.422021 29.3813 -0.00818701 0.0570176 29.346 -0.00323031 
-0.332814 29.2655 0.00221103 -0.704398 29.2379 0.00698514 -1.07081 29.3314 0.0110453 
-1.39307 29.4698 0.0143505 -1.72865 29.095 0.0198421 -1.39162 21.3415 0.0370431 
4.3616 30.8419 -0.0618713 -0.0744772 24.0427 0.0326997 2.11576 3.86392 0.139452 
1.40543 2.16342 0.166833 2.69157 6.38055 0.109357 2.78823 7.19406 0.101727 
2.87258 8.08065 0.094108 2.9424 8.96408 0.0870036 2.9924 9.83169 0.0804781 
3.03411 10.7275 0.0740035 3.07505 11.6413 0.0675615 3.10587 12.571 0.0611792 
3.13444 13.499 0.0549222 3.16162 14.3807 0.0489909 3.19134 15.2854 0.0428714 
3.22904 16.2041 0.0366153 3.27904 17.1225 0.0302705 3.32325 18.086 0.023598 
3.37724 18.9537 0.0174669 3.44414 19.8898 0.0107922 3.50947 20.8059 0.00425336 
3.589 21.7839 -0.0027624 3.66373 22.6811 -0.00915125 3.74235 23.5712 -0.0154304 
3.8325 24.5163 -0.0220394 3.93301 25.4572 -0.0285734 4.03274 26.4049 -0.0350035 
4.13183 27.2913 -0.0409587 4.22103 28.1912 -0.0467517 4.29365 29.1043 -0.0523206 
-1.14994 24.5415 0.0321959 2.57966 5.56039 0.117989 -1.71672 27.6751 0.025224 
3.06572 29.8975 -0.0430586 -2.76694 11.4026 0.0952414 -2.23624 6.94473 0.116388 
-2.39442 8.45897 0.108219 -1.91461 4.34938 0.131874 -1.59001 3.1387 0.140471 
-1.11342 2.03954 0.15136 -0.667959 1.87355 0.15791 -0.537381 1.92472 0.157819 
-0.394515 1.91478 0.156484 -0.264089 1.90972 0.154115 -0.132867 1.93504 0.151536 
4.72588e-05 1.95996 0.149627 0.133034 1.99814 0.148391 0.268714 2.02727 0.14829 
0.411574 2.03976 0.149637 0.547545 2.03544 0.151683 0.699455 2.01597 0.153818 
0.84667 1.97528 0.155393 0.972509 1.90491 0.15815 0.0792667 19.5447 0.0295627 
-2.57588 9.96503 0.100981 -1.49794 20.3383 0.0384213 -0.846029 1.90757 0.155623 
-1.66625 14.7634 0.0798693 -0.592022 24.2523 0.0330803 -2.07292 5.54865 0.124597 
0.383652 23.9973 0.0248659 -2.90953 12.8273 0.0918649 1.79115 3.03318 0.15149 
0.325761 20.2711 0.025591 -0.593412 17.7315 0.0453739 2.3937 4.70925 0.128189 
-0.818326 17.1896 0.0514747 -0.37427 18.2893 0.0394856 -0.152257 18.8663 0.0343172 
-1.04993 16.6375 0.0578141 3.93813 30.327 -0.0547257 0.732037 23.7554 0.0177277 
0.571712 20.996 0.022833 -1.18851 26.9924 0.0227864 4.33249 30.0221 -0.0574465 
-2.54526 13.5253 0.0929444 0.722354 22.3262 0.0203567 -1.87943 14.1422 0.0857715 
-1.26152 16.0473 0.064546 1.06657 1.80259 0.164237 -1.47612 15.4192 0.0723167 
2.42107 28.7097 -0.0298809 1.31674 28.5235 -0.0152536 0.937508 28.5068 -0.0102309 
0.546273 28.4214 -0.00469522 0.165926 28.3412 0.000664623 -0.179605 28.4032 0.00474375 
-0.615311 27.891 0.0126181 -0.987013 28.3314 0.0145795 -1.37747 28.4392 0.0184782 
0.941617 23.2492 0.0147245 -0.614986 25.9305 0.0227209 2.48151 7.44402 0.0999719 
2.39275 6.52889 0.108007 2.61053 9.27095 0.0856763 2.63483 10.1579 0.0793406 
2.67724 11.1127 0.072648 2.71819 12.0581 0.0661398 2.75318 12.9434 0.0601667 
2.79178 13.8748 0.0539229 2.8091 14.774 0.0479711 2.83915 15.665 0.0420055 
2.89137 16.5751 0.0358072 2.93857 17.5518 0.0291758 2.99516 18.4866 0.0227238 
3.04642 19.3568 0.0167206 3.11766 20.2976 0.0101492 3.19301 21.2123 0.00374506 
3.28105 22.1918 -0.00311078 3.36656 23.0785 -0.00929404 3.44738 23.9846 -0.0154643 
3.53897 24.9361 -0.0218795 3.6465 25.9076 -0.028437 3.75273 26.8034 -0.0344664 
3.86257 27.6945 -0.0403961 3.94115 28.5951 -0.045963 -0.454458 16.9992 0.0504719 
-1.78849 7.56662 0.113591 0.48496 19.6045 0.0295608 -1.20056 2.74837 0.147104 
-1.47576 3.65459 0.139384 -0.439792 2.64866 0.148534 -0.62711 2.7365 0.149054 
-0.808547 2.71634 0.149572 -0.264248 2.68698 0.146238 -0.102952 2.79054 0.143702 
0.0821743 2.82299 0.142051 0.267922 2.87558 0.140962 0.462748 2.92234 0.140734 
0.650791 2.93578 0.141259 0.848517 2.90055 0.142561 1.05255 2.83119 0.144477 
1.24965 2.75815 0.147058 1.69869 28.5886 -0.0204567 2.06051 28.6284 -0.0251353 
-0.214479 25.0245 0.0256254 0.773624 24.9457 0.0114079 2.29796 5.70534 0.115803 
2.55888 8.35902 0.0926071 0.264102 25.0135 0.0197463 -2.39968 12.0424 0.0937513 
-0.677181 16.4167 0.0563965 -0.237435 17.5858 0.0449604 1.39694 2.57584 0.153217 
1.11165 24.2935 0.00834732 0.745139 20.3697 0.0248261 -1.62715 6.06406 0.122787 
-1.23997 14.403 0.0762534 0.845291 21.7956 0.0188121 -2.11555 13.5953 0.0896425 
4.02053 29.4666 -0.0512858 -1.95051 9.16851 0.104968 3.18861 28.9833 -0.039884 
0.221808 18.8705 0.0345152 2.79617 28.8335 -0.0347987 3.61141 29.1051 -0.0450755 
-2.15788 10.7319 0.0978333 -1.48192 4.63835 0.132666 -1.44321 13.6778 0.0823434 
2.23861 4.99838 0.123536 -0.941938 2.53868 0.150651 -0.892739 15.8245 0.062662 
1.6956 3.50414 0.140351 2.04684 4.28373 0.131824 -0.0224137 18.2082 0.0395931 
1.02623 27.3787 -0.0054188 -0.174993 27.2632 0.0107351 1.10707 22.6757 0.0132311 
0.5849 26.2292 0.00703394 2.07915 6.71491 0.10655 0.0213154 26.0889 0.0156797 
2.21438 10.519 0.0783802 2.20772 9.57197 0.0848313 2.35053 12.4252 0.0652472 
2.39543 13.342 0.0591273 2.40412 14.2554 0.0532068 2.42458 15.1357 0.0474468 
2.45778 16.0409 0.0414464 2.51414 17.0102 0.0349377 2.59686 17.9675 0.0283451 
2.65679 18.8625 0.0222577 2.71474 19.7837 0.016037 2.77579 20.682 0.00999341 
2.8698 21.6587 0.00328007 2.95579 22.5617 -0.00285991 3.03975 23.5044 -0.00912892 
3.13308 24.423 -0.0152291 3.2389 25.4182 -0.0217941 3.36345 26.3909 -0.0283462 
3.48626 27.3062 -0.0344733 3.62563 28.1565 -0.0403711 -1.26243 8.30515 0.108463 
2.26819 11.5178 0.0715478 -0.63651 3.46745 0.141932 -1.1573 3.404 0.142704 
-0.276281 3.70814 0.137424 -1.08153 15.1461 0.0695412 -0.447502 3.40465 0.141254 
-0.938328 3.89151 0.138884 -1.46262 9.97617 0.0996992 -0.0529855 3.79165 0.135304 
0.197738 3.84597 0.133453 0.446972 3.91684 0.132095 0.695399 3.93379 0.131735 
0.941555 3.91703 0.131796 1.21968 3.87967 0.132685 1.47556 3.75584 0.135028 
1.41062 27.5025 -0.0112939 1.99359 5.73947 0.115178 0.66624 27.5451 -0.00143043 
0.272634 27.2877 0.00506434 -1.73178 11.6064 0.0929677 -0.297572 16.2083 0.0553251 
-0.0688305 16.8115 0.0497854 1.36006 23.7126 0.00624711 2.16757 27.5676 -0.021279 
0.938309 19.6385 0.027867 2.16703 7.70264 0.0984808 -0.939057 13.2337 0.0798152 
-0.77746 14.2113 0.0727077 2.20456 8.66257 0.0912667 -1.14746 6.67765 0.118385 
2.92372 27.8715 -0.0314122 1.88236 4.67397 0.125971 -1.72625 13.0141 0.0877494 
0.656914 18.8506 0.0335745 1.00526 21.1515 0.0198119 -2.10105 12.7097 0.0912672 
2.54323 27.7056 -0.0263361 3.29528 28.0405 -0.0362776 -1.07145 5.24234 0.128265 
1.31387 25.3893 0.000242987 1.80361 27.5495 -0.0166046 -0.515275 15.5867 0.0612106 
0.144322 17.4596 0.0443774 1.58677 23.0225 0.00665861 1.50314 26.5079 -0.00761958 
-1.2238 12.3258 0.0867674 1.59313 24.8126 -0.00122003 1.96849 13.6628 0.0590637 
2.021 12.822 0.0641756 2.01086 15.5424 0.0469331 2.06842 16.4711 0.0407211 
2.1522 17.4324 0.0342298 2.21813 18.391 0.0278427 2.26752 19.2691 0.0220904 
2.33562 20.1965 0.0159485 2.38729 21.0901 0.0102233 2.51927 22.0501 0.00359986 
2.61597 22.9935 -0.00263227 2.68563 23.9255 -0.0083935 2.79741 24.9695 -0.0150553 
2.94651 25.9986 -0.0220447 3.10404 27.0569 -0.0292048 -0.292689 4.78635 0.129031 
-0.632079 4.42463 0.133626 0.0283001 4.74515 0.127508 -0.713626 15.021 0.0668125 
1.29193 22.0427 0.0136909 -0.953973 10.8133 0.0930019 -0.685262 9.14336 0.101133 
0.317618 5.07453 0.123597 0.657359 5.13301 0.121676 0.97298 5.05885 0.121586 
1.28542 4.96633 0.122133 1.60658 4.82011 0.123645 1.22385 20.4522 0.0218714 
0.111622 15.95 0.0546876 1.67853 5.9201 0.113624 1.83932 26.1477 -0.0103445 
1.98618 14.6108 0.0529594 1.72114 9.86327 0.084652 0.387406 18.144 0.038904 
1.83257 24.1053 -0.00098682 1.73597 7.01165 0.10471 -0.326559 13.181 0.075349 
1.74371 8.84371 0.0914649 1.8779 11.9893 0.0701703 -0.616749 7.3384 0.112013 
2.28825 26.4916 -0.0174316 0.365667 16.6478 0.0487314 1.43771 19.6488 0.0250295 
-0.154264 15.3714 0.0601355 1.07353 26.2442 -0.000275661 1.14098 18.7909 0.0317053 
-0.648452 5.80817 0.122906 1.76772 10.9497 0.077331 -0.544073 11.9224 0.0840636 
1.7759 22.2649 0.00848237 1.62041 16.9937 0.0399038 1.56172 16.0294 0.0461909 
1.71167 18.7993 0.0283541 1.82646 20.5968 0.0170492 2.21056 22.4112 0.00396879 
2.13053 23.3309 -9.24703e-05 2.32771 24.5013 -0.00799528 2.50672 25.6252 -0.0155285 
2.70113 26.7743 -0.0234608 1.8307 8.00655 0.0970805 0.451526 6.54612 0.112214 
1.31847 6.19709 0.111903 1.52198 21.308 0.0153485 1.50704 14.993 0.0530085 
0.931628 6.46669 0.111045 1.80335 17.9029 0.0332719 1.50455 12.7823 0.0669066 
2.05127 25.2565 -0.00872871 -0.0984404 6.11411 0.11846 0.832536 17.9722 0.0380863 
1.2487 8.95934 0.09261 -0.292516 14.4675 0.0669716 1.91385 19.7081 0.0216654 
2.01942 21.5456 0.0103139 0.0591475 8.13386 0.103262 0.597137 15.7011 0.0535245 
0.531065 17.4076 0.0430406 -0.103281 10.3198 0.0909602 1.23114 10.2675 0.0841264 
1.48451 13.9513 0.0596123 0.256973 14.8195 0.0610791 1.35766 7.66766 0.10096 
1.31175 17.8281 0.0365192 1.08513 15.6058 0.0513993 1.31962 11.5905 0.0753178 
0.138436 11.9899 0.0793077 0.865903 14.5448 0.0592281 0.658588 10.9585 0.0826127 
0.331684 13.4763 0.0690885 1.00307 13.3744 0.0658161 0.795874 7.88476 0.101699 
0.815541 12.2966 0.0735068 0.649028 9.37228 0.0925197 0.978752 16.7689 0.0447696 
-1.72195 17.8443 -0.0624934 -2.19059 17.2896 -0.0627321 0 0 0 
0 0 0 0 0 0 0 0 0 
0 0 0 0 0 0 0 0 0 
0 0 0 0 0 0 0 0 0 
0 0 0 0 0 0 0 0 0 
0 0 0 0 0 0 0 0 0 
0 0 0 0 0 0 0 0 0 
0 0 0 0 0 0 0 0 0 
0 0 0 0 0 0 0 0 0 
0 0 0 0 0 0 0 0 0 
0 0 0 0 0 0 0 0 0 
0 0 0 0 0 0 0 0 0 
0 0 0 0 0 0 0 0 0 
0 0 0 0 0 0 0 0 0 
0 0 0 0 0 0 0 0 0 
0 0 0 0 0 0 0 0 0 
0 0 0 0 0 0 0 0 0 
0 0 0 0 0 0 0 0 0 
5.36414 33.0879 -0.350879 5.06427 33.0212 -0.347128 4.78034 32.9575 -0.343507 
4.48808 32.8912 -0.339694 4.20317 32.8259 -0.335868 3.92937 32.7626 -0.332083 
3.64622 32.6969 -0.328067 3.35326 32.6289 -0.323791 3.06221 32.5618 -0.319443 
2.77695 32.497 -0.315048 2.49319 32.4343 -0.310584 2.18536 32.3689 -0.305705 
1.87841 32.3074 -0.300806 1.57688 32.2515 -0.296038 1.25955 32.1984 -0.291161 
0.948704 32.1528 -0.286537 0.627826 32.1128 -0.282026 0.315524 32.081 -0.277841 
0.00866631 32.0563 -0.273998 -0.326421 32.0364 -0.270185 -0.644935 32.0231 -0.266825 
-0.946508 32.0144 -0.263776 -1.24799 32.0081 -0.260862 -1.541 32.0028 -0.258035 
-1.82614 31.997 -0.255183 -2.10423 31.9896 -0.252275 -2.39253 31.9796 -0.249072 
-2.6723 31.9677 -0.2458 0.661259 0.499599 -0.191283 1.43249 1.67192 -0.0686454 
1.98059 2.44423 -0.074122 2.38157 3.13571 -0.0826781 2.70983 3.81524 -0.0936169 
2.9816 4.49647 -0.104508 3.20245 5.17194 -0.114565 3.37869 5.83134 -0.124053 
3.51388 6.44762 -0.132684 3.63082 7.09764 -0.141466 3.73069 7.78314 -0.150361 
3.80844 8.44387 -0.158562 3.87077 9.09495 -0.166297 3.92223 9.75187 -0.173733 
3.96496 10.4146 -0.180952 4.00093 11.0831 -0.18795 4.03315 11.7893 -0.19511 
4.06153 12.5012 -0.202104 4.08645 13.1859 -0.208615 4.11105 13.8915 -0.215112 
4.13644 14.6181 -0.221612 4.16248 15.3321 -0.22784 4.19129 16.0661 -0.234101 
4.22309 16.8031 -0.240207 4.25678 17.5086 -0.245894 4.29694 18.266 -0.251831 
4.34253 19.0412 -0.257786 4.39277 19.8166 -0.263613 4.44495 20.5578 -0.269073 
4.49819 21.2644 -0.274147 4.55701 22.0032 -0.279367 4.62117 22.7738 -0.284746 
4.68579 23.5258 -0.28994 4.74713 24.2261 -0.294742 4.8089 24.9251 -0.299531 
4.87508 25.6728 -0.304632 4.93944 26.4032 -0.309592 4.99896 27.0835 -0.314182 
5.06089 27.7971 -0.318989 5.12242 28.511 -0.323765 5.18092 29.1923 -0.328272 
5.24093 29.8909 -0.332827 5.30415 30.6234 -0.337521 5.36798 31.3565 -0.34212 
5.42955 32.0566 -0.346415 5.49158 32.7567 -0.350657 -2.81099 31.5784 -0.242666 
-2.82861 30.6614 -0.238896 -2.85483 29.5637 -0.233875 -2.88901 28.3413 -0.227818 
-2.92798 26.9194 -0.220441 -2.95787 25.3193 -0.21262 -2.96757 23.6275 -0.205898 
-2.97966 21.9986 -0.20123 -3.04503 20.4136 -0.196857 -3.20772 18.8509 -0.189198 
-3.45349 17.4296 -0.179477 -3.73058 16.1821 -0.170251 -3.96526 15.1456 -0.163251 
-4.112 14.1598 -0.161699 -4.14654 13.1213 -0.162012 -4.11013 12.016 -0.160898 
-4.02853 10.6465 -0.155833 -3.89715 9.05234 -0.14774 -3.70446 7.47473 -0.139834 
-3.43549 6.03988 -0.134283 -3.07354 4.7498 -0.132414 -2.64116 3.65692 -0.138169 
-2.14506 2.71229 -0.154335 -1.50453 1.75387 -0.193818 -0.602841 0.673659 -0.319029 
0.0742172 20.857 -0.135231 -0.0663313 20.6259 -0.134519 -0.248542 20.2822 -0.13801 
-0.460046 19.9147 -0.139268 -0.706307 19.4934 -0.138309 -0.977169 19.043 -0.133526 
-1.2486 18.5977 -0.129574 -1.53195 18.134 -0.125609 -1.82711 17.6613 -0.117485 
-2.11894 17.1978 -0.108813 -2.41327 16.7356 -0.104829 -2.70504 16.2933 -0.0938047 
-2.98937 15.8768 -0.0774143 -3.12727 15.8799 -0.100296 -0.00424571 20.8854 -0.131657 
-0.175948 20.6218 -0.131246 -0.391686 20.3049 -0.135229 -0.640815 19.9422 -0.135128 
-0.911724 19.5482 -0.134623 -1.1915 19.1354 -0.131504 -1.49561 18.6819 -0.126845 
-1.79296 18.2307 -0.119969 -2.08837 17.7748 -0.113534 -2.40412 17.2771 -0.111482 
-2.70478 16.7899 -0.10423 -2.98212 16.3149 -0.104625 5.38349 33.0874 -0.0843913 
5.07162 33.018 -0.080463 4.72371 32.9399 -0.0760967 4.35518 32.8561 -0.0715221 
3.98932 32.7718 -0.0670153 3.62545 32.6874 -0.0625852 3.25059 32.6005 -0.0580452 
2.88434 32.5167 -0.0536747 2.53888 32.4398 -0.0495781 2.18074 32.3636 -0.0453262 
1.8008 32.2884 -0.0407969 1.40295 32.2177 -0.0359684 0.996548 32.1556 -0.0308173 
0.587781 32.1047 -0.0254073 0.192126 32.0669 -0.019908 -0.192472 32.0404 -0.0142865 
-0.581298 32.0223 -0.00844119 -0.964027 32.011 -0.0026277 -1.34408 32.0034 0.00312475 
-1.70917 31.9966 0.0085287 -2.05688 31.9882 0.0133858 -2.37745 31.9773 0.0175173 
-2.66508 31.9652 0.0209055 0.582257 0.652172 0.319294 1.47207 1.71247 0.236263 
2.10223 2.64345 0.181873 2.56164 3.49688 0.157628 2.92058 4.33615 0.139148 
3.20722 5.19324 0.124813 3.41797 6.00366 0.113672 3.57445 6.77252 0.104665 
3.70883 7.6237 0.0959204 3.81089 8.46855 0.0881532 3.88488 9.26051 0.0814862 
3.94562 10.0926 0.0750148 3.99489 10.9498 0.0687041 4.03588 11.8323 0.0624255 
4.07099 12.7237 0.05625 4.10257 13.6068 0.050227 4.13493 14.5302 0.0439472 
4.16979 15.4769 0.0374672 4.20715 16.3957 0.0310736 4.24796 17.2849 0.0247755 
4.29436 18.1767 0.01832 4.34685 19.0699 0.0116716 4.40782 19.997 0.00462189 
4.47877 20.9735 -0.00296107 4.55552 21.9479 -0.010596 4.63524 22.9027 -0.0180744 
4.71332 23.8046 -0.0250549 4.79262 24.7041 -0.031861 4.87656 25.6516 -0.0387837 
4.95702 26.5646 -0.045207 5.03955 27.5106 -0.0515688 5.12415 28.4901 -0.0578976 
5.20269 29.4043 -0.0636109 5.27862 30.2862 -0.0689979 5.35526 31.1691 -0.0743417 
5.42992 32.0192 -0.0794984 5.4964 32.7693 -0.0840715 -2.80756 31.5923 0.024015 
-2.8217 30.8421 0.027051 -2.84156 29.9596 0.0302647 -2.87043 28.8824 0.0336845 
-2.9052 27.6664 0.0372158 -2.9384 26.3331 0.041314 -2.95984 24.8658 0.0467429 
-2.96615 23.1871 0.0551749 -2.99107 21.4526 0.0644381 -3.08608 19.8818 0.070006 
-3.26205 18.4764 0.0713826 -3.50451 17.1807 0.069668 -3.76555 16.0355 0.0654006 
-3.98161 15.0623 0.0602223 -4.11798 14.0893 0.0619021 -4.14433 12.9417 0.0738616 
-4.0862 11.5537 0.0866973 -3.98628 10.0701 0.0952436 -3.83998 8.51129 0.100753 
-3.6203 6.95747 0.104218 -3.34404 5.66401 0.106091 -3.01623 4.58503 0.107674 
-2.60512 3.58603 0.107261 -2.10023 2.64518 0.104169 -1.47309 1.72478 0.106668 
-0.653489 0.495252 0.194902 0.0719773 20.8691 -0.0184935 -0.0556042 20.6277 -0.0237997 
-0.239037 20.3035 -0.0275451 -0.442503 19.9436 -0.0242583 -0.671862 19.5491 -0.02047 
-0.928258 19.1181 -0.0169647 -1.20995 18.6533 -0.0148567 -1.49434 18.19 -0.0131565 
-1.79133 17.7125 -0.0115469 -2.11387 17.201 -0.0137489 -2.43169 16.7015 -0.0157317 
-2.72102 16.2583 -0.0173099 -2.98257 15.8703 -0.00705922 -3.11211 15.882 0.00574451 
0.00320674 20.8914 -0.0383769 -0.194993 20.5892 -0.0335765 -0.43393 20.2402 -0.0287249 
-0.684906 19.8739 -0.0240076 -0.940512 19.4998 -0.0212888 -1.21656 19.0927 -0.0184707 
-1.49733 18.6724 -0.0170691 -1.78817 18.2331 -0.0138895 -2.08758 17.7703 -0.0105935 
-2.3808 17.3096 -0.00855475 -2.68086 16.8258 -0.00708113 -2.96834 16.3212 -0.00286052 
-2.80262 31.9605 -0.110861 5.5258 33.1214 -0.219539 0.135131 21.0594 -0.0791551 
-3.0946 16.092 -0.0507568 -3.13166 15.6684 -0.0418642 0.00405083 20.7849 -0.0776462 
0 0 0 0 0 0 0 0 0 
0 0 0 0 0 0 0 0 0 
0 0 0 0 0 0 0 0 0 
0 0 0 0 0 0 0 0 0 
0 0 0 0 0 0 0 0 0 
0 0 0 0 0 0 0 0 0 
0 0 0 0 0 0 0 0 0 
0 0 0 0 0 0 0 0 0 
0 0 0 0 0 0 0 0 0 
0 0 0 0 0 0 0 0 0 
0 0 0 0 0 0 0 0 0 
0 0 0 0 0 0 0 0 0 
0 0 0 0 0 0 0 0 0 
0 0 0 0 0 0 0 0 0 
0 0 0 0 0 0 0 0 0 
0 0 0 0 0 0 0 0 0 
0 0 0 5.33157 32.7212 -0.348649 5.13374 32.7407 -0.346482 
4.99372 32.7095 -0.344715 4.84405 32.6862 -0.342858 4.69992 32.6537 -0.341006 
4.91358 32.4058 -0.342231 4.54453 32.619 -0.338987 4.39612 32.5851 -0.337031 
4.60842 32.3478 -0.338374 4.25621 32.5301 -0.335051 4.11946 32.4985 -0.333206 
4.31303 32.2579 -0.334399 3.9739 32.4526 -0.331163 3.83663 32.4207 -0.329263 
4.02758 32.1569 -0.330411 3.69541 32.3879 -0.327293 3.54936 32.3539 -0.325218 
3.74082 32.078 -0.326433 3.39832 32.3126 -0.323021 3.25139 32.2784 -0.320875 
3.44871 32.0036 -0.322314 3.10673 32.2372 -0.318716 2.96285 32.204 -0.316567 
3.15336 31.9208 -0.318032 2.81288 32.1656 -0.314297 2.67196 32.1336 -0.312141 
2.85938 31.8408 -0.313682 2.52791 32.1073 -0.309969 2.38576 32.0761 -0.307745 
2.56614 31.7755 -0.309299 2.23718 32.0441 -0.305458 2.07256 32.0096 -0.302867 
2.27448 31.7167 -0.304901 1.92302 31.978 -0.300553 1.78244 31.9504 -0.298355 
1.97772 31.6525 -0.300364 1.63113 31.9203 -0.296024 1.47218 31.8917 -0.293575 
1.67856 31.5903 -0.295787 1.31253 31.8657 -0.291166 1.15673 31.8409 -0.288827 
1.36962 31.5336 -0.291124 1.00321 31.8212 -0.286561 0.85105 31.8002 -0.284366 
1.0587 31.4877 -0.286552 0.689155 31.7815 -0.282105 0.52359 31.7626 -0.279809 
0.745754 31.449 -0.282085 0.374005 31.7482 -0.277838 0.230381 31.7351 -0.275978 
0.436715 31.416 -0.277847 0.0708642 31.729 -0.273974 -0.0894572 31.718 -0.272031 
0.129964 31.3956 -0.273831 -0.249242 31.7133 -0.270155 -0.421168 31.705 -0.26822 
-0.187157 31.3854 -0.269944 -0.573212 31.7025 -0.266534 -0.717852 31.6978 -0.26503 
-0.497137 31.3789 -0.266395 -0.874735 31.6957 -0.263369 -1.03021 31.6923 -0.261812 
-0.80465 31.375 -0.263025 -1.18085 31.6929 -0.260284 -1.3261 31.6905 -0.258843 
-1.11109 31.3743 -0.259808 -1.47144 31.6942 -0.257394 -1.61904 31.6918 -0.255922 
-1.40641 31.3793 -0.256798 -1.76098 31.6877 -0.25446 -1.89894 31.6848 -0.253036 
-1.69347 31.3796 -0.253852 -2.03891 31.6523 -0.251452 -2.17985 31.6482 -0.249921 
-1.97563 31.3436 -0.250754 -2.32767 31.6023 -0.248131 -2.47588 31.5965 -0.246481 
-2.26386 31.2656 -0.247354 -2.67897 31.5844 -0.244181 0.0733702 20.8551 -0.0758824 
-2.61496 31.2077 -0.243338 0.464594 0.374763 -0.156659 1.068 1.13341 -0.103058 
1.41214 1.58791 -0.0860256 1.72186 2.0492 -0.0863373 1.95858 2.43432 -0.0889498 
1.40991 1.61327 -0.0996416 2.15879 2.79358 -0.0922335 2.33622 3.13876 -0.0960707 
1.92224 2.45072 -0.100767 2.5083 3.50409 -0.0998435 2.66374 3.8681 -0.104494 
2.29854 3.19511 -0.106261 2.79335 4.20251 -0.108528 2.91402 4.54377 -0.112928 
2.60109 3.91217 -0.113133 3.0244 4.88674 -0.117099 3.12712 5.24012 -0.121739 
2.84316 4.60622 -0.120443 3.21376 5.58619 -0.126185 3.28991 5.90807 -0.130345 
3.04172 5.31024 -0.128245 3.35589 6.23644 -0.134541 3.4155 6.54347 -0.13838 
3.19415 5.99735 -0.136185 3.47532 6.86001 -0.142047 3.53165 7.21412 -0.146373 
3.31897 6.65308 -0.143428 3.57979 7.55515 -0.150373 3.62345 7.89581 -0.154416 
3.42665 7.31936 -0.150646 3.6603 8.24075 -0.158364 3.69418 8.5682 -0.162116 
3.51104 8.01296 -0.158202 3.72635 8.90183 -0.165745 3.7541 9.23151 -0.169374 
3.57903 8.69826 -0.165414 3.77902 9.55604 -0.172802 3.80192 9.88811 -0.17632 
3.63503 9.36178 -0.17215 3.82349 10.2297 -0.179826 3.84249 10.5642 -0.183246 
3.68059 10.0322 -0.178793 3.86054 10.8954 -0.186528 3.87665 11.2323 -0.189884 
3.71912 10.7085 -0.185321 3.89621 11.5899 -0.193315 3.91141 11.9616 -0.196923 
3.75578 11.4 -0.191813 3.92284 12.3086 -0.200162 3.93529 12.6502 -0.203364 
3.78578 12.1066 -0.198323 3.94787 12.9991 -0.206552 3.95961 13.3428 -0.209681 
3.8089 12.8037 -0.204589 3.9708 13.7066 -0.212917 3.98296 14.0688 -0.216126 
3.83182 13.5171 -0.210841 3.99302 14.4304 -0.219249 4.00562 14.7946 -0.222405 
3.85227 14.2428 -0.217038 4.01741 15.1418 -0.225332 4.03027 15.4909 -0.228288 
3.87344 14.9514 -0.222962 4.04723 15.8638 -0.231398 4.06276 16.2477 -0.234565 
3.90155 15.671 -0.228892 4.07534 16.6055 -0.237445 4.09113 16.957 -0.240276 
3.93061 16.4009 -0.234778 4.10547 17.3296 -0.243203 4.12312 17.682 -0.245977 
3.9571 17.13 -0.240487 4.14318 18.0567 -0.248887 4.16572 18.46 -0.251995 
3.99131 17.876 -0.246227 4.18975 18.8373 -0.254883 4.21265 19.2072 -0.257682 
4.03533 18.6266 -0.251951 4.23739 19.5833 -0.260484 4.26479 19.9868 -0.263468 
4.08407 19.3784 -0.257599 4.28919 20.3563 -0.266167 4.31384 20.6922 -0.268603 
4.13325 20.1225 -0.263083 4.34633 21.0635 -0.271331 4.37516 21.4326 -0.273962 
4.1903 20.8619 -0.268482 4.40519 21.7973 -0.276572 4.43543 22.1657 -0.27916 
4.25314 21.5966 -0.273792 4.46678 22.5241 -0.281699 4.50096 22.9253 -0.284488 
4.31485 22.3187 -0.278923 4.53286 23.2992 -0.287091 4.56345 23.6495 -0.289505 
4.37838 23.0502 -0.284058 4.59518 24.0087 -0.291988 4.62611 24.3583 -0.294384 
4.44229 23.7828 -0.289137 4.66362 24.7254 -0.296953 4.69462 25.0745 -0.299333 
4.51179 24.5086 -0.294185 4.72779 25.435 -0.3018 4.76307 25.8337 -0.304509 
4.58265 25.2359 -0.299219 4.79051 26.2011 -0.306952 4.81968 26.5331 -0.309192 
4.64338 25.9637 -0.304119 4.85018 26.899 -0.311638 4.88053 27.2475 -0.313975 
4.70137 26.6971 -0.308979 4.9121 27.5838 -0.316244 4.94363 27.949 -0.318676 
4.76339 27.3992 -0.313663 4.97775 28.3035 -0.321058 5.00769 28.6523 -0.32336 
4.829 28.0899 -0.318291 5.03742 28.9973 -0.32562 5.06589 29.3297 -0.327787 
4.89273 28.7894 -0.322904 5.09925 29.6905 -0.330141 5.13068 30.0565 -0.332492 
4.95567 29.495 -0.327488 5.1629 30.4229 -0.334826 5.1946 30.7892 -0.337138 
5.02109 30.222 -0.33215 5.22337 31.1321 -0.339268 5.25542 31.4986 -0.34154 
5.08198 30.9311 -0.336593 5.29096 31.8241 -0.343627 5.3204 32.1574 -0.345659 
5.14622 31.5994 -0.340793 -2.67005 29.8155 -0.236847 -2.68555 29.2522 -0.234177 
-2.67577 28.6403 -0.231549 -2.69569 27.9825 -0.22832 -2.491 28.888 -0.234715 
-2.70594 27.241 -0.224814 -2.72577 26.4757 -0.221041 -2.49434 27.5325 -0.228688 
-2.72675 25.6448 -0.217187 -2.73682 24.805 -0.213363 -2.50912 25.9575 -0.221461 
-2.72442 23.9871 -0.209796 -2.72552 23.1318 -0.206327 -2.49784 24.3092 -0.213889 
-2.73002 22.388 -0.203073 -2.74303 21.6253 -0.20015 -2.48495 22.7548 -0.206259 
-2.77821 20.7906 -0.196408 -2.83717 19.9964 -0.192771 -2.51613 21.1915 -0.198266 
-2.92774 19.2818 -0.189024 -3.03658 18.55 -0.184578 -2.64678 19.6637 -0.189731 
-3.18362 17.8195 -0.180021 -3.32505 17.1586 -0.175401 -2.89295 18.241 -0.180798 
-3.47692 16.5477 -0.171997 -3.61638 15.9697 -0.16856 -3.20661 16.9194 -0.172455 
-3.75341 15.4408 -0.168109 -3.84865 14.9661 -0.1672 -3.50897 15.783 -0.169622 
-3.92651 14.4678 -0.166831 -3.96942 13.9184 -0.166313 -3.73255 14.7466 -0.17145 
-3.98331 13.3804 -0.16475 -3.97463 12.8555 -0.164044 -3.81252 13.6881 -0.169615 
-3.93696 12.2865 -0.162545 -3.90588 11.6844 -0.160594 -3.77451 12.5506 -0.165446 
-3.83922 10.9819 -0.158211 -3.78496 10.1991 -0.154785 -3.66464 11.2531 -0.160813 
-3.71457 9.46003 -0.151676 -3.63606 8.63077 -0.147894 -3.52786 9.78716 -0.15502 
-3.54396 7.84957 -0.144694 -3.4327 7.07213 -0.141788 -3.37233 8.24163 -0.148899 
-3.30957 6.35261 -0.139677 -3.15808 5.65436 -0.138398 -3.16641 6.71109 -0.143991 
-2.9906 4.99815 -0.138214 -2.78747 4.35462 -0.139502 -2.88682 5.30155 -0.142144 
-2.53347 3.69613 -0.14333 -2.31215 3.19196 -0.149117 -2.48124 3.95468 -0.146003 
-2.11202 2.72678 -0.156247 -1.82629 2.22678 -0.167207 -2.0259 2.77988 -0.157044 
-1.58317 1.83854 -0.182053 -1.20291 1.31332 -0.214108 -1.57166 1.88374 -0.177174 
-0.490891 0.491436 -0.23661 -0.318703 0.332547 -0.206039 -0.262352 0.300808 -0.190895 
-0.229039 0.245703 -0.160611 -0.212167 0.21841 -0.154931 -0.529969 0.590105 -0.203758 
-0.189116 0.209732 -0.157393 -0.169482 0.228173 -0.142543 -0.423631 0.542819 -0.178357 
-0.15421 0.211209 -0.145303 -0.13997 0.213428 -0.142539 -0.344089 0.479039 -0.189293 
-0.137742 0.213756 -0.144771 -0.126375 0.213348 -0.143695 -0.287158 0.463809 -0.189249 
-0.123363 0.214581 -0.144106 -0.111058 0.211134 -0.145127 -0.244099 0.464376 -0.187011 
-0.104574 0.211977 -0.138509 -0.0907888 0.191479 -0.146581 -0.200548 0.459369 -0.18142 
-0.0816717 0.19396 -0.143576 -0.0694681 0.188271 -0.140081 -0.162851 0.480186 -0.161321 
-0.0607581 0.191706 -0.147615 -0.0473318 0.210829 -0.13745 -0.138842 0.478374 -0.161592 
-0.0449531 0.212262 -0.142206 -0.0375565 0.21567 -0.141689 -0.10854 0.460106 -0.18087 
-0.0357408 0.216415 -0.144377 -0.0271641 0.215917 -0.144185 -0.0751373 0.468592 -0.183615 
-0.0249703 0.217838 -0.142329 -0.0167405 0.213246 -0.142284 -0.0421617 0.470707 -0.184732 
-0.0124837 0.223592 -0.139902 0.00344495 0.204034 -0.148593 -0.00949403 0.475639 -0.185954 
0.0126101 0.204975 -0.149105 0.024889 0.224438 -0.138306 0.0163866 0.504033 -0.176515 
0.0290612 0.218883 -0.143758 0.0373216 0.223288 -0.143127 0.0438167 0.483311 -0.186815 
0.0380416 0.21863 -0.14318 0.0483969 0.218679 -0.143397 0.0777129 0.478849 -0.187551 
0.0493269 0.218208 -0.13881 0.0583405 0.215162 -0.141911 0.110829 0.473938 -0.187759 
0.0629797 0.216677 -0.137718 0.0789935 0.19698 -0.148663 0.147501 0.470417 -0.183446 
0.0884922 0.201546 -0.14355 0.101239 0.196431 -0.141023 0.179605 0.497387 -0.162678 
0.112501 0.201062 -0.147833 0.125924 0.221135 -0.141103 0.207412 0.500998 -0.163164 
0.127004 0.208512 -0.143124 0.137406 0.213969 -0.145805 0.246181 0.471149 -0.181093 
0.137165 0.203428 -0.144733 0.148603 0.204174 -0.145513 0.283019 0.455349 -0.184378 
0.121528 0.167345 -0.130886 0.140787 0.153584 -0.148573 0.296174 0.406002 -0.183987 
0.175998 0.17898 -0.145626 0.194489 0.185733 -0.14696 0.328946 0.418821 -0.164148 
0.25334 0.227101 -0.155309 0.28169 0.23377 -0.150816 0.456871 0.521331 -0.153898 
-0.0617474 21.4481 -0.3034 0.0979034 21.5339 -0.298554 -0.277245 20.9677 -0.177294 
-0.25494 21.2417 -0.192974 -0.41781 20.4561 -0.168696 -0.330435 20.6761 -0.168198 
-0.476679 21.1566 -0.19137 -0.607956 20.0012 -0.165989 -0.50204 20.2229 -0.165614 
-0.578101 20.5749 -0.177659 -0.860726 19.5295 -0.16608 -0.730135 19.7716 -0.166665 
-0.769704 20.0689 -0.176905 -1.12637 19.0761 -0.167115 -0.99203 19.3132 -0.167799 
-1.01419 19.5931 -0.177861 -1.3859 18.62 -0.166261 -1.25172 18.8475 -0.166629 
-1.26557 19.1271 -0.178028 -1.66948 18.127 -0.165484 -1.51843 18.3778 -0.16632 
-1.52105 18.6406 -0.178239 -1.95873 17.652 -0.167853 -1.81331 17.8838 -0.165196 
-1.79695 18.1433 -0.177847 -2.25418 17.1895 -0.172159 -2.10328 17.4237 -0.172695 
-2.08764 17.6633 -0.171893 -2.57377 16.699 -0.159813 -2.42525 16.9312 -0.165571 
-2.39986 17.1714 -0.16682 -2.86122 16.2224 -0.151987 -2.73174 16.4303 -0.156721 
-2.71847 16.6408 -0.165638 -2.99639 16.0073 -0.153687 -3.05544 15.5437 -0.222771 
-3.16552 15.3948 -0.208756 0.066053 21.2299 -0.191846 -0.0341168 20.9657 -0.175296 
-0.116013 20.7207 -0.17065 -0.203646 20.5007 -0.171433 -0.0171534 20.8753 -0.193026 
-0.300541 20.2948 -0.172426 -0.398972 20.0997 -0.173581 -0.516843 19.8785 -0.175893 
-0.641064 19.6566 -0.176084 -0.400024 19.8539 -0.187032 -0.764576 19.4474 -0.176181 
-0.885108 19.2433 -0.176863 -1.02015 19.0164 -0.177441 -1.15853 18.7863 -0.176849 
-0.864675 18.9171 -0.189899 -1.3065 18.5426 -0.176767 -1.44197 18.3083 -0.176886 
-1.13034 18.4278 -0.188614 -1.58867 18.0764 -0.176554 -1.73195 17.85 -0.184705 
-1.86912 17.6014 -0.180198 -2.01317 17.3622 -0.180806 -1.67238 17.4524 -0.186804 
-2.15701 17.1071 -0.172802 -2.30039 16.854 -0.171602 -1.93938 16.9469 -0.190613 
-2.44423 16.5869 -0.170382 -2.56471 16.3608 -0.174694 -2.67192 16.0685 -0.176633 
-2.77953 15.8187 -0.185885 -2.46093 15.8703 -0.183474 5.26117 32.4096 -0.346258 
0.522039 0.438632 -0.123017 -2.68376 30.8358 -0.241059 -2.69553 30.3033 -0.238709 
0.2202 22.2244 -0.282848 0.280925 21.8108 -0.257999 -0.343084 21.6169 -0.24686 
-0.278013 22.082 -0.276001 -0.798724 0.813194 -0.240374 -0.51658 21.8482 -0.2355 
-3.16359 15.7516 -0.158976 -3.04168 16.1334 -0.165293 -3.28629 14.9518 -0.19632 
-3.28892 15.2651 -0.17397 0.25874 21.6558 -0.233939 0.264943 21.5909 -0.227279 
0.417695 22.1933 -0.256822 -2.81989 15.4653 -0.191214 -2.91186 14.9929 -0.202078 
-2.62527 15.2324 -0.18866 -1.41112 17.9369 -0.185616 -0.198027 20.3409 -0.186189 
-0.623919 19.3811 -0.188876 -2.2155 16.431 -0.189397 -2.52478 29.9885 -0.239132 
-0.945567 1.03223 -0.20908 -3.34354 15.3825 -0.17453 0.773151 0.819799 -0.128454 
4.67113 32.0958 -0.337826 4.51564 32.061 -0.335825 4.36633 31.9679 -0.333584 
4.22642 31.9127 -0.331635 4.42938 31.7161 -0.333074 4.08361 31.8509 -0.329614 
3.93811 31.8049 -0.3276 4.13746 31.561 -0.32884 3.79267 31.7525 -0.325568 
3.65156 31.7195 -0.323626 3.84948 31.4468 -0.324805 3.49857 31.6651 -0.321444 
3.34785 31.6235 -0.319314 3.55151 31.3398 -0.320626 3.19799 31.5888 -0.317201 
3.05388 31.5473 -0.315118 3.24927 31.2504 -0.316388 2.90147 31.5103 -0.312917 
2.75226 31.4715 -0.31073 2.94777 31.1784 -0.312166 2.6059 31.432 -0.308582 
2.46273 31.4052 -0.30647 2.64991 31.1015 -0.307896 2.31718 31.3797 -0.30435 
2.1698 31.3473 -0.302131 2.35911 31.0359 -0.303686 2.02401 31.3232 -0.299983 
1.87601 31.291 -0.297745 2.06901 30.9857 -0.299493 1.73013 31.2643 -0.295584 
1.5806 31.2338 -0.293335 1.77871 30.9343 -0.295262 1.4262 31.1918 -0.291021 
1.26868 31.1654 -0.28871 1.48 30.8649 -0.290847 1.11629 31.1455 -0.286471 
0.965017 31.1256 -0.284316 1.17497 30.8025 -0.286384 0.804851 31.1016 -0.282026 
0.6454 31.0828 -0.279775 0.864171 30.7581 -0.281944 0.492556 31.0766 -0.277745 
0.345208 31.0623 -0.275722 0.552935 30.7278 -0.277647 0.195872 31.0489 -0.273791 
0.0385921 31.0431 -0.271762 0.252322 30.7083 -0.273615 -0.128033 31.028 -0.269689 
-0.285753 31.0239 -0.267783 -0.0621266 30.68 -0.269521 -0.437256 31.0119 -0.265929 
-0.587652 31.0099 -0.264234 -0.378725 30.6537 -0.265572 -0.736446 31.0243 -0.262579 
-0.892031 31.0229 -0.260891 -0.677638 30.6568 -0.262077 -1.05192 31.0335 -0.259187 
-1.20168 31.0347 -0.257609 -0.985154 30.6827 -0.258671 -1.34564 31.0493 -0.256128 
-1.4905 31.0536 -0.254634 -1.28796 30.7088 -0.255443 -1.62783 31.0545 -0.253179 
-1.76972 31.051 -0.251668 -1.56858 30.7251 -0.25248 -1.89767 31.0559 -0.250358 
-2.03806 31.0239 -0.248708 -1.83346 30.7316 -0.249669 -2.29575 29.2349 -0.238361 
-2.28756 28.6216 -0.235812 5.12251 32.1769 -0.343476 1.67217 2.1172 -0.111585 
1.87802 2.49279 -0.112738 2.07037 2.87901 -0.114503 2.24581 3.26086 -0.116601 
1.84425 2.57831 -0.12202 2.39822 3.62254 -0.118693 2.53051 3.97306 -0.121615 
2.18587 3.33104 -0.12535 2.64644 4.31227 -0.124238 2.75928 4.67069 -0.127655 
2.45378 4.04042 -0.12919 2.85924 5.03581 -0.131165 2.94731 5.39566 -0.134857 
2.67116 4.75553 -0.134381 3.02604 5.75201 -0.138343 3.09221 6.09166 -0.141888 
2.84991 5.48755 -0.14052 3.1537 6.42866 -0.145159 3.21319 6.75444 -0.148312 
2.9896 6.18987 -0.146676 3.26105 7.08326 -0.151547 3.309 7.43282 -0.155053 
3.09826 6.8635 -0.152743 3.35189 7.78101 -0.158369 3.38829 8.13318 -0.161939 
3.18854 7.54788 -0.158973 3.42811 8.49172 -0.165263 3.45961 8.8313 -0.168544 
3.2707 8.2614 -0.165238 3.48452 9.15767 -0.171646 3.50871 9.48688 -0.174777 
3.3345 8.95176 -0.171345 3.52961 9.82093 -0.177886 3.5504 10.1665 -0.181081 
3.37961 9.61665 -0.177216 3.57069 10.5047 -0.184129 3.58798 10.8389 -0.187188 
3.42006 10.2926 -0.183092 3.60559 11.1979 -0.190363 3.62433 11.5581 -0.193598 
3.45725 10.9929 -0.189089 3.6383 11.9226 -0.196765 3.64893 12.2712 -0.19984 
3.48799 11.7189 -0.195233 3.65701 12.6062 -0.20269 3.66885 12.9562 -0.20569 
3.50915 12.4204 -0.201071 3.67883 13.3162 -0.208717 3.68928 13.6806 -0.211774 
3.52644 13.1166 -0.206772 3.70471 14.0428 -0.214781 3.71414 14.4044 -0.217753 
3.55113 13.8397 -0.212599 3.72421 14.7642 -0.220655 3.73546 15.1111 -0.223482 
3.57598 14.5622 -0.218353 3.74856 15.4635 -0.226269 3.76504 15.8358 -0.229252 
3.5986 15.2744 -0.223936 3.77989 16.2172 -0.23224 3.7921 16.574 -0.235015 
3.62601 16.0079 -0.229618 3.80559 16.929 -0.237742 3.81968 17.3004 -0.240573 
3.65405 16.7438 -0.235226 3.83852 17.6697 -0.243393 3.85849 18.0432 -0.24623 
3.68612 17.4674 -0.240672 3.88291 18.4266 -0.249155 3.90689 18.8024 -0.251977 
3.72921 18.2192 -0.24631 3.92606 19.1648 -0.254634 3.9508 19.5394 -0.257412 
3.77285 18.9639 -0.251828 3.9756 19.9172 -0.260158 4.00006 20.2854 -0.262823 
3.81684 19.7031 -0.257203 4.0268 20.6416 -0.265417 4.05948 21.0116 -0.26813 
3.8686 20.4362 -0.262531 4.09115 21.3909 -0.270881 4.12145 21.7545 -0.273473 
3.92722 21.1707 -0.267838 4.15566 22.1119 -0.276065 4.18725 22.4694 -0.278596 
3.99347 21.9064 -0.273163 4.22324 22.8287 -0.28118 4.25536 23.2019 -0.28378 
4.06398 22.6222 -0.278338 4.29126 23.5646 -0.286352 4.3232 23.9232 -0.288839 
4.13616 23.3434 -0.283489 4.35711 24.2888 -0.291379 4.39481 24.6554 -0.293941 
4.20624 24.0709 -0.288593 4.42702 25.0243 -0.29645 4.4603 25.3846 -0.298913 
4.27259 24.8048 -0.293649 4.48619 25.7505 -0.301333 4.51371 26.1179 -0.303746 
4.33085 25.5392 -0.29857 4.54233 26.4825 -0.306169 4.57282 26.8483 -0.308589 
4.38544 26.2694 -0.303376 4.60422 27.2076 -0.310969 4.63573 27.5438 -0.313209 
4.44544 26.993 -0.308135 4.66574 27.8778 -0.315405 4.69976 28.2323 -0.317752 
4.50672 27.686 -0.312684 4.73882 28.5927 -0.320173 4.76844 28.9376 -0.322393 
4.57562 28.3802 -0.317275 4.80745 29.2928 -0.324762 4.84067 29.6535 -0.327083 
4.65351 29.0957 -0.322017 4.87968 30.0147 -0.329451 4.91178 30.3808 -0.331758 
4.73133 29.812 -0.326721 4.93673 30.748 -0.333975 4.96542 31.0908 -0.336084 
4.79512 30.5403 -0.331279 4.98984 31.4836 -0.338395 5.02536 31.809 -0.340474 
4.84436 31.3002 -0.335778 -1.18927 1.38577 -0.191209 -0.874139 1.00001 -0.197684 
-0.770648 0.939506 -0.186389 1.12583 1.26977 -0.113615 1.44073 1.72917 -0.109947 
1.42594 1.80639 -0.120858 -2.29166 27.852 -0.232529 -2.30395 27.1084 -0.229168 
-2.29188 26.3494 -0.226087 -2.295 25.5163 -0.22238 -2.09254 26.6618 -0.229948 
-2.26955 24.6649 -0.218263 -2.2579 23.8501 -0.214144 -2.23954 23.083 -0.209883 
-2.24217 22.3498 -0.205341 -2.01649 23.4333 -0.214075 -2.25784 21.571 -0.200272 
-2.2947 20.7547 -0.195048 -2.00358 21.8966 -0.202888 -2.37683 20.016 -0.190141 
-2.47421 19.3225 -0.185943 -2.09614 20.3902 -0.191791 -2.63923 18.5634 -0.181244 
-2.79743 17.8562 -0.176874 -3.2891 16.0965 -0.168458 -3.43247 15.5645 -0.170808 
-3.65982 13.9869 -0.173562 -3.6623 13.4175 -0.171179 -3.61836 12.8728 -0.168187 
-3.57594 12.2761 -0.165639 -3.49036 11.603 -0.163439 -3.42241 10.8753 -0.160696 
-3.33091 11.9163 -0.166215 -3.33637 10.1669 -0.158397 -3.26806 9.40512 -0.155453 
-3.18169 8.62959 -0.153004 -3.09464 7.82154 -0.150256 -2.99497 8.9996 -0.156289 
-2.99117 7.05515 -0.148442 -2.87532 6.30507 -0.146861 -2.81454 7.4359 -0.151954 
-2.74241 5.60342 -0.1464 -2.58435 4.91462 -0.146759 -2.58944 5.94759 -0.149568 
-2.40289 4.28007 -0.148238 -2.16599 3.59806 -0.152493 -2.29041 4.59695 -0.150568 
-1.87295 2.70601 -0.159261 -1.93249 3.04115 -0.156173 -1.60869 2.49928 -0.161924 
-1.9028 3.40513 -0.155397 -1.45449 1.79996 -0.175004 -0.684171 21.9586 -0.222894 
-0.676146 22.3218 -0.238836 -0.402565 22.7137 -0.263638 -0.165076 22.6754 -0.268587 
-0.689682 0.893566 -0.178174 -0.625287 0.85814 -0.175736 -0.980851 1.27029 -0.180006 
-0.557669 0.808108 -0.173306 -0.501844 0.785448 -0.174195 -0.789709 1.15955 -0.172931 
-0.455905 0.763402 -0.175331 -0.419133 0.761529 -0.174746 -0.643081 1.08024 -0.17209 
-0.394843 0.774486 -0.173404 -0.360218 0.773992 -0.171274 -0.544888 1.06504 -0.171122 
-0.33261 0.772955 -0.168429 -0.297805 0.766534 -0.164335 -0.46695 1.07469 -0.167734 
-0.266472 0.760252 -0.163476 -0.242499 0.759686 -0.160003 -0.384398 1.06031 -0.164339 
-0.221544 0.767775 -0.160364 -0.197988 0.765947 -0.164242 -0.310745 1.05549 -0.163987 
-0.177183 0.771344 -0.164921 -0.151951 0.777982 -0.168586 -0.248854 1.07234 -0.164988 
-0.129235 0.78196 -0.170627 -0.101917 0.784616 -0.171382 -0.185973 1.08543 -0.168402 
-0.0788602 0.786102 -0.172309 -0.0516956 0.786391 -0.173213 -0.120051 1.09098 -0.171284 
-0.0295053 0.783414 -0.173543 -0.00511037 0.790159 -0.173073 -0.0548435 1.0911 -0.172591 
0.0147121 0.794245 -0.173121 0.0364347 0.796347 -0.175704 0.00733808 1.09242 -0.174297 
0.0577992 0.785891 -0.174104 0.0831997 0.788222 -0.174485 0.0679012 1.08849 -0.174726 
0.106705 0.787405 -0.175023 0.133484 0.785775 -0.174634 0.131971 1.0826 -0.175526 
0.157329 0.783489 -0.174805 0.185544 0.782959 -0.173909 0.199657 1.08601 -0.174139 
0.211132 0.78357 -0.171235 0.240053 0.784121 -0.166018 0.269526 1.08801 -0.170898 
0.265706 0.792621 -0.165176 0.290473 0.797915 -0.16151 0.341974 1.09705 -0.166697 
0.31587 0.797081 -0.161113 0.34555 0.799362 -0.16477 0.417 1.10337 -0.165206 
0.378157 0.793144 -0.166069 0.408478 0.790221 -0.16833 0.499319 1.10474 -0.16539 
0.439947 0.780114 -0.169951 0.473668 0.777845 -0.169001 0.592031 1.1006 -0.166868 
0.479591 0.715794 -0.168398 0.484482 0.676871 -0.164358 0.663733 1.04441 -0.163345 
0.548703 0.726056 -0.157227 0.590878 0.726134 -0.149869 0.686855 0.802797 -0.141224 
0.741823 0.994262 -0.154922 -3.17104 14.6169 -0.190063 -3.35455 14.5752 -0.186182 
-0.672542 21.2595 -0.19509 -0.658232 21.5899 -0.208835 -0.843216 22.0211 -0.21697 
-1.17371 19.6915 -0.17858 -1.05337 19.9321 -0.178752 -1.41572 19.1938 -0.177719 
-1.29751 19.44 -0.177961 -1.34011 19.7716 -0.181328 -1.66838 18.656 -0.176518 
-1.53952 18.9124 -0.17677 -1.57635 19.2196 -0.179433 -1.91839 18.147 -0.17527 
-1.7767 18.3969 -0.175719 -1.79994 18.6659 -0.177342 -2.21772 17.7159 -0.172393 
-2.06944 17.9544 -0.173609 -2.05576 18.2093 -0.175237 -2.52714 17.187 -0.169253 
-2.36997 17.4437 -0.170223 -2.35387 17.7372 -0.173101 -2.8748 16.6284 -0.165942 
-2.72124 16.9135 -0.167856 -2.69649 17.1856 -0.170544 0.872679 0.996853 -0.125648 
-0.486756 19.3128 -0.18947 -0.592424 19.0694 -0.189447 -1.99314 16.2555 -0.184848 
-2.11999 15.9968 -0.183252 -0.956443 18.2977 -0.188139 -1.08618 18.0379 -0.187037 
-0.0714825 20.4255 -0.194835 -0.166458 20.1465 -0.19245 -1.73109 16.7868 -0.18818 
-1.86696 16.5276 -0.187684 -1.78754 16.1131 -0.186132 -2.39291 30.3982 -0.242271 
-2.36776 29.9097 -0.240436 -1.22231 17.7861 -0.186086 -1.34902 17.5458 -0.185912 
-1.03461 17.6713 -0.188069 -3.05526 16.3945 -0.167337 0.10483 22.7112 -0.270189 
0.307878 22.8387 -0.269882 -0.0330265 23.2462 -0.26256 -0.755386 20.6346 -0.182698 
-0.697692 20.914 -0.186222 -0.843428 21.302 -0.197404 -0.92307 20.1092 -0.179357 
-0.814015 20.373 -0.179266 -0.91839 20.6778 -0.186767 -1.09826 20.2234 -0.182871 
0.142371 21.0671 -0.209537 0.0329409 20.7416 -0.200701 0.0874506 20.5457 -0.203932 
-0.270924 19.8565 -0.19029 -0.373931 19.5807 -0.189853 -0.121518 19.8996 -0.195345 
-0.710355 18.8101 -0.189395 -0.827425 18.5588 -0.188846 -0.784842 18.2005 -0.189553 
-1.48046 17.2887 -0.186869 -1.59866 17.0383 -0.187292 -1.28791 17.1523 -0.187736 
-2.23698 15.6963 -0.18205 -2.34024 15.4137 -0.182302 -2.02434 15.5479 -0.183188 
4.966 32.061 -0.341075 4.81624 32.0377 -0.33923 4.72377 31.7512 -0.336691 
-2.09648 28.1935 -0.236282 -2.16176 29.6417 -0.241571 -2.17455 30.8143 -0.246368 
-2.32272 30.7689 -0.244585 -2.48078 30.848 -0.243239 -0.812331 22.8466 -0.236536 
-0.634735 22.7962 -0.247833 -0.532911 23.2719 -0.249885 -0.552059 18.7438 -0.190777 
-2.81559 14.4797 -0.189391 -3.00454 14.5592 -0.19199 -3.08242 14.1603 -0.183358 
-3.53672 15.059 -0.175419 -2.06082 25.0482 -0.223181 -2.35341 18.9102 -0.181935 
-2.96665 17.213 -0.17259 -3.1245 16.616 -0.169729 -3.46668 13.1671 -0.171817 
-3.60842 14.5486 -0.176633 -3.16065 10.5067 -0.161226 0.981667 1.19865 -0.132253 
0.435526 23.3709 -0.266076 0.506017 22.9554 -0.263755 -0.332485 19.3018 -0.192038 
0.408919 21.7637 -0.233577 0.260308 21.4015 -0.218082 0.307673 21.2186 -0.218959 
-2.42757 15.0751 -0.183051 -2.52491 14.7352 -0.186302 -2.23186 14.921 -0.182894 
-2.70964 17.5305 -0.173212 0.660618 23.0784 -0.260855 0.52731 22.5895 -0.259513 
0.544987 22.3379 -0.251074 -3.4825 14.3103 -0.181535 -1.53878 16.6372 -0.187459 
4.20205 31.2575 -0.328112 4.05949 31.1956 -0.326112 3.9066 31.1171 -0.323919 
3.76155 31.0647 -0.321909 3.97183 30.8139 -0.323214 3.60934 31.0036 -0.319789 
3.45695 30.949 -0.317648 3.66733 30.6743 -0.318935 3.29769 30.8821 -0.315374 
3.14857 30.8471 -0.313348 3.35668 30.5463 -0.314577 2.9953 30.7965 -0.311181 
2.84387 30.7592 -0.309074 3.04524 30.4285 -0.310224 2.68935 30.7391 -0.307 
2.54409 30.6992 -0.30491 2.73873 30.3574 -0.306078 2.39953 30.6801 -0.302927 
2.25518 30.6541 -0.300879 2.44088 30.3177 -0.302079 2.11482 30.6326 -0.298902 
1.97037 30.6079 -0.296842 2.15722 30.2764 -0.298197 1.8271 30.5911 -0.294822 
1.68268 30.5638 -0.292739 1.87494 30.2373 -0.294302 1.52927 30.502 -0.290444 
1.37661 30.4594 -0.288215 1.5797 30.1578 -0.290073 1.23121 30.4086 -0.286039 
1.08056 30.3881 -0.283942 1.28246 30.0444 -0.285681 0.920235 30.3755 -0.281664 
0.761843 30.3513 -0.279468 0.978276 29.9798 -0.281371 0.614334 30.354 -0.27748 
0.463092 30.3476 -0.275401 0.671658 29.9696 -0.277204 0.304945 30.3387 -0.273315 
0.157069 30.3256 -0.27131 0.367028 29.9631 -0.273105 -0.00298616 30.2869 -0.26917 
-0.168051 30.2724 -0.267029 0.0497463 29.9158 -0.268796 -0.327316 30.249 -0.264944 
-0.477486 30.2377 -0.263108 -0.268651 29.8545 -0.264529 -0.627034 30.2445 -0.26131 
-0.774495 30.2597 -0.259637 -0.576459 29.8392 -0.260665 -0.932333 30.2974 -0.257934 
-1.09102 30.3089 -0.256164 -0.882665 29.885 -0.25712 -1.24581 30.351 -0.254576 
-1.38885 30.3663 -0.253054 -1.19397 29.966 -0.25376 -1.51681 30.4065 -0.251787 
-1.65362 30.4081 -0.250311 -1.47552 30.0493 -0.25087 -1.90108 27.0315 -0.233903 
-1.89241 26.2688 -0.230733 4.68202 31.3842 -0.334335 4.53678 31.4421 -0.332951 
4.65777 30.9915 -0.33205 1.96924 3.0442 -0.131207 2.12168 3.41129 -0.132229 
2.25914 3.77354 -0.133578 2.37582 4.1211 -0.135535 2.05619 3.50171 -0.13896 
2.46858 4.45661 -0.138052 2.56998 4.83195 -0.140606 2.28409 4.20274 -0.141723 
2.66243 5.21464 -0.143296 2.74185 5.58033 -0.146109 2.46966 4.92723 -0.145989 
2.8124 5.9431 -0.148812 2.87396 6.28808 -0.151559 2.63152 5.67886 -0.150768 
2.92646 6.62515 -0.154199 2.97408 6.96126 -0.156945 2.75347 6.38468 -0.155649 
3.01965 7.31297 -0.159698 3.06222 7.66812 -0.162649 2.85097 7.07931 -0.160749 
3.1007 8.02031 -0.165406 3.14026 8.38503 -0.168401 2.93418 7.78887 -0.165941 
3.17337 8.74469 -0.171297 3.19779 9.07591 -0.174039 3.00524 8.50599 -0.171236 
3.22186 9.40848 -0.176768 3.24217 9.74666 -0.179545 3.06155 9.20276 -0.1765 
3.26481 10.0893 -0.182281 3.28454 10.4309 -0.185087 3.10763 9.88177 -0.181641 
3.30072 10.7785 -0.187872 3.31769 11.1404 -0.19083 3.14573 10.5752 -0.186946 
3.33403 11.5056 -0.193729 3.34736 11.8725 -0.196698 3.17757 11.2909 -0.192398 
3.35582 12.2353 -0.199556 3.36326 12.5719 -0.202237 3.2017 12.0212 -0.197962 
3.37051 12.9149 -0.204902 3.37987 13.2761 -0.207719 3.21671 12.7289 -0.203293 
3.38991 13.6375 -0.210512 3.40478 14.0005 -0.213336 3.23337 13.4346 -0.208549 
3.41675 14.3713 -0.216176 3.42632 14.7314 -0.21893 3.25476 14.1678 -0.213999 
3.44075 15.082 -0.221593 3.45345 15.4343 -0.224289 3.28067 14.8898 -0.21934 
3.46723 15.793 -0.226965 3.48168 16.174 -0.22984 3.30845 15.5994 -0.22457 
3.49757 16.5483 -0.232615 3.51082 16.9027 -0.235236 3.33768 16.3322 -0.22993 
3.52722 17.2635 -0.237916 3.5459 17.6321 -0.240637 3.36971 17.067 -0.235274 
3.5635 18.0075 -0.243394 3.58787 18.3899 -0.246222 3.40351 17.8028 -0.240592 
3.61157 18.7716 -0.249024 3.63079 19.133 -0.251642 3.44477 18.5592 -0.246064 
3.65288 19.496 -0.254247 3.6778 19.8728 -0.256984 3.49074 19.3032 -0.251435 
3.70507 20.2359 -0.259607 3.732 20.5911 -0.262183 3.54034 20.0284 -0.256661 
3.76272 20.9581 -0.264859 3.79466 21.3363 -0.267588 3.59865 20.7576 -0.26194 
3.82466 21.704 -0.270223 3.85915 22.0605 -0.272806 3.65979 21.4914 -0.26723 
3.89221 22.4051 -0.275292 3.92846 22.7636 -0.277875 3.72331 22.2028 -0.27236 
3.9661 23.1319 -0.280523 4.00225 23.4937 -0.283092 3.79441 22.9149 -0.277503 
4.03539 23.8591 -0.285651 4.06953 24.2239 -0.288195 3.8656 23.6477 -0.282706 
4.10155 24.5854 -0.290672 4.13392 24.9537 -0.293188 3.93109 24.3736 -0.287743 
4.16633 25.3258 -0.295709 4.19232 25.6912 -0.298098 3.99575 25.1063 -0.292746 
4.21951 26.064 -0.300554 4.24814 26.4282 -0.302927 4.05545 25.8504 -0.297695 
4.27707 26.7945 -0.305325 4.30837 27.1535 -0.307675 4.11154 26.5888 -0.30249 
4.34212 27.4957 -0.309938 4.37198 27.8294 -0.3121 4.17402 27.2969 -0.307106 
4.40987 28.1814 -0.314435 4.44875 28.5416 -0.316814 4.24541 27.9906 -0.311677 
4.48715 28.9021 -0.31918 4.52598 29.2572 -0.321503 4.3214 28.7028 -0.316334 
4.57223 29.6219 -0.323954 4.61106 29.983 -0.326288 4.40574 29.4278 -0.321093 
4.66554 30.3201 -0.328664 4.69035 30.6872 -0.33085 4.52796 30.771 -0.329435 
4.50622 30.1296 -0.32588 -1.90193 28.4712 -0.239752 -1.90865 27.6989 -0.236474 
-1.78106 22.2166 -0.206907 -1.79179 21.4467 -0.199953 -1.84819 25.466 -0.228092 
-1.82839 24.6126 -0.224028 -1.66176 25.8264 -0.232347 -3.33043 13.5222 -0.175642 
-3.27936 12.9448 -0.171988 -1.64901 2.19358 -0.167478 -1.32741 1.74803 -0.173694 
1.00189 1.32288 -0.141518 1.18261 1.52393 -0.13183 1.4052 1.90123 -0.13039 
-2.6106 7.77101 -0.155756 -2.51441 6.98498 -0.153936 -2.41073 6.25992 -0.153074 
-2.28863 5.54211 -0.15246 -2.22693 6.59626 -0.155928 -2.15446 4.86172 -0.152696 
-1.99062 4.22135 -0.154252 -2.00621 5.18388 -0.155002 -1.83369 3.657 -0.155658 
-1.63408 3.11142 -0.158422 -1.73488 3.93922 -0.156499 -0.390286 18.6922 -0.194111 
-0.496585 18.4055 -0.193266 0.277075 20.695 -0.213343 0.167469 20.351 -0.207704 
-1.01597 21.2605 -0.197025 -0.995441 21.6149 -0.204083 0.350662 23.8516 -0.262807 
0.568886 23.91 -0.26405 -1.0419 1.55088 -0.170002 -0.940858 1.48857 -0.169812 
-0.816581 1.36453 -0.169837 -0.742799 1.33262 -0.170019 -1.03561 1.74661 -0.167192 
-0.726753 1.40801 -0.168815 -0.675961 1.41608 -0.167879 -0.881621 1.69299 -0.166776 
-0.618676 1.40206 -0.166857 -0.568153 1.39768 -0.165464 -0.78234 1.74869 -0.165439 
-0.50198 1.35257 -0.164317 -0.450604 1.33881 -0.162951 -0.637864 1.68275 -0.164111 
-0.413448 1.36487 -0.163209 -0.369526 1.37112 -0.163216 -0.517368 1.66027 -0.163409 
-0.336889 1.41244 -0.164347 -0.29776 1.42099 -0.16575 -0.427546 1.72627 -0.164416 
-0.258637 1.43279 -0.167336 -0.217088 1.43598 -0.168868 -0.335945 1.77885 -0.166558 
-0.172812 1.4276 -0.170267 -0.130096 1.429 -0.171323 -0.234261 1.78142 -0.169066 
-0.0874496 1.42542 -0.172225 -0.0471225 1.4235 -0.172824 -0.12982 1.76848 -0.171239 
-0.00740104 1.41873 -0.173271 0.0313084 1.42334 -0.173528 -0.0306666 1.75955 -0.172746 
0.0697239 1.41944 -0.174 0.108606 1.41112 -0.174317 0.0640416 1.75102 -0.173676 
0.151165 1.41546 -0.174441 0.193833 1.41885 -0.174367 0.162209 1.75221 -0.174023 
0.237124 1.42539 -0.173792 0.280863 1.42589 -0.172812 0.265737 1.76459 -0.173398 
0.327224 1.43366 -0.171262 0.37247 1.43738 -0.169568 0.373506 1.78115 -0.171517 
0.417503 1.43102 -0.167572 0.464399 1.43862 -0.165952 0.484608 1.78482 -0.16878 
0.514555 1.44551 -0.1652 0.566354 1.44895 -0.164423 0.600717 1.78845 -0.166334 
0.620058 1.44511 -0.164352 0.677892 1.44873 -0.164344 0.72939 1.79677 -0.164715 
0.736044 1.43996 -0.164065 0.797814 1.44229 -0.162971 0.868435 1.79192 -0.162982 
0.842735 1.40041 -0.160129 0.884327 1.35243 -0.15607 1.00215 1.75192 -0.158361 
0.922937 1.30177 -0.149777 -2.97616 10.902 -0.164593 -2.89466 10.1711 -0.162022 
1.59534 2.26562 -0.13127 1.78444 2.65051 -0.131136 1.74007 2.74845 -0.138564 
1.37564 1.99884 -0.139246 -1.0244 22.022 -0.211355 -1.01984 22.3875 -0.219328 
-1.1766 21.9599 -0.208605 4.3877 31.349 -0.330739 -1.74452 19.2109 -0.180449 
-1.6317 19.5076 -0.1818 -1.53915 19.938 -0.184887 -1.43064 20.2107 -0.186414 
-1.71294 19.9329 -0.186173 -1.19696 1.67032 -0.171644 -0.170394 19.3049 -0.197005 
-0.276168 19.0012 -0.195653 -0.217128 18.6819 -0.197004 -3.18172 12.3283 -0.169513 
-3.0971 11.6257 -0.166572 -2.82569 11.3003 -0.167195 -3.04058 12.6677 -0.172363 
-1.33619 16.4608 -0.187586 -1.45664 16.2042 -0.187062 -1.79006 23.7706 -0.219118 
-1.77002 23.0085 -0.213381 -1.5536 22.5412 -0.211483 -0.610739 18.109 -0.191929 
-0.725837 17.8276 -0.191348 -0.438317 18.0543 -0.194432 -1.58064 15.9478 -0.185903 
-1.69714 15.6783 -0.184852 -1.37909 15.7841 -0.186601 -3.37608 13.9675 -0.179375 
-3.18959 13.7646 -0.179244 -0.136863 23.7974 -0.258611 0.0997717 23.8183 -0.260945 
0.252303 24.349 -0.261261 0.0482497 19.9792 -0.202691 -0.0565174 19.6489 -0.199829 
0.0063992 19.3603 -0.201475 -1.09507 16.9864 -0.188702 -1.21305 16.7209 -0.18841 
-1.14088 16.3056 -0.188559 -1.81467 15.3839 -0.183149 -1.92869 15.0925 -0.182872 
-1.61446 15.2329 -0.184458 -2.78767 9.3817 -0.160017 -2.70717 8.58507 -0.157519 
-2.41534 8.14755 -0.158781 -0.844678 17.5378 -0.190138 -0.966367 17.2717 -0.189677 
-0.899147 16.8608 -0.190314 -1.33459 2.00351 -0.166928 -1.79659 30.3386 -0.248455 
-1.92409 30.344 -0.247088 -1.74595 30.0209 -0.247736 -1.70797 27.3033 -0.237528 
-0.662151 17.45 -0.192277 -2.61529 14.3455 -0.185365 -2.71646 13.9603 -0.182229 
-2.42602 14.2092 -0.183007 -1.58429 21.0606 -0.196084 -1.83083 20.7528 -0.193719 
-2.06185 30.1357 -0.244726 -1.9897 29.458 -0.24269 -2.12508 19.2218 -0.182945 
-2.306 18.4838 -0.178549 0.40173 21.0939 -0.220183 0.480453 20.8863 -0.221204 
0.506158 21.4303 -0.227283 -1.58968 24.172 -0.225324 -1.91621 20.0274 -0.188171 
-2.60699 9.76695 -0.162759 -1.15988 22.7676 -0.221493 -0.984341 22.7887 -0.227052 
-0.941846 23.2521 -0.234607 0.23805 20.0996 -0.209421 4.30992 30.9839 -0.328004 
0.710838 24.3907 -0.264698 0.774278 23.9376 -0.263591 1.12046 1.67442 -0.148368 
-1.83235 14.6272 -0.182618 -2.03032 14.7777 -0.182139 -2.13245 14.4497 -0.182598 
-2.13343 18.3974 -0.176861 -2.37097 18.0928 -0.1757 -2.51503 17.8102 -0.17428 
0.58955 22.1281 -0.241852 0.607675 21.9044 -0.236642 0.728674 22.4883 -0.249358 
-1.43295 2.36378 -0.163031 -1.86486 29.0835 -0.242633 -1.76209 29.5763 -0.245784 
-0.658052 23.8429 -0.24637 -0.421502 23.8266 -0.251649 0.828368 23.4208 -0.261042 
0.83604 23.0477 -0.256608 0.974159 23.8796 -0.26299 -0.276595 24.3445 -0.252754 
-3.02899 13.6804 -0.179818 -1.98515 18.594 -0.17758 -1.8844 18.8639 -0.178979 
-1.93389 19.1429 -0.181256 -1.50958 27.6333 -0.241364 -1.50522 26.961 -0.238829 
3.73051 30.3229 -0.318002 3.57903 30.2619 -0.315921 3.41485 30.1672 -0.31354 
3.25664 30.1002 -0.311343 3.47886 29.8165 -0.312635 3.09591 30.032 -0.309109 
2.9439 29.9811 -0.307039 3.15524 29.6536 -0.308106 2.7804 29.932 -0.304833 
2.62726 29.9115 -0.302837 2.8326 29.536 -0.303767 2.47845 29.8954 -0.300923 
2.33527 29.8756 -0.299017 2.52201 29.4702 -0.299739 2.18914 29.8822 -0.297178 
2.05014 29.86 -0.295289 2.22875 29.4597 -0.296067 1.91022 29.8379 -0.293381 
1.76834 29.8203 -0.291464 1.94415 29.4432 -0.292425 1.63328 29.8113 -0.289657 
1.4815 29.7487 -0.287447 1.6706 29.411 -0.28883 1.3383 29.5988 -0.28509 
1.1945 29.5469 -0.283041 1.39363 29.2512 -0.284735 1.04412 29.5505 -0.281021 
0.885161 29.5369 -0.278885 1.10188 29.1029 -0.28047 0.719178 29.5695 -0.276736 
0.572668 29.5719 -0.274758 0.786507 29.1373 -0.276414 0.426351 29.5752 -0.272834 
0.26915 29.5663 -0.270692 0.47469 29.1729 -0.272375 0.106524 29.5298 -0.268461 
-0.0527019 29.4916 -0.266235 0.16608 29.1395 -0.268148 -0.214344 29.4255 -0.263953 
-0.372769 29.4031 -0.261853 -0.157958 29.0375 -0.263561 -0.532721 29.3905 -0.259772 
-0.681259 29.3987 -0.257944 -0.479189 28.9603 -0.259164 -0.848615 29.4521 -0.256061 
-1.00507 29.4912 -0.254294 -0.805592 29.0034 -0.255153 -1.15532 29.5983 -0.252883 
-1.30886 29.6414 -0.251236 -1.12163 29.1662 -0.251787 -1.49253 29.6037 -0.248971 
-1.61927 29.6446 -0.247674 -1.45441 29.2371 -0.248041 -1.46581 26.2844 -0.236632 
-1.42846 25.4717 -0.234124 -2.09823 30.5275 -0.245962 -2.81647 13.5144 -0.1788 
-2.9315 13.1383 -0.175639 -2.62413 13.3932 -0.179108 -2.02414 6.88013 -0.159072 
-1.93242 6.14748 -0.15798 2.0901 3.92679 -0.145481 2.18249 4.26676 -0.14705 
2.266 4.62505 -0.149072 2.35844 5.01305 -0.15106 2.08247 4.35849 -0.151832 
2.43394 5.3925 -0.15319 2.50443 5.76106 -0.155361 2.23987 5.09904 -0.155345 
2.5672 6.13735 -0.157583 2.61929 6.47994 -0.159708 2.37652 5.8584 -0.159179 
2.66842 6.83117 -0.161838 2.71343 7.18854 -0.164225 2.48641 6.58986 -0.16322 
2.75473 7.54949 -0.166532 2.79272 7.9069 -0.169002 2.57554 7.30621 -0.167395 
2.8278 8.27853 -0.171502 2.86047 8.64316 -0.173979 2.65079 8.04302 -0.171843 
2.88674 8.98718 -0.176413 2.9103 9.32382 -0.178751 2.7109 8.76269 -0.176357 
2.93095 9.66481 -0.181182 2.95306 10.0111 -0.183631 2.75696 9.45126 -0.180826 
2.96999 10.3629 -0.1861 2.98558 10.7137 -0.188655 2.7938 10.1474 -0.185416 
2.99942 11.0785 -0.191229 3.0152 11.4465 -0.193907 2.8238 10.8671 -0.190243 
3.02803 11.8139 -0.196525 3.03593 12.1789 -0.19916 2.84972 11.602 -0.1952 
3.04887 12.5257 -0.201633 3.0556 12.8702 -0.204106 2.87479 12.3184 -0.200056 
3.06487 13.2296 -0.206653 3.07439 13.5922 -0.20924 2.89642 13.0261 -0.204877 
3.08694 13.9585 -0.211845 3.09845 14.3301 -0.214505 2.91768 13.753 -0.209826 
3.11076 14.6942 -0.217089 3.12484 15.0453 -0.219612 2.94202 14.4844 -0.214839 
3.13928 15.3986 -0.222122 3.15274 15.7574 -0.224694 2.96837 15.2023 -0.219788 
3.16873 16.1293 -0.227327 3.18433 16.5033 -0.230006 2.99841 15.9278 -0.224804 
3.20116 16.8662 -0.232573 3.21739 17.2267 -0.235132 3.03096 16.6627 -0.229908 
3.23168 17.6005 -0.237765 3.24925 17.9753 -0.240412 3.06189 17.3992 -0.234993 
3.26998 18.3494 -0.243082 3.29375 18.7305 -0.245812 3.09691 18.1467 -0.240182 
3.31472 19.1035 -0.248447 3.33702 19.4657 -0.251035 3.13876 18.8933 -0.245423 
3.35945 19.8261 -0.253574 3.38701 20.1884 -0.256197 3.1825 19.6262 -0.250572 
3.41142 20.556 -0.25879 3.44258 20.922 -0.261451 3.22983 20.3535 -0.255706 
3.47244 21.2958 -0.264135 3.50292 21.6625 -0.266765 3.28481 21.094 -0.260966 
3.53748 22.0119 -0.269314 3.57097 22.3556 -0.271804 3.35008 21.8162 -0.266205 
3.60486 22.7033 -0.274315 3.64293 23.0707 -0.276969 3.41924 22.5123 -0.271292 
3.68404 23.4415 -0.279667 3.71754 23.8059 -0.282227 3.49491 23.2297 -0.27651 
3.7594 24.1576 -0.284766 3.79167 24.5181 -0.287261 3.57839 23.9511 -0.28175 
3.82151 24.89 -0.289762 3.85404 25.2613 -0.292278 3.65043 24.6737 -0.286811 
3.86966 25.6261 -0.294572 3.89687 25.9981 -0.296979 3.69611 25.4094 -0.291606 
3.92778 26.3756 -0.299458 3.95656 26.7413 -0.301809 3.74265 26.1507 -0.296333 
3.9951 27.1098 -0.304253 4.02859 27.4515 -0.306486 3.81181 26.8959 -0.30121 
4.06816 27.7972 -0.308777 4.10574 28.1488 -0.311068 3.88946 27.6094 -0.30591 
4.15348 28.5416 -0.313679 4.19157 28.9019 -0.315991 3.97625 28.3475 -0.310769 
4.24546 29.2925 -0.318632 4.29143 29.6572 -0.321035 4.07733 29.1308 -0.315955 
-0.932613 23.8669 -0.238137 -0.833581 24.3785 -0.242607 -1.11542 23.7746 -0.231665 
0.162088 24.8877 -0.2597 0.404556 24.9001 -0.262557 -0.94028 16.1291 -0.189614 
-1.0544 15.8615 -0.188696 0.197778 19.3985 -0.206884 0.0852279 19.0304 -0.203876 
-0.698364 16.7029 -0.191905 -0.816679 16.4049 -0.190894 -0.736022 15.9762 -0.19113 
-1.42039 2.88471 -0.160198 -1.44975 2.61466 -0.161226 -1.8453 5.43337 -0.157459 
-1.72781 4.75144 -0.157275 -1.66943 5.72236 -0.159926 -1.61364 4.1432 -0.157732 
-1.479 3.5845 -0.158827 -1.48593 4.40154 -0.159339 0.655671 24.9371 -0.264581 
0.872021 24.9376 -0.266681 0.574499 25.4464 -0.265089 -2.19165 8.53281 -0.16235 
-2.10592 7.70629 -0.1605 -1.82151 7.26589 -0.161968 -0.989694 2.21511 -0.163371 
-0.909052 2.19317 -0.163178 -0.781662 2.03345 -0.163552 -0.696761 1.98182 -0.163365 
-0.963264 2.49932 -0.162434 -0.632371 1.96096 -0.163473 -0.575326 1.98469 -0.163614 
-0.75938 2.31317 -0.163056 -0.547552 2.09769 -0.164192 -0.493664 2.13803 -0.164981 
-0.653038 2.40393 -0.163849 -0.433542 2.16257 -0.165972 -0.376084 2.17351 -0.166992 
-0.543465 2.54089 -0.165397 -0.310547 2.15442 -0.168151 -0.248054 2.14455 -0.169272 
-0.397382 2.54396 -0.167514 -0.18267 2.13319 -0.17039 -0.122358 2.12874 -0.171321 
-0.248272 2.51139 -0.169679 -0.0637556 2.13902 -0.172161 -0.00706959 2.13381 -0.172747 
-0.106987 2.50957 -0.171482 0.0521406 2.13461 -0.173305 0.10803 2.13119 -0.17357 
0.028619 2.52069 -0.172746 0.165441 2.11699 -0.173714 0.226216 2.12259 -0.17367 
0.163258 2.50762 -0.173376 0.286922 2.12774 -0.173254 0.348073 2.13634 -0.172718 
0.298447 2.49952 -0.173205 0.414554 2.16463 -0.171791 0.480363 2.17496 -0.17087 
0.442886 2.53521 -0.172126 0.547288 2.17518 -0.169619 0.613244 2.17121 -0.168512 
0.596009 2.56681 -0.170434 0.68299 2.16223 -0.167384 0.756039 2.17407 -0.166322 
0.754068 2.56162 -0.168278 0.827502 2.166 -0.165313 0.907267 2.16916 -0.164075 
0.917542 2.54949 -0.165847 0.98713 2.15313 -0.162571 1.07317 2.15475 -0.160417 
1.09253 2.53206 -0.162668 1.17364 2.15779 -0.156686 1.25085 2.12965 -0.152698 
1.2987 2.52879 -0.156946 -1.11482 20.6231 -0.187915 -1.06779 20.9014 -0.191239 
-1.4472 20.6068 -0.190776 -1.23242 20.426 -0.186983 0.452612 20.2088 -0.216228 
0.33349 19.82 -0.211482 0.413522 19.49 -0.212291 -0.47044 17.3368 -0.194394 
-0.579903 17.0307 -0.193444 -0.501186 16.5916 -0.193856 -1.20074 21.1907 -0.196766 
4.03641 30.4967 -0.322409 3.88406 30.4183 -0.320247 3.79569 30.0063 -0.317215 
-1.21706 2.13833 -0.16404 -0.252222 17.9814 -0.197137 -0.358845 17.6645 -0.195991 
-0.277735 17.2613 -0.196845 -1.17778 15.5996 -0.187407 -1.29379 15.3394 -0.186428 
-0.976424 15.43 -0.188499 4.38279 30.6903 -0.327362 4.19756 30.5988 -0.324771 
4.10976 30.2036 -0.321783 4.41568 30.3862 -0.326184 -2.38849 10.1844 -0.166359 
-2.29097 9.37954 -0.164143 -1.41591 15.0741 -0.185076 -1.52965 14.7808 -0.184242 
-1.21672 14.8977 -0.18613 -0.0312521 18.6621 -0.201097 -0.140619 18.3288 -0.199163 
-0.0599134 17.9526 -0.200304 0.164387 18.6851 -0.204915 -0.360608 24.9445 -0.252108 
-0.0900807 24.9367 -0.255695 0.073152 25.4646 -0.258629 1.87067 3.24912 -0.143115 
2.00511 3.61111 -0.143611 1.91546 3.68246 -0.148862 -1.16735 25.1554 -0.237707 
-1.36093 24.7117 -0.232229 -1.268 26.6084 -0.240933 -1.33318 23.8557 -0.227699 
1.48372 2.44562 -0.14642 1.29894 2.02674 -0.146562 -1.99929 19.5842 -0.185053 
-1.36189 21.6636 -0.202983 -1.37462 22.0663 -0.20843 4.36135 30.0491 -0.323841 
-2.22409 14.0579 -0.181911 -2.31976 13.6858 -0.180786 -2.02853 13.9283 -0.181396 
-1.98514 8.94525 -0.165177 0.704785 21.0491 -0.227856 0.587296 20.643 -0.221973 
0.680861 20.3576 -0.222446 -0.912534 24.9869 -0.242079 -0.629953 25.0049 -0.24738 
-0.445358 25.5614 -0.250913 -1.33268 3.01462 -0.160153 -1.17471 2.52934 -0.16206 
1.06354 25.5334 -0.269544 1.10645 25.0003 -0.268129 -2.63014 11.7902 -0.171003 
-2.51753 11.0444 -0.168483 -2.19817 10.6607 -0.169155 -2.83624 12.4939 -0.172881 
-1.638 14.4623 -0.183076 -1.74221 14.1514 -0.182531 -1.44443 14.3122 -0.183838 
-1.08179 2.00505 -0.165082 -1.04047 2.07479 -0.164272 0.698079 21.77 -0.235588 
0.9092 22.805 -0.25277 -2.42008 16.7205 -0.0585706 -2.27375 16.9495 -0.0603893 
-1.37703 22.8521 -0.217619 -1.67501 28.586 -0.242904 -1.40757 21.2947 -0.198279 
-1.2494 3.22968 -0.160466 -1.33192 23.2618 -0.222882 4.20073 29.9134 -0.321341 
-1.48042 28.8052 -0.246118 -1.52023 28.1908 -0.24327 -1.31488 27.8492 -0.244687 
-1.2976 28.8412 -0.248462 -1.06566 27.1174 -0.245563 -1.02957 26.4306 -0.24414 
3.21746 29.2299 -0.306878 3.05819 29.1616 -0.304728 2.88247 29.0685 -0.302304 
2.72081 29.0191 -0.300197 2.94564 28.6458 -0.301084 2.54817 28.9903 -0.29808 
2.40115 28.9735 -0.296251 2.59963 28.5237 -0.296661 2.25214 29.0176 -0.294654 
2.10761 29.0232 -0.292897 2.28032 28.5379 -0.293063 1.97504 29.0864 -0.291508 
1.83652 29.0634 -0.289696 2.00044 28.6438 -0.290178 1.64841 28.8431 -0.286607 
1.51474 28.8332 -0.284937 1.68135 28.4856 -0.28576 1.37374 28.6813 -0.282669 
-2.12538 17.1838 -0.0632945 1.14012 28.5146 -0.27921 0.990935 28.5163 -0.277337 
1.26341 28.0947 -0.279473 0.833814 28.7309 -0.275927 0.66845 28.7627 -0.273844 
0.874191 28.1387 -0.274731 0.520623 28.7481 -0.271847 0.374651 28.7512 -0.269892 
0.56897 28.3386 -0.271319 0.232396 28.8033 -0.26813 0.0700478 28.7669 -0.265859 
0.278751 28.3758 -0.267592 -0.0843475 28.6055 -0.26332 -0.245878 28.54 -0.260976 
-0.0181795 28.2663 -0.263301 -0.781506 28.5013 -0.253822 -0.947451 28.5574 -0.251877 
-1.14911 28.7324 -0.249919 -2.40162 13.2923 -0.178839 -2.50288 12.8671 -0.176393 
-2.20421 13.1523 -0.178856 -0.0733803 17.1638 -0.199293 -0.179574 16.8211 -0.197698 
1.8752 4.02429 -0.154614 1.95781 4.38394 -0.15601 2.03918 4.79071 -0.157627 
2.11368 5.17269 -0.159145 1.84409 4.46333 -0.159464 2.18121 5.57617 -0.161057 
2.2428 5.95578 -0.162672 1.98961 5.27423 -0.162637 2.29326 6.32554 -0.164591 
2.34118 6.68036 -0.166312 2.10434 6.04929 -0.165723 2.38601 7.05465 -0.16818 
2.4262 7.41949 -0.17018 2.19729 6.79564 -0.169126 2.46252 7.79258 -0.172173 
2.49664 8.16819 -0.174339 2.2762 7.54568 -0.172739 2.52509 8.5425 -0.176496 
2.55061 8.89013 -0.178502 2.33923 8.29603 -0.176536 2.57043 9.23427 -0.18062 
2.59038 9.57857 -0.182663 2.38594 9.01741 -0.180423 2.60766 9.93201 -0.184849 
2.6239 10.287 -0.187051 2.42188 9.71776 -0.184345 2.64335 10.6658 -0.189357 
2.65649 11.0333 -0.191712 2.45762 10.4527 -0.188548 2.67411 11.3866 -0.193925 
2.68642 11.7565 -0.196286 2.49369 11.1871 -0.192855 2.6977 12.1185 -0.198616 
2.71019 12.467 -0.200863 2.52196 11.9043 -0.197163 2.7152 12.8087 -0.203058 
2.72399 13.1695 -0.205395 2.53762 12.6096 -0.201458 2.73527 13.5381 -0.207773 
2.74739 13.9055 -0.210192 2.55334 13.3212 -0.205815 2.76382 14.2832 -0.212672 
2.77576 14.648 -0.215093 2.58049 14.0685 -0.210502 2.79269 15.0036 -0.217462 
2.80684 15.3574 -0.219833 2.61344 14.8026 -0.215181 2.8227 15.7183 -0.222248 
2.83843 16.0904 -0.224759 2.64588 15.5196 -0.219822 2.85644 16.4621 -0.227268 
2.87309 16.825 -0.22973 2.67939 16.2525 -0.224615 2.88245 17.2005 -0.232209 
2.89671 17.574 -0.234716 2.70653 16.9998 -0.229474 2.91499 17.942 -0.237229 
2.93585 18.3157 -0.239807 2.73415 17.7432 -0.234349 2.95698 18.6992 -0.242446 
2.97824 19.0717 -0.245033 2.77369 18.4943 -0.239409 2.99542 19.4328 -0.247489 
3.0183 19.7926 -0.250016 2.81251 19.2385 -0.244464 3.03758 20.157 -0.252516 
3.06266 20.5239 -0.255112 2.84965 19.9636 -0.249409 3.08133 20.8967 -0.257663 
3.11204 21.2695 -0.260356 2.88857 20.7002 -0.254464 3.14857 21.6395 -0.263069 
3.18394 21.9879 -0.265638 2.94507 21.442 -0.259738 3.23106 22.3363 -0.268307 
3.26567 22.6829 -0.270826 3.03002 22.1592 -0.265169 3.30663 23.0475 -0.27352 
3.34834 23.417 -0.276219 3.1191 22.871 -0.27057 3.3877 23.772 -0.278802 
3.42992 24.1226 -0.281354 3.20026 23.5891 -0.275847 3.49108 24.4577 -0.283967 
3.52117 24.8285 -0.286484 3.30122 24.2778 -0.281044 3.50004 25.1598 -0.288239 
3.51583 25.5235 -0.290502 3.34157 24.9432 -0.285426 3.54136 25.9047 -0.292962 
3.57209 26.2812 -0.295395 3.34636 25.6542 -0.289617 3.62179 26.6852 -0.29814 
3.6599 27.0529 -0.30055 3.42126 26.438 -0.294774 3.7059 27.4269 -0.303038 
3.74495 27.7721 -0.305292 3.51622 27.2152 -0.299969 3.79854 28.1721 -0.307959 
3.84569 28.5647 -0.310503 3.61495 27.9888 -0.305074 3.91205 28.9964 -0.313458 
3.96547 29.3871 -0.316031 3.734 28.8203 -0.310621 1.00689 26.1586 -0.270634 
1.24967 26.2052 -0.273391 1.70208 3.31973 -0.151955 1.78793 3.63595 -0.152976 
1.67747 3.66898 -0.156826 4.0401 29.8116 -0.319018 0.00686334 26.0178 -0.258649 
0.250822 25.9713 -0.26165 -0.530547 15.7771 -0.192574 -0.647841 15.4911 -0.191096 
1.29853 25.0342 -0.269466 1.10613 24.4486 -0.266039 1.15265 23.9265 -0.263164 
-1.45698 5.9638 -0.162219 -1.38723 5.25049 -0.161764 -1.33844 4.60313 -0.16089 
-1.24489 4.00021 -0.161092 -1.1598 4.85073 -0.163358 0.502729 26.016 -0.264883 
0.753447 26.0373 -0.26797 0.437415 26.5527 -0.265327 -1.73882 9.32876 -0.168502 
-1.6532 8.47731 -0.166635 3.87428 29.6767 -0.316479 3.72146 29.5816 -0.314285 
-0.817784 2.69983 -0.162957 -0.772789 2.81298 -0.16346 -0.682305 2.9522 -0.164695 
-0.601493 2.9742 -0.16555 -0.848029 3.25437 -0.163582 -0.50489 3.00057 -0.166774 
-0.420052 2.97856 -0.167792 -0.633483 3.41732 -0.166053 -0.326901 2.88813 -0.168866 
-0.243382 2.87502 -0.169862 -0.421346 3.34905 -0.16828 -0.167862 2.93567 -0.170819 
-0.0911713 2.94569 -0.171485 -0.238394 3.31763 -0.170151 -0.00677668 2.98364 -0.172292 
0.0714696 2.98464 -0.172689 -0.0594157 3.41692 -0.171712 0.156723 2.99905 -0.173154 
0.233299 2.98538 -0.173211 0.130863 3.47034 -0.172836 0.300815 2.87886 -0.17318 
0.378876 2.88569 -0.173009 0.305383 3.37774 -0.173224 0.464654 2.97115 -0.17247 
0.550041 3.0028 -0.172016 0.471869 3.35764 -0.172804 0.637195 3.00521 -0.171106 
0.724633 3.00878 -0.170408 0.663625 3.44949 -0.171812 0.816498 2.99016 -0.169137 
0.908537 2.98574 -0.167953 0.862998 3.43664 -0.17017 0.995292 2.95661 -0.16677 
1.08869 2.95468 -0.165149 1.06265 3.39312 -0.167598 1.18365 2.92628 -0.163406 
1.28822 2.91906 -0.160858 1.26498 3.34065 -0.164169 1.38351 2.89678 -0.158094 
1.51003 2.91257 -0.153842 -2.51849 12.2448 -0.173428 -0.297053 16.447 -0.195712 
-0.408982 16.1061 -0.194173 -0.323442 15.6327 -0.194208 -0.088965 16.347 -0.197862 
3.551 29.4378 -0.311652 3.38794 29.3434 -0.309339 3.29013 28.8522 -0.305891 
-0.775872 15.2145 -0.189623 -0.89368 14.9452 -0.188341 -0.568592 15.0172 -0.190911 
0.637561 19.5557 -0.21743 0.504275 19.122 -0.213055 -1.027 14.6956 -0.186869 
-1.14499 14.426 -0.185728 -0.825964 14.4828 -0.187942 0.925015 22.0114 -0.241534 
0.841011 21.5261 -0.234909 -1.5719 7.60315 -0.165027 -1.50715 6.77368 -0.16362 
-1.23712 6.3056 -0.165164 -1.34511 7.98912 -0.167908 1.65812 2.8294 -0.145263 
1.62528 2.95169 -0.149553 -0.973213 25.7716 -0.242887 -1.12494 28.2323 -0.248557 
-0.431441 28.4616 -0.258248 -0.590889 28.451 -0.256159 -0.734669 28.0023 -0.252895 
-0.766527 26.2833 -0.247541 0.032995 17.5442 -0.201376 0.130713 17.1138 -0.20199 
0.140732 17.908 -0.203384 -1.15224 3.45155 -0.161075 -1.03235 2.89115 -0.161846 
1.44998 26.8048 -0.277342 1.49827 26.1864 -0.275577 -1.11599 27.6705 -0.246637 
0.942829 26.7126 -0.271737 0.599432 18.7427 -0.213437 0.374362 18.6882 -0.209167 
0.26026 18.304 -0.206247 -1.82945 13.818 -0.181552 -1.92292 13.4337 -0.180517 
-1.63948 13.6615 -0.181782 0.945527 21.2757 -0.234206 -1.03846 3.65944 -0.162492 
-1.95161 11.0924 -0.172672 -1.83627 10.2248 -0.170539 -1.5064 9.75804 -0.171364 
0.91492 20.4559 -0.227692 0.786379 20.0154 -0.222581 0.87438 19.6446 -0.222313 
-1.27302 14.172 -0.184438 -1.38038 13.8528 -0.183403 -1.0842 13.9735 -0.185204 
3.62992 29.1089 -0.310912 1.47585 3.29679 -0.159054 -0.89924 2.72551 -0.162527 
-2.71358 16.2752 -0.0520112 -2.57006 16.4886 -0.0560061 1.38929 24.1784 -0.265261 
1.24257 23.6251 -0.260531 1.04758 22.5299 -0.248704 1.19683 22.2775 -0.247192 
1.16015 23.0922 -0.25583 -0.873269 27.5013 -0.249365 -0.358718 28.0265 -0.257999 
-1.95169 12.8711 -0.178623 -2.03162 12.4884 -0.177064 -1.75635 12.7701 -0.179093 
2.63316 27.9972 -0.294692 2.46311 27.9678 -0.292693 1.99384 28.2454 -0.288581 
1.86248 28.3075 -0.287268 0.618945 27.9036 -0.270904 0.471122 27.8879 -0.268926 
0.132383 27.9858 -0.264622 -0.0223352 27.8222 -0.262123 -0.683927 27.4461 -0.251938 
1.34365 27.5484 -0.278572 1.59953 27.5196 -0.28142 1.73765 25.9985 -0.27682 
1.53633 25.4059 -0.272472 -0.242313 27.4862 -0.258223 -0.428765 27.4092 -0.25538 
-0.569733 26.9007 -0.252099 -0.0916422 27.1989 -0.25969 1.78387 4.93788 -0.164149 
1.84877 5.34177 -0.165483 1.91023 5.76335 -0.167031 1.95851 6.13462 -0.168319 
1.71314 5.43172 -0.168039 2.00263 6.5176 -0.16997 2.04531 6.8939 -0.171474 
1.81413 6.23644 -0.170601 2.08358 7.28627 -0.173123 2.11806 7.66184 -0.174823 
1.89313 7.01278 -0.173586 2.14778 8.06151 -0.176657 2.1747 8.43859 -0.1785 
1.95811 7.80644 -0.176802 2.18958 8.79591 -0.180322 2.20819 9.14269 -0.18203 
1.99999 8.56551 -0.180105 2.22356 9.50314 -0.183935 2.23976 9.85915 -0.185752 
2.02829 9.28545 -0.183462 2.24444 10.2393 -0.187807 2.26285 10.6207 -0.189863 
2.04667 10.0283 -0.187079 2.28314 11.0116 -0.191948 2.3 11.3669 -0.193958 
2.07006 10.8017 -0.190937 2.35515 11.6999 -0.19585 2.36592 12.0636 -0.19793 
2.14427 11.527 -0.19472 2.33182 12.379 -0.199677 2.33632 12.7222 -0.201639 
2.16476 12.1763 -0.198196 2.33973 13.0895 -0.203744 2.35051 13.4593 -0.20591 
2.13326 12.8608 -0.201789 2.3768 13.8475 -0.208239 2.39282 14.2261 -0.210544 
2.16228 13.6174 -0.205993 2.42055 14.6087 -0.212913 2.4372 14.9649 -0.215133 
2.21577 14.3888 -0.210521 2.46492 15.3163 -0.217389 2.48052 15.6776 -0.219654 
2.27089 15.1231 -0.214987 2.48928 16.0474 -0.221935 2.50707 16.4192 -0.224308 
2.30701 15.8446 -0.219375 2.50896 16.8085 -0.226659 2.51826 17.184 -0.229004 
2.31726 16.6038 -0.22385 2.54175 17.5443 -0.231381 2.56014 17.9121 -0.233793 
2.34262 17.3533 -0.22843 2.5838 18.2869 -0.236297 2.60529 18.67 -0.238867 
2.38989 18.0882 -0.233216 2.62549 19.0386 -0.241336 2.64321 19.3993 -0.243753 
2.43418 18.8313 -0.23813 2.65157 19.7723 -0.246156 2.67176 20.1361 -0.248647 
2.46341 19.5725 -0.242958 2.66077 20.5168 -0.250926 2.68083 20.8886 -0.253509 
2.46198 20.3255 -0.247637 2.71619 21.2722 -0.256307 2.7542 21.641 -0.259071 
2.48856 21.0885 -0.252716 2.81805 22.0171 -0.262119 2.86636 22.3642 -0.264838 
2.59013 21.8466 -0.258669 2.94627 22.7099 -0.267832 2.98815 23.0731 -0.270533 
2.73556 22.5668 -0.264809 2.99687 23.4499 -0.273001 3.03692 23.8034 -0.275577 
2.82524 23.288 -0.270328 3.11836 24.2277 -0.278985 3.17953 24.5617 -0.281585 
2.91646 24.0869 -0.276177 3.15915 24.8917 -0.283356 -1.95941 17.4478 -0.0638511 
-1.81766 17.6744 -0.0668927 3.09538 25.3531 -0.285464 3.12088 25.7327 -0.287897 
2.935 24.9713 -0.281701 3.22954 26.193 -0.291527 3.27861 26.596 -0.294229 
2.97993 25.8901 -0.287435 3.31879 27.013 -0.296889 3.36397 27.3864 -0.299311 
3.12764 26.7666 -0.293664 3.43506 27.8155 -0.302291 3.48776 28.2153 -0.304884 
3.23757 27.6121 -0.299184 3.56435 28.6772 -0.308047 1.56329 3.6831 -0.160187 
1.45215 3.72386 -0.16276 1.63732 4.09168 -0.161445 -0.919329 3.79542 -0.163602 
-2.05266 11.8729 -0.174751 -1.69047 11.4312 -0.175175 -1.22686 10.2195 -0.174653 
-1.14429 9.32721 -0.172895 0.35442 26.9836 -0.265105 0.603379 27.0245 -0.268383 
1.93065 26.6045 -0.281203 1.96118 25.8245 -0.277824 -0.478729 3.89374 -0.168225 
-0.368569 3.7989 -0.169159 -0.274382 3.85973 -0.169993 -1.66538 17.9195 -0.0680896 
-1.5136 18.166 -0.0695847 -0.13331 3.84187 -0.171222 -0.0299944 3.88037 -0.171804 
-0.258838 4.32916 -0.17038 0.0959353 4.0427 -0.172745 0.202685 4.05842 -0.173134 
0.0268132 4.47415 -0.172426 0.341554 3.94753 -0.173462 0.42733 3.83923 -0.173256 
0.320389 4.52743 -0.173728 0.528554 3.92891 -0.173125 -1.37111 18.3958 -0.0715796 
-1.23535 18.6169 -0.0740599 0.666264 3.93997 -0.172706 0.772244 3.94525 -0.172193 
0.617405 4.42805 -0.173487 0.899325 3.8949 -0.171025 1.01159 3.88026 -0.170027 
0.904678 4.39096 -0.172227 1.1207 3.82583 -0.168737 1.22692 3.80137 -0.16706 
1.16122 4.28952 -0.169823 1.33688 3.74544 -0.165262 -0.51179 26.2345 -0.25156 
-0.244779 26.1974 -0.255108 1.20182 21.4239 -0.239416 1.07612 20.942 -0.233814 
1.17913 20.5958 -0.233021 -0.650288 14.2046 -0.188553 -0.780289 13.9477 -0.187141 
-0.361281 14.6964 -0.191948 -0.48548 14.4105 -0.190278 -0.441276 13.8815 -0.189412 
3.38394 28.503 -0.305219 3.2147 28.39 -0.302811 2.27826 28.0165 -0.290891 
2.13134 28.0592 -0.289422 1.99429 27.7235 -0.286565 2.31377 27.491 -0.289007 
1.11383 27.3761 -0.27551 0.274998 27.9324 -0.266421 -1.09432 18.8482 -0.0751178 
-0.956981 19.0753 -0.0768094 0.353218 17.9019 -0.20687 -0.0959682 15.3885 -0.19584 
-0.213408 15.0488 -0.193976 -0.131824 14.4506 -0.193219 0.857255 27.2656 -0.272077 
1.12355 19.6729 -0.226637 0.980212 19.2078 -0.221892 3.01835 28.1957 -0.29977 
2.84461 28.1028 -0.297435 3.1119 27.8479 -0.299048 1.71673 4.49736 -0.162674 
-0.0643732 26.6848 -0.258602 0.834511 18.7693 -0.217555 0.707727 18.3262 -0.21378 
1.08588 18.791 -0.221543 -1.45038 13.4112 -0.182034 -1.53707 13.0791 -0.180952 
-1.28101 13.2766 -0.182607 -0.648531 3.94631 -0.166555 -0.593308 4.4024 -0.167699 
-0.768765 3.92305 -0.165368 1.91406 27.1612 -0.283434 2.14517 26.9816 -0.284964 
-1.08948 8.40776 -0.170899 -1.02767 7.53588 -0.169461 -1.30426 11.1241 -0.176817 
-0.943354 10.6941 -0.17786 1.40047 23.3331 -0.258669 1.50685 22.518 -0.252255 
1.3937 21.9918 -0.246623 1.5261 21.6536 -0.245488 -0.827236 8.87662 -0.173993 
2.24238 25.8407 -0.280444 2.04269 25.2423 -0.275574 -2.30355 12.1436 -0.174226 
-0.977007 4.97386 -0.164953 -0.946068 4.33125 -0.164373 1.39872 4.18304 -0.166385 
0.153892 16.1772 -0.200162 0.0405675 15.7907 -0.197988 0.149212 15.2164 -0.197676 
2.70631 27.5488 -0.293359 -1.39385 11.8974 -0.178435 0.252617 16.6244 -0.202327 
0.380899 16.077 -0.202334 0.355545 17.0166 -0.204628 -0.947727 5.74514 -0.16658 
-0.752842 5.22455 -0.167539 1.59002 4.57055 -0.165307 -0.974972 6.55233 -0.16763 
1.67713 28.0855 -0.28424 0.777469 27.6865 -0.272273 -0.745362 6.9759 -0.170532 
1.52716 24.8579 -0.269709 3.04223 27.4189 -0.296171 1.2725 20.1648 -0.231744 
1.37521 19.7262 -0.230685 2.12216 24.4705 -0.271405 1.84761 24.4566 -0.26932 
1.51246 5.07407 -0.168871 1.56986 5.49428 -0.16993 2.32634 26.9346 -0.286561 
1.61737 5.93817 -0.171397 1.65785 6.32132 -0.172496 1.42472 5.58378 -0.171699 
1.7011 6.72559 -0.173888 1.73626 7.11887 -0.175224 1.50897 6.43114 -0.174071 
1.75578 7.52179 -0.176746 1.7828 7.92306 -0.178275 1.56742 7.23869 -0.176744 
1.79309 8.3128 -0.179884 1.80602 8.67214 -0.181358 1.59358 8.03274 -0.179471 
1.8224 9.0499 -0.182977 1.83602 9.41227 -0.184522 1.61711 8.80182 -0.182414 
1.82775 9.83585 -0.186447 1.83059 10.2184 -0.188155 1.62278 9.60503 -0.18559 
1.82527 10.6599 -0.190188 1.84393 11.0526 -0.192037 1.60628 10.4727 -0.189188 
1.9047 11.5 -0.194224 1.95903 11.8333 -0.195997 1.65903 11.3628 -0.193137 
1.9243 12.1507 -0.197477 -0.819178 19.3052 -0.077411 -0.684932 19.5319 -0.0783374 
1.91242 12.5879 -0.199587 1.91517 12.9565 -0.201466 1.7066 12.248 -0.197254 
1.95033 13.3802 -0.203739 1.97612 13.769 -0.205893 1.72884 13.11 -0.201392 
2.01 14.2013 -0.208303 2.0374 14.5842 -0.210524 1.79709 13.9661 -0.205905 
2.05171 14.9537 -0.21257 2.07924 15.3052 -0.214686 1.84481 14.7678 -0.210216 
2.12857 15.6468 -0.216919 2.13703 16.0168 -0.219029 1.90818 15.4786 -0.214334 
2.09508 16.3821 -0.220717 2.09667 16.7714 -0.222879 1.91514 16.1854 -0.218115 
2.11213 17.1789 -0.225294 2.13579 17.5389 -0.227547 1.88794 16.9582 -0.221966 
2.20667 17.8932 -0.230248 2.2307 18.2676 -0.232681 1.97472 17.7191 -0.22693 
2.22311 18.6268 -0.234709 2.2439 18.995 -0.237104 2.03835 18.4321 -0.2316 
2.2923 19.3532 -0.239773 2.3015 19.7256 -0.242137 2.07994 19.1489 -0.236211 
2.24848 20.0792 -0.243727 2.23906 20.4589 -0.245981 2.07597 19.8602 -0.240435 
2.19845 20.9145 -0.248429 2.23671 21.2962 -0.251354 1.98404 20.6682 -0.244406 
2.37678 21.74 -0.255748 2.44269 22.1144 -0.258923 2.08915 21.5642 -0.251446 
2.5142 22.6082 -0.262872 2.59521 22.9523 -0.265924 2.30366 22.4995 -0.260034 
2.60565 23.3271 -0.268438 -0.568902 19.7294 -0.0800262 -0.452779 19.93 -0.0806489 
2.67877 23.9495 -0.273113 2.7602 24.3719 -0.276451 2.45153 23.6122 -0.268858 
1.62645 24.5436 -0.268576 1.69724 23.7833 -0.263764 2.42411 24.7453 -0.275671 
2.2191 23.9621 -0.26904 2.60073 26.9655 -0.289437 2.42935 26.4592 -0.285259 
2.51187 25.871 -0.282941 2.80952 27.0704 -0.292062 1.77776 27.3453 -0.282793 
-0.620657 11.1984 -0.181303 -0.554704 10.3047 -0.179391 1.61405 23.2458 -0.259117 
1.81737 22.9569 -0.258566 2.93372 26.836 -0.292082 -0.735296 13.3103 -0.186036 
-0.911776 13.5888 -0.185481 -1.03711 13.3295 -0.184074 1.46232 4.62105 -0.167524 
0.565999 17.8697 -0.210002 0.449164 17.4628 -0.207132 0.569741 16.9794 -0.207296 
-0.343128 20.1208 -0.0813061 -0.244825 20.295 -0.0815112 1.20668 4.73924 -0.170859 
1.33337 4.68873 -0.169511 -0.547988 9.40022 -0.177054 -0.51162 8.48542 -0.175492 
1.42614 20.6543 -0.237108 -0.48717 7.57118 -0.17355 -0.465539 6.59049 -0.171793 
-1.56693 12.5243 -0.179263 -1.1811 12.2114 -0.180433 0.325607 27.4928 -0.265944 
-0.1524 20.4553 -0.0810009 -0.063329 20.6255 -0.0773182 2.78804 25.9601 -0.285983 
2.5953 25.3445 -0.280741 2.69886 24.8308 -0.278684 2.89456 26.4201 -0.28953 
1.38187 18.7118 -0.225292 1.2411 18.2682 -0.221215 0.801728 17.8892 -0.213548 
-0.236429 9.91992 -0.180386 1.07128 4.83028 -0.172365 1.23229 5.22891 -0.172277 
0.923516 4.87725 -0.173169 -0.135251 4.9343 -0.171825 0.00991071 5.0991 -0.172841 
0.259973 5.46077 -0.17447 0.429702 5.34799 -0.174757 -2.8499 16.0778 -0.0495316 
0.604099 4.99327 -0.17449 0.763903 5.00697 -0.174137 0.918843 5.4466 -0.174452 
-0.223315 8.10249 -0.17637 1.64113 21.1042 -0.243018 1.82539 21.676 -0.249241 
0.388307 15.004 -0.199223 0.254588 14.5912 -0.196854 -0.294071 13.2938 -0.18904 
-0.456327 13.0793 -0.187329 -0.552548 5.16678 -0.168927 0.156585 27.0297 -0.262543 
0.654406 15.9471 -0.20492 0.558775 15.4904 -0.202389 0.662624 14.8713 -0.201305 
0.0923824 14.0724 -0.194006 -0.0525565 13.7095 -0.191908 -0.0681162 12.9087 -0.189586 
-0.425877 5.77773 -0.170644 -0.187949 6.37477 -0.173271 0.561183 5.93263 -0.175576 
0.332424 13.8562 -0.1953 0.605248 6.54267 -0.176707 0.804184 6.18613 -0.176021 
2.14372 23.3448 -0.264289 1.27359 5.67078 -0.173115 1.31878 11.0785 -0.191023 
1.37757 11.5251 -0.19301 1.43014 12.029 -0.19524 1.41706 12.4681 -0.197089 
1.08896 11.753 -0.19277 1.48532 12.9311 -0.199399 1.51976 13.3547 -0.201443 
1.20793 12.718 -0.197069 1.66037 15.5031 -0.212474 1.71013 15.8438 -0.214612 
1.86878 19.7748 -0.237447 1.9222 19.4216 -0.236019 1.47283 19.2847 -0.229548 
1.62403 18.7623 -0.228649 1.0284 17.9158 -0.216802 0.889547 17.4524 -0.2131 
1.32678 17.8315 -0.220235 -1.1066 12.8889 -0.182712 -0.940388 12.2725 -0.182134 
-0.659991 12.0375 -0.1833 -0.272419 11.6568 -0.184855 0.0899039 5.92515 -0.174148 
0.0206225 8.63519 -0.178969 0.0241501 7.7228 -0.176978 0.0988107 10.4914 -0.183927 
0.0930968 9.59073 -0.181588 0.818061 16.9562 -0.210327 0.727341 16.5017 -0.207548 
0.90306 15.9226 -0.20741 1.04458 16.9796 -0.213074 1.12361 5.77879 -0.174278 
1.30987 6.13143 -0.174436 1.34765 6.53481 -0.175393 0.945512 5.90512 -0.175228 
-0.30165 4.9536 -0.17051 0.535413 7.05407 -0.177458 0.320776 7.27386 -0.177445 
0.496002 8.0382 -0.179501 1.40027 6.95017 -0.176471 1.41621 7.35385 -0.177682 
1.20386 6.6533 -0.176391 1.37672 7.70656 -0.178995 1.38398 8.09762 -0.180254 
1.21311 7.42187 -0.178378 1.38044 8.50035 -0.18161 1.39405 8.8793 -0.182948 
1.16639 8.17965 -0.180767 1.43548 9.3059 -0.184492 1.42492 9.73179 -0.186103 
1.19994 9.00974 -0.183369 1.35063 10.1316 -0.187507 1.34292 10.5756 -0.189165 
1.06366 10.7451 -0.189045 1.16478 9.83785 -0.186149 1.35044 13.5899 -0.201518 
1.59486 13.7659 -0.203765 1.62823 14.198 -0.205992 1.60449 14.6397 -0.207891 
1.61846 15.009 -0.20977 1.40113 14.4421 -0.205568 1.73515 20.6706 -0.241349 
1.77342 20.2168 -0.238967 1.67522 16.7547 -0.218829 1.69058 17.1615 -0.221026 
1.72039 17.7767 -0.224523 1.79301 18.1296 -0.227226 1.78529 18.4883 -0.229088 
1.87216 19.0643 -0.233334 1.41866 15.3773 -0.209909 1.61568 19.7798 -0.23431 
-0.585122 12.7132 -0.185596 0.347605 9.21764 -0.181747 1.00815 6.51715 -0.176521 
0.0593804 12.1496 -0.188317 0.0930257 11.3194 -0.186161 0.426371 11.0022 -0.18709 
0.613333 13.7283 -0.196998 0.453001 13.1992 -0.194114 0.937284 12.6635 -0.195341 
1.00459 13.1238 -0.19752 1.50531 17.5738 -0.221102 1.66705 16.2096 -0.216061 
1.46781 16.4153 -0.215134 0.736589 14.2408 -0.199744 0.855477 13.5907 -0.198272 
1.12742 13.6427 -0.200301 0.904992 14.7364 -0.202894 0.781703 12.035 -0.1923 
0.57782 12.4509 -0.192473 1.96903 22.1173 -0.253954 2.04471 22.6074 -0.258128 
0.297992 12.5803 -0.191061 0.731581 11.5331 -0.190328 0.0853135 6.73687 -0.175523 
1.05259 6.93113 -0.177425 1.012 7.28578 -0.178263 0.944472 7.79585 -0.179686 
0.936906 8.19977 -0.180731 0.965554 8.84309 -0.182587 1.00269 9.26925 -0.183931 
0.927562 9.67351 -0.185073 0.745024 8.46441 -0.18121 1.20235 14.0514 -0.202476 
1.17758 14.4939 -0.204154 1.29624 17.2188 -0.217032 0.791543 7.30904 -0.178277 
0.758495 10.2017 -0.186231 0.731476 10.7081 -0.187687 1.22618 16.7177 -0.214042 
1.21865 16.1742 -0.211604 1.14689 15.6133 -0.208559 0.600997 9.63957 -0.184012 
1.10535 15.1216 -0.206113 0.515551 8.68145 -0.181093 5.35239 32.7374 -0.082266 
4.98867 32.5519 -0.0772272 5.15669 32.5893 -0.0793193 4.60592 32.5677 -0.0729895 
4.78616 32.6084 -0.0752205 4.87138 32.1799 -0.0740891 4.23615 32.4909 -0.0684767 
4.4249 32.5342 -0.0707958 4.48765 32.2029 -0.0699088 3.88111 32.3608 -0.063912 
4.05855 32.402 -0.0660731 4.129 32.0802 -0.0653334 3.50314 32.2517 -0.0592103 
3.68976 32.2952 -0.0614725 3.76032 31.9255 -0.0605228 3.12742 32.151 -0.0546188 
3.31552 32.1948 -0.0568807 3.38187 31.8026 -0.0557718 2.75722 32.0665 -0.0501673 
2.93476 32.1072 -0.0522952 3.00249 31.7012 -0.051111 2.41356 31.9822 -0.0459875 
2.58036 32.0192 -0.0479769 2.63412 31.6092 -0.0465924 2.0392 31.9069 -0.0414701 
2.22896 31.9466 -0.0437527 2.27432 31.5254 -0.0421685 1.66383 31.8325 -0.0368533 
1.85144 31.8686 -0.0391524 1.90407 31.4506 -0.0375956 1.26718 31.7645 -0.0318697 
1.47387 31.7995 -0.0344778 1.52903 31.3785 -0.0328778 0.871743 31.7091 -0.0267662 
1.06694 31.7366 -0.0293228 1.142 31.3168 -0.0279052 0.456087 31.6577 -0.0211408 
0.664813 31.6808 -0.023957 0.738321 31.2602 -0.022525 0.0845916 31.625 -0.0158734 
0.266731 31.6399 -0.0184607 0.345541 31.2144 -0.0171428 -0.309183 31.6072 -0.0102149 
-0.111138 31.6181 -0.0131025 -0.0362355 31.19 -0.011818 -0.682655 31.5766 -0.0046643 
-0.495384 31.583 -0.00745528 -0.415373 31.16 -0.00637754 -1.07059 31.5827 0.000951017 
-0.877591 31.5867 -0.00191176 -0.794179 31.1471 -0.000971836 -1.44532 31.5778 0.00637044 
-1.25938 31.5806 0.00367232 -1.17623 31.1566 0.00434524 -1.80286 31.5563 0.0114508 
-1.62353 31.5595 0.00894561 -1.54251 31.1374 0.00949319 -2.14294 31.5504 0.0160067 
-1.97357 31.5549 0.0137908 -1.89125 31.1188 0.0142417 -2.4664 31.6093 0.019856 
-2.31408 31.6151 0.017964 -2.23297 31.1829 0.0184373 -2.6715 31.5985 0.0223722 
0.467927 0.484587 0.230151 1.36291 1.52947 0.226168 0.954014 1.00878 0.257712 
2.06869 2.65293 0.179031 1.80034 2.18426 0.19651 1.36923 1.61505 0.209428 
2.52172 3.56703 0.154274 2.31996 3.13023 0.164979 2.04659 2.73904 0.171697 
2.86928 4.44335 0.136681 2.70841 4.00558 0.144727 2.48275 3.67597 0.149873 
3.13537 5.31929 0.122937 3.0073 4.87234 0.129323 2.80701 4.56348 0.133836 
3.32402 6.11335 0.112562 3.23802 5.72934 0.117256 3.04682 5.42062 0.12113 
3.4736 6.92679 0.103426 3.40353 6.52635 0.107704 3.22844 6.25915 0.110799 
3.59288 7.80368 0.0947461 3.53042 7.33858 0.0991692 3.36266 7.09697 0.101859 
3.67581 8.60853 0.0875661 3.63557 8.21785 0.0909133 3.46052 7.93405 0.0939505 
3.75021 9.42312 0.0808605 3.71735 9.01364 0.0841158 3.54344 8.76254 0.0867978 
3.80966 10.2755 0.0743015 3.78285 9.84653 0.0775191 3.61638 9.59805 0.0800425 
3.85356 11.1484 0.0679454 3.83219 10.7155 0.0710395 3.6701 10.4669 0.0734791 
3.88912 12.037 0.0616783 3.87071 11.5841 0.0648234 3.70815 11.3467 0.0671426 
3.92546 12.9131 0.0555958 3.90977 12.4729 0.0586025 3.74448 12.2212 0.061012 
3.95371 13.8216 0.0494101 3.93878 13.378 0.052413 3.77717 13.1234 0.0548037 
3.98156 14.7537 0.0430868 3.96504 14.274 0.0463305 3.80054 14.0414 0.0485643 
4.01847 15.6847 0.0366635 4.00096 15.2189 0.0398583 3.83014 14.9588 0.0423152 
4.05988 16.5907 0.030327 4.04073 16.1395 0.0334754 3.87087 15.878 0.0359801 
4.10261 17.4731 0.0240636 4.08151 17.0373 0.0271636 3.91404 16.7782 0.0296823 
4.15215 18.3914 0.0174139 4.12707 17.9379 0.0207141 3.95959 17.6878 0.0232221 
4.20044 19.2722 0.010922 4.17316 18.8351 0.0141762 4.00492 18.5944 0.0166646 
4.26374 20.2224 0.00372367 4.22979 19.7351 0.00743135 4.05531 19.4991 0.0100291 
4.33547 21.1979 -0.00374861 4.29825 20.7112 -2.25706e-06 4.11942 20.4488 0.00293439 
4.41509 22.1569 -0.0111571 4.37528 21.6712 -0.00739957 4.19424 21.409 -0.00435262 
4.49576 23.0865 -0.0183077 4.45562 22.6187 -0.0147121 4.27508 22.3427 -0.0114661 
4.57332 23.9869 -0.0251108 4.53515 23.5536 -0.0218395 4.35546 23.2705 -0.0184642 
4.65834 24.9078 -0.0319492 4.61693 24.4421 -0.0285219 4.43892 24.192 -0.0253199 
4.7447 25.8519 -0.0387364 4.702 25.3702 -0.0353156 4.52654 25.1089 -0.0320022 
4.82189 26.7577 -0.0449406 4.78402 26.3261 -0.0419976 4.60974 26.0452 -0.0385705 
4.91012 27.7358 -0.0514498 4.86551 27.2212 -0.048074 4.6927 26.9828 -0.0449272 
4.99587 28.6613 -0.0574325 4.95592 28.1961 -0.0544857 4.78201 27.9065 -0.0510543 
5.07212 29.5734 -0.0630775 5.03364 29.1244 -0.0603093 4.8654 28.8299 -0.0569396 
5.1427 30.4735 -0.0684889 5.1054 30.0407 -0.0658637 4.93621 29.7602 -0.0625841 
5.21347 31.3677 -0.07381 5.17424 30.918 -0.0711017 5.0008 30.6718 -0.0679615 
0.475145 0.487505 0.232079 -2.70215 30.5681 0.0264758 -2.69412 30.9511 0.025019 
-2.72708 29.6906 0.0296163 -2.71443 30.1887 0.0278927 -2.58673 30.2974 0.025928 
-2.70047 28.665 0.0322916 -2.68343 29.2429 0.0304304 -2.55586 29.47 0.028229 
-2.71655 27.411 0.0360518 -2.69768 28.0497 0.0340323 -2.51091 28.4049 0.0309995 
-2.76048 26.0479 0.0407368 -2.74484 26.7457 0.0383413 -2.53935 27.122 0.0351875 
-2.6513 22.7431 0.0533322 -2.64981 23.6462 0.049295 -2.71215 21.1264 0.0603406 
-2.68736 21.9361 0.0571157 -2.36643 22.4058 0.0505988 -2.82762 19.6463 0.0645944 
-2.75917 20.3705 0.0626328 -2.43968 20.8605 0.0560821 -3.02029 18.3543 0.066875 
-2.91403 19.001 0.0659029 -2.57262 19.4804 0.0599553 -3.28404 17.1131 0.0673752 
-3.14546 17.7397 0.0673508 -2.78857 18.2404 0.062937 -3.51511 16.0319 0.0667756 
-3.38688 16.5492 0.0671547 -3.02617 17.0736 0.0655814 -3.98129 13.7779 0.0692091 
-3.94844 14.3155 0.06545 -3.93511 12.5567 0.0802093 -3.95341 13.2083 0.0745762 
-3.78958 13.4332 0.0763128 -3.84325 11.1171 0.0903384 -3.88817 11.8798 0.0854031 
-3.69551 12.1476 0.0862625 -3.73415 9.67675 0.0976986 -3.79055 10.4134 0.0942427 
-3.59199 10.7362 0.0940223 -3.57764 8.12099 0.103567 -3.668 8.96419 0.100611 
-3.47607 9.29666 0.100569 -3.35852 6.59553 0.108077 -3.48122 7.33994 0.105991 
-3.32373 7.77672 0.106474 -3.09926 5.36632 0.111153 -3.24096 5.95534 0.109697 
-3.11963 6.32591 0.111482 -2.76496 4.25097 0.114073 -2.94327 4.78411 0.11273 
-2.85849 5.07318 0.115725 -2.32464 3.18344 0.116035 -2.55523 3.70303 0.114725 
-2.50251 3.91157 0.120436 -1.79513 2.19556 0.120048 -2.07067 2.67826 0.117402 
-2.04566 2.83052 0.125566 -1.14101 1.23129 0.12923 -1.49811 1.72668 0.121014 
-1.50617 1.84177 0.133492 -0.472885 0.395506 0.161752 -0.249614 0.214914 0.14658 
-0.287822 0.224829 0.155222 -0.251816 0.297619 0.175173 -0.280303 0.311338 0.182083 
-0.541481 0.582966 0.181095 -0.20908 0.260543 0.159617 -0.227473 0.268419 0.164445 
-0.483782 0.611336 0.184654 -0.16493 0.248605 0.156324 -0.182342 0.25359 0.159748 
-0.383249 0.571407 0.178225 -0.134668 0.248145 0.155624 -0.148016 0.247524 0.156163 
-0.312864 0.5505 0.174683 -0.10414 0.238253 0.156678 -0.115933 0.236113 0.155114 
-0.253992 0.533221 0.177768 -0.083456 0.270081 0.169342 -0.0940019 0.270987 0.171475 
-0.19871 0.537895 0.184219 -0.0596089 0.239022 0.154199 -0.0700164 0.243188 0.158329 
-0.150239 0.542103 0.183536 -0.0375929 0.240836 0.151514 -0.0484704 0.240971 0.153832 
-0.102986 0.528616 0.176541 -0.0139394 0.240205 0.151638 -0.0252105 0.239421 0.15189 
-0.0636407 0.526064 0.174102 0.00386628 0.253484 0.145904 -0.00259219 0.244355 0.151824 
-0.0259284 0.534372 0.173147 0.0236394 0.247724 0.15275 0.00962255 0.249418 0.154394 
0.0197475 0.553456 0.176137 0.0482112 0.255563 0.153003 0.0385988 0.256012 0.154331 
0.0647809 0.561622 0.172844 0.0730556 0.261299 0.156099 0.0627694 0.259687 0.155129 
0.109273 0.570819 0.169762 0.0917707 0.252591 0.157573 0.0826636 0.24727 0.154662 
0.149358 0.564618 0.172609 0.110418 0.269533 0.168181 0.100467 0.267879 0.168836 
0.190584 0.550332 0.183758 0.134185 0.241154 0.154797 0.122145 0.242017 0.158136 
0.236616 0.540861 0.186446 0.155771 0.232212 0.154521 0.141481 0.230617 0.155054 
0.286061 0.524233 0.182899 0.186875 0.238771 0.16666 0.171406 0.234791 0.159382 
0.332818 0.513903 0.181784 0.267542 0.318659 0.202627 0.239001 0.304586 0.190515 
0.433919 0.586914 0.193443 0.0945466 21.392 0.116997 -0.10445 21.336 0.114518 
-0.234305 21.2181 0.0235619 -0.24819 20.9195 0.00655606 -0.329078 20.7022 0.0064392 
-0.403542 20.49 0.00636148 -0.451228 21.1341 0.02287 -0.497311 20.2853 0.0080746 
-0.600472 20.0627 0.0118423 -0.586091 20.6344 0.0189187 -0.71694 19.8289 0.0106992 
-0.83012 19.611 0.0128729 -0.771148 20.1484 0.0209955 -0.955444 19.3724 0.0156047 
-1.09126 19.1274 0.0181927 -0.99648 19.6424 0.0256463 -1.23007 18.8969 0.0220798 
-1.36964 18.6548 0.0251111 -1.25076 19.1491 0.0325469 -1.50509 18.4106 0.0276157 
-1.64629 18.1732 0.0299475 -1.51711 18.6562 0.0390331 -1.78667 17.9337 0.0331682 
-1.93716 17.684 0.0360302 -1.78684 18.1596 0.0457456 -2.10052 17.4326 0.0476942 
-2.2657 17.1655 0.0501363 -2.09026 17.6597 0.0508677 -2.43977 16.91 0.0554678 
-2.5886 16.6744 0.0554035 -2.42885 17.1433 0.0597319 -2.75267 16.3769 0.0496771 
-2.89075 16.1625 0.0554554 -2.76026 16.584 0.0676303 -3.012 15.9633 0.0621006 
-3.19074 15.472 0.107686 -3.06516 15.6092 0.105534 -0.0278993 20.9263 0.00206285 
0.0738792 21.2023 0.0162039 -0.217975 20.4454 0.005062 -0.126696 20.6711 0.0024533 
-0.0225097 20.8389 0.0141476 -0.435521 20.014 0.0104117 -0.325796 20.2296 0.00746238 
-0.668003 19.5929 0.016981 -0.559551 19.7889 0.0143676 -0.428419 19.7796 0.0236806 
-0.912088 19.1788 0.024249 -0.792403 19.3843 0.0210786 -0.655712 19.3077 0.0312156 
-1.17672 18.7402 0.0320543 -1.04657 18.9584 0.0280893 -0.893963 18.8553 0.0391914 
-1.4518 18.3071 0.0412598 -1.3224 18.5179 0.0399233 -1.73275 17.8358 0.055503 
-1.59409 18.0651 0.0479163 -1.41219 17.9289 0.0534186 -2.00603 17.3721 0.052655 
-1.86489 17.6047 0.0494725 -2.28284 16.8892 0.0569588 -2.14284 17.1196 0.0564294 
-1.94478 16.9431 0.0667186 -2.55075 16.3501 0.0691113 -2.41099 16.6097 0.0634317 
-2.18878 16.4137 0.0793883 -2.78964 15.7801 0.0918998 -2.67415 16.0304 0.081183 
5.26965 32.2713 -0.0790024 -2.60914 31.2369 0.0229439 5.23428 31.8713 -0.0765896 
-2.33696 24.1617 0.0438267 -2.64761 24.6096 0.045054 -2.64009 25.3843 0.0420433 
-3.74211 14.5874 0.069019 -3.84772 14.8741 0.0647218 -3.75717 15.3494 0.0652392 
-3.39294 15.8369 0.0684528 -0.768972 0.780692 0.153065 -0.885605 0.954464 0.152656 
-0.301902 22.0104 0.0644757 -0.36349 21.5594 0.0582692 0.270462 21.6946 0.0610107 
0.164962 22.081 0.0670313 0.402308 0.439023 0.231086 -2.90868 14.9863 0.103749 
-2.84423 15.4172 0.10268 -2.61757 15.1788 0.103499 -3.06518 16.0333 0.0700128 
-3.17784 15.6827 0.0663071 -0.216622 20.2787 0.0166738 -3.2534 15.3861 0.0700644 
-3.26028 15.1144 0.0911454 0.247185 21.5391 0.0304294 0.265063 21.6125 0.0369021 
0.393593 22.077 0.0407192 -1.14751 18.4003 0.0478055 -1.68054 17.4414 0.0552217 
-2.42542 15.8276 0.0928571 -3.30919 15.43 0.0754674 -0.47923 21.7598 0.0446464 
5.053 31.6197 -0.0733222 0.675441 0.78715 0.222177 4.36565 31.8784 -0.0669963 
4.54682 31.9121 -0.0691685 4.69192 31.8147 -0.0702955 4.89466 31.7583 -0.0722712 
4.874 31.2549 -0.0695266 4.57038 31.4906 -0.0673637 3.65086 31.473 -0.0571784 
3.84177 31.5388 -0.0595745 3.26492 31.335 -0.0522542 3.45174 31.3923 -0.0545807 
3.53479 31.0061 -0.053644 2.87316 31.2178 -0.0473556 3.06467 31.2622 -0.0496884 
3.13676 30.8523 -0.0485137 2.50412 31.122 -0.0427664 2.67945 31.1701 -0.0449505 
2.74455 30.7311 -0.0435511 2.14246 31.0464 -0.0382772 2.32516 31.0827 -0.0405269 
2.37372 30.6433 -0.0389091 1.77311 30.9653 -0.0335797 1.95839 31.0044 -0.0359269 
2.01282 30.561 -0.0343011 1.40777 30.9175 -0.028983 1.59489 30.9511 -0.031387 
1.65279 30.5036 -0.0297364 1.00846 30.8527 -0.0236918 1.20546 30.881 -0.0263215 
1.27461 30.4517 -0.024866 0.608562 30.7952 -0.0182986 0.811999 30.8235 -0.0210678 
0.878208 30.3854 -0.0195177 0.227403 30.7546 -0.0130505 0.413655 30.7722 -0.0155912 
0.488993 30.333 -0.0141912 -0.150203 30.7283 -0.00779917 0.0424465 30.7345 -0.0104247 
0.111079 30.2903 -0.00897163 -0.533551 30.6943 -0.00236197 -0.349656 30.7175 -0.00502757 
-0.271548 30.2602 -0.00369111 -0.904834 30.703 0.00266545 -0.712046 30.6917 6.26232e-05 
-0.647697 30.2485 0.00137801 -1.28026 30.7255 0.00764669 -1.09264 30.7265 0.00509913 
-1.01244 30.2711 0.00608042 -1.6435 30.6857 0.0126314 -1.46568 30.703 0.0101998 
-1.38444 30.2737 0.0109076 -1.98761 30.6198 0.017312 -1.81714 30.6204 0.0151246 
-1.74277 30.1873 0.0158103 -2.3358 30.7092 0.0213841 -2.16518 30.6441 0.0194605 
-2.09314 30.1476 0.0203302 -2.32003 19.2592 0.0552278 -2.23202 19.8851 0.0533298 
2.43651 3.81821 0.145218 2.24946 3.36167 0.153776 2.0453 2.90547 0.164279 
1.79388 2.41356 0.176543 2.02231 3.06696 0.157345 1.49017 1.90087 0.190809 
1.0769 1.29209 0.211235 0.86719 1.11051 0.199768 1.53264 2.10687 0.178459 
2.73317 4.69811 0.130847 2.5945 4.25016 0.13774 2.37742 3.96038 0.141287 
2.9652 5.56031 0.119197 2.86164 5.13453 0.12469 2.66135 4.83799 0.128043 
3.12347 6.40607 0.10933 3.04449 5.97916 0.11403 2.86751 5.70329 0.116989 
3.23493 7.23757 0.100818 3.17912 6.81377 0.104953 3.00086 6.54093 0.107766 
3.3295 8.07806 0.0931132 3.28709 7.65435 0.0967881 3.10777 7.37559 0.0996941 
3.40817 8.91276 0.0860605 3.36732 8.49989 0.089431 3.19706 8.22234 0.0922196 
3.46845 9.76319 0.0793872 3.43676 9.33328 0.0826902 3.26243 9.07158 0.0852727 
3.51857 10.6501 0.072788 3.49717 10.2053 0.0760043 3.31868 9.94028 0.0785928 
3.56233 11.5294 0.0664836 3.5463 11.0903 0.0695459 3.37397 10.8277 0.0720611 
3.59998 12.4189 0.0602692 3.58032 11.9807 0.0632817 3.41862 11.7227 0.0656978 
3.62343 13.3296 0.0540476 3.61117 12.8636 0.0572006 3.44666 12.621 0.0595068 
3.64879 14.2536 0.0477782 3.63836 13.8008 0.050829 3.47167 13.5385 0.0532644 
3.68356 15.1569 0.0416084 3.66499 14.6921 0.0447695 3.50187 14.4492 0.0470765 
3.72526 16.0771 0.0352411 3.70367 15.6233 0.0383717 3.5373 15.3543 0.0408988 
3.76318 16.977 0.0289688 3.74205 16.5318 0.0320805 3.57353 16.2749 0.0345796 
3.8089 17.892 0.0224874 3.78473 17.429 0.0257795 3.61138 17.1807 0.0282851 
3.8539 18.8097 0.0159084 3.83291 18.3678 0.0190862 3.65658 18.1074 0.0217463 
3.90873 19.7095 0.00934102 3.87918 19.2485 0.0127072 3.70604 19.0208 0.0152105 
3.97402 20.664 0.00226686 3.93923 20.1772 0.00588545 3.76199 19.9259 0.0086664 
4.05685 21.6166 -0.00489826 4.0167 21.1449 -0.00134258 3.83556 20.873 0.00168723 
4.13256 22.5449 -0.0118182 4.09166 22.0844 -0.00836159 3.91358 21.8204 -0.00531019 
4.20711 23.4628 -0.0185632 4.16735 22.9967 -0.0151302 3.98382 22.7387 -0.0119878 
4.30102 24.3793 -0.0253221 4.25712 23.9248 -0.0220017 4.06916 23.6513 -0.0186537 
4.38956 25.307 -0.0319561 4.3457 24.8452 -0.0286763 4.16425 24.5783 -0.02537 
4.47433 26.2592 -0.0385132 4.43494 25.7853 -0.0352897 4.25456 25.5216 -0.031983 
4.5652 27.1774 -0.0447186 4.52163 26.7142 -0.0416284 4.34725 26.4541 -0.0383903 
4.6555 28.0884 -0.0507161 4.60981 27.6282 -0.0477088 4.43905 27.3593 -0.0444607 
4.73386 29.0124 -0.0565045 4.69627 28.5494 -0.0536437 4.52421 28.2706 -0.0503309 
4.79983 29.9558 -0.0621261 4.76676 29.4886 -0.0593543 4.59757 29.2076 -0.0560831 
4.85452 30.8322 -0.0671908 4.82316 30.3879 -0.0645913 4.65348 30.1158 -0.0613748 
4.696 30.9705 -0.0661548 -2.31123 28.2606 0.0292516 -2.31236 28.8783 0.0272882 
-2.03522 23.5501 0.0426015 -2.03251 24.5053 0.0395047 -2.34104 26.7022 0.0346078 
-2.31064 27.3691 0.0322313 -2.11287 27.8361 0.0286697 -2.19779 20.5145 0.0524642 
-2.15359 21.2522 0.0502493 -1.92236 20.2617 0.0472647 -2.0974 21.9717 0.0480118 
-2.06648 22.7627 0.0454556 -1.76757 23.0959 0.0410795 -2.58849 18.0802 0.0598441 
-2.45801 18.677 0.0576736 -2.10161 19.0653 0.0507083 -3.45795 11.773 0.0901788 
-3.50887 12.4841 0.0866726 -3.57011 13.159 0.0830337 -3.61695 13.7669 0.0784682 
-3.33096 12.8078 0.0880319 -3.21258 8.91782 0.103308 -3.27581 9.65276 0.100166 
-3.03814 7.36158 0.110051 -3.12714 8.17185 0.106714 -2.93305 8.51897 0.106176 
-2.83173 5.97468 0.116016 -2.93962 6.64434 0.113225 -2.7592 7.03458 0.113207 
-2.57598 4.73545 0.121442 -2.72226 5.34734 0.118623 -2.56314 5.66929 0.119851 
-2.20195 3.53735 0.127288 -2.40593 4.11321 0.123542 -2.29963 4.40194 0.126273 
-1.71488 2.43552 0.136081 -1.95896 2.95214 0.130801 -1.90396 3.18758 0.134071 
-1.13174 1.42093 0.149891 -1.40823 1.87368 0.141217 -1.38551 2.0563 0.145244 
-1.10001 18.0326 0.0481335 -0.982159 18.2638 0.0443123 -0.230321 22.5488 0.0529154 
-0.426187 22.5686 0.0468133 -0.530252 0.88543 0.165416 -0.600619 0.906315 0.167132 
-0.841901 0.964626 0.157153 -0.451013 0.893442 0.164184 -0.501767 0.90167 0.163478 
-0.687546 1.22273 0.160482 -0.358004 0.861075 0.168314 -0.407722 0.877256 0.165716 
-0.57148 1.215 0.161562 -0.283164 0.864005 0.172475 -0.322826 0.862344 0.171731 
-0.455674 1.19389 0.165793 -0.208759 0.871381 0.170735 -0.249159 0.872231 0.172539 
-0.354411 1.19716 0.167762 -0.143507 0.870532 0.16481 -0.179662 0.87161 0.167267 
-0.262346 1.204 0.16463 -0.0785443 0.870533 0.161422 -0.115732 0.871543 0.162588 
-0.174063 1.20491 0.160218 -0.0179701 0.877419 0.161234 -0.0522166 0.869098 0.161277 
-0.0861427 1.2044 0.157681 0.0481798 0.889159 0.160401 0.010619 0.885468 0.160924 
-0.00235155 1.21092 0.156612 0.114469 0.909952 0.158267 0.0771804 0.899438 0.158461 
0.0833058 1.23193 0.155344 0.18492 0.921433 0.15942 0.145371 0.913659 0.158695 
0.174194 1.24974 0.155036 0.246948 0.90701 0.16489 0.212173 0.920241 0.161323 
0.263907 1.25381 0.15702 0.31265 0.882376 0.171197 0.276692 0.896274 0.169221 
0.353081 1.24305 0.161694 0.388327 0.87962 0.171979 0.345422 0.875581 0.172596 
0.446585 1.22548 0.165997 0.456345 0.8544 0.16917 0.418396 0.863653 0.170471 
0.540996 1.20539 0.16641 0.533739 0.844555 0.174316 0.480192 0.831565 0.169984 
0.630332 1.17238 0.165725 0.710711 0.962401 0.189567 0.608937 0.895825 0.179175 
0.767636 1.21005 0.172873 1.03743 1.42841 0.185239 0.231697 22.6195 0.0462668 
0.0250494 22.5316 0.0526398 -0.124083 23.0106 0.0440986 -0.190769 20.0608 0.0221365 
-0.0905504 20.3471 0.0197435 -0.72859 21.0541 0.0248742 -0.795672 20.7985 0.0248979 
-0.876783 20.4964 0.0240997 -0.968857 20.2248 0.0260355 -1.00157 20.8721 0.0294516 
-1.03759 19.9226 0.0265328 -1.15119 19.6574 0.029265 -1.13353 20.2437 0.0302898 
-1.29509 19.4667 0.0318593 -1.42408 19.2161 0.0351376 -1.33826 19.7381 0.0338708 
-1.56914 18.9294 0.0377994 -1.69644 18.6695 0.0408467 -1.6154 19.2406 0.0398361 
-2.40964 17.4422 0.0577638 -2.58178 17.1772 0.0612303 -0.615982 22.1805 0.0419623 
-0.626492 21.8324 0.0352074 0.0195786 20.6617 0.0190085 0.135668 21.0046 0.0198412 
0.0654289 20.4513 0.0216715 -0.62695 18.9897 0.0333184 -0.520178 19.2289 0.0300214 
-0.402391 19.5003 0.0273644 -0.296582 19.7738 0.0239738 -0.365705 19.2152 0.0298272 
-1.61462 17.0412 0.0598835 -1.4865 17.2862 0.0563659 -1.35431 17.5403 0.0547602 
-1.22958 17.7895 0.0517329 -1.30058 17.1606 0.0562222 -2.0874 15.9436 0.0789666 
-1.97194 16.2192 0.0721293 -1.86421 16.5144 0.067046 -1.74425 16.7684 0.062272 
-1.54993 16.6285 0.0624195 -1.77896 16.0601 0.0709788 4.02589 31.6536 -0.0621658 
4.20328 31.7426 -0.0645378 4.26299 31.4521 -0.0637919 3.91708 31.2016 -0.0587816 
-3.34675 10.3803 0.0966955 -3.39786 11.1083 0.0934538 -3.08221 10.0139 0.0993851 
-0.6095 21.537 0.0305951 -0.633733 21.254 0.0242686 -0.849622 21.4108 0.0301134 
-0.768447 21.9242 0.0335498 -3.34275 14.7872 0.084795 -3.19155 14.751 0.0916092 
-0.858088 18.5053 0.0404114 -0.742255 18.7458 0.0363906 -0.588228 18.6709 0.0357746 
-2.30821 15.3273 0.0920487 -2.19391 15.6248 0.084822 -1.98998 15.4521 0.0820298 
-0.832954 1.07173 0.160968 -2.1892 29.4511 0.0239369 -2.3912 29.5962 0.0258264 
-0.651155 22.6959 0.0398946 -0.799494 22.709 0.0368506 -1.83777 21.6029 0.0444061 
-2.51813 14.6556 0.0965111 -2.40963 14.9977 0.0953507 -2.20294 14.814 0.0902981 
-1.72631 24.8708 0.0354336 -2.01768 25.503 0.0356494 -2.48897 30.962 0.0224178 
-2.43507 30.0457 0.0248866 -2.42203 30.4247 0.0234422 -3.68398 14.2183 0.073745 
-3.60491 14.8001 0.0714335 -2.45003 25.7901 0.0388386 -2.74307 17.563 0.0622659 
-2.4066 17.9852 0.0567693 -3.20772 11.4309 0.0933812 -2.85437 17.0072 0.0645168 
0.269644 21.3632 0.0224489 0.40415 21.7189 0.0245139 0.313034 21.1495 0.0224588 
-3.48434 13.9815 0.080866 -0.815541 18.1652 0.0424687 -1.05411 17.6671 0.0501924 
-0.598484 23.1261 0.0385005 -0.746735 1.0426 0.164962 0.38125 22.7177 0.0338749 
0.28879 23.0721 0.0377097 -0.149738 19.8121 0.0247382 -2.8665 16.7127 0.066031 
-3.03395 14.5564 0.0942358 -2.85634 14.4184 0.0970351 -3.13661 14.2358 0.0899481 
-3.01399 16.4004 0.0669499 -3.18424 16.1343 0.0682466 -2.21865 17.6623 0.0529958 
-2.38026 17.7063 0.0568594 -2.21621 18.2088 0.0530007 -2.0538 17.922 0.0493784 
-1.78903 18.3838 0.0428737 -1.92398 18.1356 0.0460492 -2.05925 18.1457 0.0493218 
-2.22651 26.031 0.0358715 0.470611 22.5398 0.0319809 0.539517 22.9422 0.0273128 
0.515229 22.3228 0.0290764 -1.90625 26.4124 0.0317404 -1.84093 18.6514 0.0444046 
-3.43428 15.4534 0.0695381 -3.49015 15.119 0.0728455 -1.01185 22.8468 0.0364612 
-0.981399 22.3731 0.0354813 2.61361 30.2212 -0.039576 2.80536 30.2696 -0.0419673 
3.41268 30.5001 -0.049848 3.61062 30.5809 -0.0524031 2.2545 30.1414 -0.0350254 
2.43141 30.1815 -0.0372711 2.4949 29.7201 -0.0357276 1.88623 30.064 -0.0302774 
2.06799 30.1069 -0.0326477 2.12863 29.6447 -0.0310464 1.53383 30.0273 -0.0258209 
1.70992 30.0425 -0.028045 1.76809 29.5874 -0.0263983 1.13736 29.9594 -0.020507 
1.33724 29.9967 -0.0232376 1.39738 29.5336 -0.0215451 0.750179 29.8997 -0.0152598 
0.944473 29.9293 -0.0179262 1.00972 29.4714 -0.0163164 0.358908 29.8464 -0.00987499 
0.551885 29.8694 -0.0125022 0.619871 29.4099 -0.010923 -0.00736052 29.8091 -0.0048533 
0.175911 29.8286 -0.00734822 0.239501 29.362 -0.00570734 -0.40043 29.7587 0.000564279 
-0.202739 29.7682 -0.00207495 -0.13817 29.304 -0.000494826 -0.763725 29.7429 0.00530624 
-0.586773 29.744 0.00302724 -0.51905 29.2505 0.00463516 -1.13387 29.8137 0.00967968 
-0.947735 29.7887 0.00743258 -0.888053 29.284 0.00904763 -1.48031 29.861 0.0138363 
-1.29577 29.8822 0.0114173 -1.23223 29.4005 0.0127153 -1.82124 29.6088 0.018999 
-1.6481 29.6726 0.0166298 -1.56136 29.2822 0.0171383 -1.49393 22.4178 0.0388991 
-1.47294 23.1934 0.0382344 -1.6457 21.1266 0.0417915 -1.59489 21.8341 0.0405117 
4.39321 31.2148 -0.0640615 4.53848 31.1177 -0.0651746 4.51928 30.6951 -0.0628539 
0.0119466 23.537 0.0360787 -0.212313 23.5449 0.0388973 2.32007 4.12546 0.137036 
2.16572 3.68731 0.143742 1.59987 2.37436 0.167526 1.32685 1.88605 0.177333 
1.14539 1.71238 0.173835 2.87299 6.66842 0.106614 2.81747 6.2507 0.110785 
2.97353 7.49703 0.098832 2.92118 7.07174 0.102625 2.74359 6.78733 0.105489 
3.05322 8.36601 0.091399 3.01567 7.93684 0.0949375 2.8338 7.63731 0.09785 
3.11623 9.23145 0.0844923 3.08831 8.80475 0.0878331 2.91003 8.52226 0.0905068 
3.16954 10.1103 0.0778906 3.14147 9.66278 0.0811839 2.96924 9.39773 0.0836981 
3.21767 11.0006 0.0714463 3.1906 10.5561 0.074609 3.01464 10.2794 0.0772012 
3.25558 11.91 0.0650624 3.23842 11.4556 0.0681887 3.05552 11.1842 0.0707592 
3.28166 12.8202 0.0588405 3.27131 12.3735 0.0618445 3.09099 12.1059 0.0643656 
3.31038 13.7558 0.0524954 3.29623 13.2833 0.0556745 3.1203 13.0347 0.0580572 
3.33978 14.6353 0.0465366 3.32424 14.1961 0.0495022 3.14786 13.9396 0.0519522 
3.37437 15.5536 0.0402935 3.3549 15.0873 0.0434553 3.17606 14.8328 0.0459322 
3.40976 16.467 0.034047 3.39346 16.0129 0.0371298 3.20953 15.7445 0.0397587 
3.45616 17.3775 0.0276951 3.43491 16.9264 0.0308367 3.25321 16.6631 0.0334621 
3.50224 18.3342 0.0209809 3.4783 17.8596 0.0243298 3.30011 17.6042 0.0269475 
3.55462 19.2061 0.0147761 3.52924 18.7685 0.0178887 3.34937 18.5198 0.0205378 
3.61873 20.1409 0.00804818 3.58792 19.6746 0.0113889 3.40972 19.4218 0.014144 
3.69421 21.079 0.00120834 3.65118 20.5995 0.00473302 3.47597 20.348 0.00753394 
3.76902 22.0352 -0.00571971 3.7337 21.5687 -0.00235241 3.5485 21.2951 0.000738396 
3.84137 22.9349 -0.0121787 3.8061 22.4844 -0.00896273 3.62597 22.2327 -0.00596085 
3.93081 23.8415 -0.0187169 3.88045 23.3806 -0.0153617 3.70285 23.1263 -0.0123003 
4.02063 24.7796 -0.0253231 3.9757 24.3147 -0.0220641 3.78743 24.0439 -0.0187554 
4.11628 25.7281 -0.0319069 4.07082 25.2507 -0.0286342 3.8829 24.9868 -0.0253259 
4.2134 26.6567 -0.0382281 4.16619 26.2024 -0.0351469 3.98309 25.931 -0.0318159 
4.30751 27.5505 -0.0441657 4.26307 27.1002 -0.0412195 4.08245 26.848 -0.0380033 
4.39279 28.4614 -0.0499825 4.35227 28.0007 -0.0470862 4.17656 27.7411 -0.04387 
4.46188 29.3941 -0.0556106 4.42928 28.9181 -0.0527793 4.25739 28.6476 -0.049544 
-1.44882 24.2151 0.0353392 -1.42462 25.2188 0.0317323 2.76151 5.84467 0.115254 
2.68254 5.41485 0.120128 2.64051 5.97047 0.113491 -1.91635 27.3097 0.0285093 
-1.91348 28.2051 0.0252699 3.00141 30.338 -0.0445101 3.20002 30.4111 -0.0470609 
3.27755 29.9868 -0.0458471 2.87086 29.829 -0.0405545 -2.96165 11.0743 0.0957945 
-3.01687 11.7641 0.093478 -1.16863 21.2798 0.0330168 -1.23173 20.9545 0.0338331 
-2.45048 6.61647 0.117054 -2.53985 7.35286 0.113271 -2.62368 8.10349 0.109344 
-2.70319 8.86983 0.105724 -2.3233 7.70124 0.112132 -2.0223 4.05025 0.131512 
-2.17832 4.68453 0.127243 -1.62873 2.86559 0.140172 -1.84798 3.44339 0.135262 
-1.76775 3.74336 0.135775 -1.10879 1.77305 0.152392 -1.36712 2.30296 0.14627 
-1.36108 2.58395 0.145667 -0.897569 1.35125 0.158913 -0.531546 1.52818 0.162194 
-0.597552 1.53224 0.161182 -0.866465 1.62762 0.156344 -0.936429 1.62225 0.155757 
-0.416629 1.55939 0.161983 -0.478715 1.55535 0.162474 -0.602255 1.89838 0.158161 
-0.302198 1.55495 0.1597 -0.357052 1.55618 0.161094 -0.464814 1.91909 0.157342 
-0.191267 1.55427 0.156656 -0.247848 1.55353 0.158229 -0.328655 1.91183 0.155381 
-0.0826976 1.56491 0.154328 -0.13688 1.56722 0.155297 -0.198485 1.92205 0.152804 
0.0248909 1.58589 0.15267 -0.0278056 1.57716 0.153395 -0.0666541 1.9471 0.150533 
0.136624 1.61795 0.151665 0.0801046 1.60432 0.152105 0.0658749 1.97863 0.148928 
0.251261 1.63724 0.152017 0.193028 1.63151 0.151513 0.200101 2.01223 0.148214 
0.366314 1.64252 0.154268 0.310625 1.64239 0.152823 0.339358 2.03296 0.148856 
0.481568 1.63047 0.15739 0.422252 1.63875 0.15574 0.478831 2.03699 0.150674 
0.605879 1.61443 0.159742 0.54346 1.61817 0.158937 0.622348 2.02469 0.15281 
0.726227 1.58036 0.160692 0.664639 1.59106 0.160383 0.771966 1.99427 0.154593 
0.834065 1.52678 0.163293 0.774353 1.54162 0.161504 0.908774 1.93845 0.156471 
-0.0913497 19.5176 0.0293213 0.0122609 19.8438 0.0270498 -3.45735 14.7689 0.0759202 
-3.42477 14.4328 0.0807658 -2.79766 9.6152 0.102073 -2.86284 10.3646 0.0989478 
-2.67339 10.683 0.0978671 -2.48963 9.21153 0.104399 -1.34605 20.1399 0.0348019 
-1.47972 19.9326 0.0378571 -1.71028 26.7731 0.02868 -0.672573 1.54557 0.159555 
-0.751188 1.5701 0.158192 -0.972742 1.9683 0.153646 -0.754238 1.8887 0.156926 
-1.87682 14.9472 0.082939 -1.76957 15.2585 0.0782189 -0.481104 23.6728 0.0365514 
-0.710259 23.716 0.0355141 -2.26341 5.27896 0.124489 -2.36267 5.92336 0.120877 
-2.16531 6.24592 0.120365 -2.00632 4.94827 0.128119 0.41441 23.5655 0.0280771 
0.24983 23.5228 0.0317543 0.159758 24.0035 0.0295541 -3.09184 12.4639 0.0910237 
-3.15565 13.1806 0.0894667 -2.83898 12.1122 0.0930512 1.99814 3.26995 0.150317 
1.80416 2.81459 0.158698 1.6093 2.59775 0.159241 1.96148 3.44893 0.145552 
0.135163 20.1962 0.0251999 0.250616 20.5415 0.0238684 0.199478 19.9031 0.0274901 
-0.761675 17.8135 0.0457581 -0.650155 18.0728 0.0423589 2.58911 4.99304 0.125451 
2.46135 4.54744 0.131256 2.26169 4.28756 0.13369 2.49308 5.13545 0.122896 
-0.994102 17.2945 0.0522105 -0.879347 17.5501 0.0487426 -0.705909 17.4615 0.0481997 
-0.536107 18.3418 0.0395534 -0.431526 18.6097 0.0367318 -0.483706 18.0103 0.0422469 
-0.317861 18.8862 0.0342823 -0.208176 19.192 0.0315518 -0.0379572 19.2019 0.0317575 
-0.263481 18.5759 0.0366949 -1.23309 16.7621 0.0585409 -1.11548 17.0235 0.0551821 
-0.934639 16.9152 0.0544558 3.71369 30.2016 -0.0516649 3.83575 30.7067 -0.055491 
4.01906 30.8214 -0.058041 -1.19305 23.4993 0.0360093 -1.28427 21.9151 0.0360935 
0.676825 23.2521 0.0214758 0.587868 23.4565 0.0228071 0.446634 20.6312 0.0241543 
0.376207 20.9009 0.0225008 0.501069 21.2631 0.0223531 -1.1719 25.7654 0.0279578 
-1.44904 26.4302 0.0275979 4.50453 30.2851 -0.0606302 4.4815 29.8531 -0.0581796 
4.31302 29.563 -0.054898 4.34693 30.4319 -0.0596679 -2.63268 14.1627 0.0942919 
-2.43035 14.0083 0.0924786 -2.76129 13.7827 0.0925493 -0.341143 24.135 0.032002 
-2.00529 18.7274 0.0485212 -1.85569 19.2898 0.0455109 4.23127 31.0791 -0.0616255 
-1.73184 19.9965 0.0434466 -1.69908 20.6203 0.0426038 0.588083 21.9184 0.022328 
0.547943 22.1301 0.0242689 0.673168 22.5459 0.0229053 -2.09484 14.3133 0.0888214 
-1.9818 14.6349 0.0859087 -1.77272 14.4543 0.0830924 -1.06983 21.8425 0.0338543 
-1.45275 27.3366 0.0238568 0.566816 23.8672 0.0222773 -1.72412 19.5964 0.0428621 
-2.01303 29.4256 0.0219307 -1.92071 28.9136 0.0227104 -1.43376 20.8374 0.0377848 
-1.34381 16.4689 0.0618228 -1.15691 16.3445 0.0611677 -1.46197 16.1939 0.0655541 
0.980507 1.53888 0.170879 0.866705 1.4717 0.166483 1.01926 1.85191 0.160716 
1.22815 1.97511 0.16552 -3.33881 13.9607 0.0851937 -1.7222 28.3843 0.0225059 
-3.19306 13.7566 0.0890019 -2.08978 18.4311 0.0501789 -1.57233 15.0925 0.0763658 
-1.67411 15.588 0.0741546 -1.57282 15.8798 0.0695627 2.36767 29.1941 -0.0316487 
2.54749 29.2348 -0.0339328 1.25908 29.0128 -0.0170628 1.45359 29.045 -0.0197263 
0.877319 28.9742 -0.011936 1.06871 29.0055 -0.0146019 1.12783 28.5136 -0.0127903 
0.484086 28.9014 -0.0064471 0.681357 28.9322 -0.00914966 0.742395 28.4621 -0.00747974 
0.111478 28.844 -0.00129206 0.293817 28.8614 -0.00373554 0.356288 28.3792 -0.00199003 
-0.256025 28.8347 0.00345726 -0.0612974 28.8744 0.00078401 -0.00700946 28.3704 0.00273426 
-0.659083 28.5656 0.00968918 -0.473753 28.5776 0.00743446 -0.397949 28.1444 0.0087395 
-1.02828 28.8317 0.0127564 -0.845918 28.7835 0.01084 -0.801592 28.111 0.0135751 
-1.38461 28.9544 0.0163988 -1.22454 28.8841 0.0148296 -1.18286 28.3852 0.0165616 
0.774288 23.0137 0.0189728 0.845143 23.4995 0.0162138 0.83962 22.7846 0.0177704 
-2.94406 13.4176 0.0919174 -0.890496 25.2213 0.0282772 -0.903956 26.4662 0.0224006 
2.67772 7.76279 0.0970675 2.63568 7.31642 0.100791 2.5912 6.8615 0.104884 
2.54253 6.45181 0.108604 2.44116 6.98641 0.103932 2.80197 9.5522 0.0830688 
2.77736 9.1159 0.0863415 2.83494 10.4438 0.076674 2.81448 9.99357 0.079858 
2.62432 9.71432 0.0824745 2.8765 11.3779 0.0701103 2.85649 10.9191 0.0732754 
2.65727 10.6353 0.0759656 2.91229 12.3154 0.0636707 2.89733 11.8491 0.0668344 
2.69843 11.5854 0.069387 2.94396 13.2219 0.0575508 2.93004 12.7569 0.0606578 
2.73596 12.5007 0.0631498 2.97677 14.1283 0.0514544 2.96349 13.6868 0.054392 
2.77243 13.409 0.0570393 3.00023 15.0301 0.0454316 2.98567 14.5774 0.0484504 
2.80014 14.3242 0.0509422 3.03404 15.9348 0.0393284 3.01547 15.4754 0.0424177 
2.82358 15.2194 0.0449964 3.08511 16.8489 0.0330572 3.06033 16.3897 0.0361913 
2.86448 16.12 0.0389199 3.13083 17.8189 0.0263956 3.1088 17.3374 0.0297006 
2.9139 17.0634 0.0325012 3.18622 18.72 0.0201119 3.15912 18.2865 0.0231374 
2.96579 18.0192 0.0259587 3.24529 19.6231 0.0137783 3.21165 19.1555 0.0170633 
3.01985 18.9218 0.0197328 3.3136 20.5515 0.00722477 3.2806 20.0939 0.0104372 
3.08103 19.8274 0.0134488 3.39103 21.4977 0.000520241 3.35084 21.0093 0.00397322 
3.15454 20.7552 0.00695828 3.47239 22.4361 -0.00611488 3.43458 21.9881 -0.00296655 
3.2364 21.7023 0.000303846 3.5544 23.3245 -0.0123517 3.51471 22.8801 -0.00925318 
3.32356 22.6353 -0.00620889 3.63981 24.2501 -0.0187285 3.59447 23.7783 -0.0154786 
3.40693 23.5317 -0.0123907 3.73576 25.1964 -0.0252147 3.68543 24.7266 -0.0219873 
3.49335 24.4604 -0.0186939 3.83935 26.156 -0.0317164 3.78959 25.6828 -0.0285284 
3.59303 25.4217 -0.0251843 3.94203 27.0472 -0.0376923 3.89268 26.6045 -0.0347496 
3.69986 26.3553 -0.0314701 4.04159 27.9428 -0.0435602 3.99723 27.4932 -0.0406905 
3.80783 27.2487 -0.0374424 4.11721 28.8497 -0.0491376 4.08118 28.3934 -0.0463651 
3.90197 28.1446 -0.0431884 -1.28211 27.7171 0.0205175 -1.54805 28.0562 0.0219181 
4.14976 30.5847 -0.0582985 -0.635238 17.0873 0.0509283 -0.527006 17.3653 0.0477377 
-2.01639 7.25009 0.115196 -2.08969 8.0113 0.11111 0.279113 19.5723 0.0300175 
0.401413 19.943 0.0277003 -1.28966 20.4582 0.0342109 -2.99081 15.8751 -0.0427891 
-1.16991 2.3929 0.1492 -1.3874 2.93628 0.143956 -1.02368 2.32238 0.151219 
-1.5384 3.39395 0.140134 -1.6917 3.9969 0.135427 -1.34425 3.19888 0.143063 
-0.347131 2.27526 0.15139 -0.42292 2.27889 0.15234 -0.506258 2.32058 0.152788 
-0.590123 2.32749 0.153286 -0.531541 2.69158 0.148896 -0.669115 2.31549 0.153628 
-0.747582 2.29187 0.153856 -0.716932 2.72541 0.149433 -0.193533 2.30725 0.148934 
-0.27043 2.29505 0.150102 -0.351915 2.66708 0.147433 -0.0449116 2.37105 0.146655 
-0.123465 2.35866 0.147673 -0.184601 2.73816 0.144968 0.113954 2.40674 0.145186 
0.0357706 2.38711 0.145885 -0.010774 2.80606 0.142835 0.274999 2.44767 0.144648 
0.195356 2.43213 0.144756 0.174121 2.84854 0.141432 0.444694 2.47721 0.145138 
0.360531 2.46952 0.144628 0.364131 2.89804 0.140766 0.60737 2.48184 0.146381 
0.527008 2.48221 0.14558 0.555797 2.92813 0.141005 0.783146 2.45505 0.147954 
0.693071 2.46193 0.147248 0.748856 2.91692 0.141921 0.958856 2.40045 0.149848 
0.870878 2.41726 0.149094 0.949537 2.86406 0.143515 1.12042 2.32896 0.152629 
1.04297 2.35976 0.151176 1.14977 2.79231 0.145635 1.64572 29.0765 -0.0222964 
1.81982 29.0994 -0.02455 1.50835 28.5551 -0.0178805 2.00206 29.1183 -0.0268839 
2.18602 29.1541 -0.0292669 2.24106 28.669 -0.0275306 1.88011 28.6081 -0.0227874 
-0.148359 24.5386 0.0282824 -0.405166 24.6287 0.0298429 0.753708 24.3472 0.0152914 
0.579597 24.4781 0.0177153 2.49558 6.04251 0.112709 2.43899 5.62906 0.11691 
2.3496 6.11706 0.111795 2.75125 8.6623 0.0898059 2.71659 8.2178 0.0932984 
2.52328 7.90154 0.0962528 2.58703 8.81491 0.0890947 0.321776 24.5039 0.0224413 
0.0976017 24.5294 0.0260255 0.024957 25.0084 0.022778 -0.98479 23.8856 0.0343985 
-0.878597 24.4009 0.031927 -0.605506 25.0975 0.0271241 -2.58671 11.722 0.0946924 
-2.65287 12.4424 0.0931512 -0.861394 16.5209 0.0571355 -0.750173 16.802 0.0537503 
-0.566132 16.7082 0.0532723 -0.995129 22.0728 0.0335577 -0.415507 17.6514 0.0451185 
-0.309339 17.939 0.0421977 -0.346222 17.2921 0.0475627 -2.7309 13.1787 0.0928736 
1.58849 2.79709 0.152488 1.40637 2.36702 0.159241 1.23915 2.18689 0.158701 
1.03016 23.7686 0.0111283 0.921348 24.0306 0.0125349 0.950987 24.6132 0.00966669 
0.533692 20.3224 0.0254055 0.653506 20.6882 0.0236083 0.613203 19.9852 0.0271558 
-1.92809 6.49965 0.119776 -1.71584 6.81349 0.118191 -1.85342 5.7989 0.12403 
-1.45051 14.5794 0.0779883 -1.35619 14.9068 0.0744037 0.709085 21.3955 0.0209756 
0.643718 21.6624 0.0211733 0.77907 22.0682 0.0193769 -2.32887 13.5662 0.091191 
-2.21356 14.0374 0.0904935 -1.99711 13.8709 0.0878224 -2.47349 12.7783 0.0923862 
4.15719 29.2856 -0.0518105 3.98084 29.0307 -0.0486259 4.17635 29.7444 -0.0543618 
-1.87549 8.36621 0.109077 -2.17662 8.80981 0.106836 3.12746 29.4401 -0.0414967 
3.33821 29.5291 -0.0442369 0.14695 19.212 0.0323407 0.351371 19.2344 0.0320221 
0.0323449 18.8626 0.0349459 -2.26196 9.56806 0.103316 2.73631 29.2964 -0.0364172 
2.93014 29.3652 -0.0389253 2.99237 28.9086 -0.0373642 2.60871 28.7717 -0.0323539 
-0.614815 26.9145 0.0173837 -0.904288 27.4366 0.0178939 -1.37043 15.735 0.0684604 
3.55054 29.5901 -0.0468599 3.77414 29.7157 -0.0498997 3.39998 29.0445 -0.0425012 
-2.371 10.3461 0.0997133 -2.46122 11.072 0.0971246 -2.05739 9.94878 0.101091 
-1.69785 4.48498 0.13283 -1.77162 5.08578 0.128747 -1.56675 5.34853 0.127679 
-1.65884 13.9069 0.0838641 -1.55241 14.217 0.0810042 -1.34182 14.0415 0.0794295 
0.524922 24.9698 0.0160302 2.27263 5.35149 0.119546 2.40974 5.27862 0.120925 
2.31744 4.85086 0.125796 -1.55285 28.768 0.0191143 -0.802019 2.20184 0.154148 
-0.902453 2.22181 0.153214 -1.06648 2.64013 0.149033 -0.876313 2.62652 0.150366 
-0.972772 16.2288 0.0602132 -0.78552 16.1214 0.0595154 -1.0747 15.9312 0.0636812 
-2.27951 11.3855 0.0954025 1.1782 2.23268 0.155527 1.90049 3.6757 0.139909 
1.74816 3.26388 0.145531 1.55687 3.03887 0.14665 2.21925 4.49371 0.130182 
2.08424 4.07128 0.135432 1.87341 3.89204 0.136263 2.14709 4.64126 0.127617 
-0.199628 18.2417 0.0397774 -0.0905437 18.5399 0.0373072 0.0984942 18.5367 0.0369822 
-0.13045 17.8958 0.0422355 1.32343 2.6642 0.149756 4.1355 30.1748 -0.0560939 
0.981647 27.9421 -0.00778616 1.17059 27.9521 -0.0104109 -0.177482 27.8345 0.00767847 
-0.00444324 27.8014 0.00577422 0.911568 22.5073 0.0163808 1.0264 22.9663 0.0141859 
0.97972 22.2351 0.0162598 0.679846 25.5821 0.00950717 0.424745 25.6256 0.0129836 
2.28047 7.07865 0.103275 2.23623 6.61909 0.107194 0.140089 25.5504 0.017454 
-0.0961519 25.5573 0.0204874 2.44606 10.8159 0.0755172 2.42545 10.3366 0.0788062 
2.42147 9.86493 0.0820754 2.40991 9.4193 0.0852464 2.21255 10.0454 0.0815758 
2.55204 12.6845 0.0627096 2.53489 12.2408 0.0656853 2.59372 13.6086 0.056524 
2.57473 13.1421 0.0596162 2.37309 12.8837 0.0621902 2.60667 14.5148 0.0505904 
2.59834 14.0646 0.0535248 2.39959 13.7987 0.0561582 2.63189 15.4004 0.0447342 
2.61716 14.9546 0.0476761 2.41392 14.6955 0.0503219 2.6746 16.3079 0.0386399 
2.64871 15.8528 0.0417095 2.44049 15.5883 0.0444536 2.72637 17.2809 0.0320679 
2.70286 16.7926 0.035347 2.48494 16.5255 0.0382018 2.79604 18.2269 0.0255486 
2.76768 17.7597 0.0287331 2.55434 17.4889 0.0316523 2.8517 19.1095 0.0195078 
2.82588 18.6746 0.0224685 2.62575 18.4151 0.025307 2.91634 20.0404 0.0131137 
2.88027 19.5704 0.0163497 2.68464 19.3232 0.0191603 2.98458 20.9468 0.00689309 
2.94632 20.49 0.0100376 2.7443 20.2331 0.0130249 3.07556 21.9249 0.00011014 
3.03077 21.4359 0.00347933 2.82199 21.1707 0.00661903 3.16119 22.8197 -0.00606543 
3.11783 22.3772 -0.00301703 2.9124 22.1105 0.000186939 3.24343 23.7442 -0.0122906 
3.2025 23.292 -0.00924837 2.99769 23.0333 -0.00600898 3.33576 24.6793 -0.0185475 
3.28973 24.2045 -0.0153833 3.08663 23.9638 -0.0121989 3.44232 25.6627 -0.0251137 
3.38867 25.1778 -0.0218683 3.18644 24.9205 -0.0185349 3.55773 26.5971 -0.0313869 
3.50494 26.1497 -0.0284162 3.30159 25.9043 -0.0250818 3.67411 27.5004 -0.0374253 
3.61961 27.0552 -0.0344958 3.42512 26.8483 -0.0314117 3.78318 28.3758 -0.0431589 
3.74424 27.9257 -0.0404054 3.55602 27.7311 -0.0374241 -1.52999 7.93137 0.111327 
-1.60242 8.73314 0.106898 -1.08808 27.6604 0.0187325 1.46816 3.12437 0.143853 
2.49344 11.7881 0.0688404 2.47347 11.3138 0.0720426 2.24225 11.0185 0.0749436 
2.30974 11.9717 0.0683933 -0.535158 3.05398 0.145112 -0.638139 3.09989 0.14534 
-1.1885 3.07463 0.145158 -1.31194 3.52545 0.141231 -1.05494 2.9682 0.146786 
-0.182784 3.24469 0.140593 -0.274883 3.19281 0.141874 -1.27627 15.2786 0.070985 
-1.17154 15.5936 0.0671652 -0.988232 15.4865 0.0661228 -1.16154 14.7755 0.0730261 
-0.350929 3.04244 0.143765 -0.448691 3.0241 0.144757 -0.540812 3.43517 0.141653 
-0.780531 3.3066 0.143866 -0.885774 3.29919 0.144304 -0.78203 3.67638 0.140563 
-1.71015 9.57017 0.102587 -1.80695 10.3529 0.0990632 -1.36577 9.13892 0.103883 
0.0226224 3.30266 0.138613 -0.0823708 3.28653 0.139604 -0.165308 3.74892 0.136441 
0.240463 3.35659 0.137095 0.135595 3.32952 0.137867 0.0716928 3.81756 0.134411 
0.463066 3.41569 0.136353 0.353326 3.39081 0.136631 0.321116 3.88008 0.132654 
0.681407 3.43126 0.136462 0.575665 3.42269 0.136267 0.570168 3.92393 0.131883 
0.904795 3.40552 0.137135 0.792918 3.42083 0.136554 0.817569 3.92387 0.131733 
1.14728 3.35252 0.138384 1.03037 3.38362 0.137733 1.07913 3.89591 0.13221 
1.37379 3.25498 0.140921 1.26072 3.28683 0.139858 1.34688 3.81486 0.133763 
-0.419077 25.4789 0.0235246 1.36389 28.0119 -0.0132063 1.55361 28.046 -0.0158613 
1.21939 27.4395 -0.00830439 2.19347 6.13279 0.111565 2.1451 5.71938 0.115513 
2.04173 6.22679 0.110745 0.605977 27.983 -0.00306073 0.801429 28.0265 -0.00589025 
0.847209 27.4596 -0.00345784 0.218863 27.8151 0.00286737 0.409376 27.8554 0.000228618 
0.470134 27.4139 0.00186062 0.0487966 27.2714 0.00800842 -1.94778 11.1693 0.0958524 
-2.06281 11.8269 0.0937978 -0.486574 16.307 0.0558575 -0.378027 16.6037 0.0527615 
-0.261699 16.8997 0.0501368 -0.155586 17.1996 0.0472335 -0.183577 16.5092 0.0524816 
1.58621 3.62603 0.137457 -0.298965 25.9988 0.0192553 1.14781 23.4869 0.0100472 
1.23996 24.004 0.00724636 2.11492 28.0968 -0.0232135 2.29353 28.1383 -0.0255509 
1.23824 23.1923 0.0100926 0.710556 19.6217 0.0288324 0.838152 20.0073 0.0262581 
0.305437 26.1507 0.0115429 2.32492 7.57099 0.099176 2.12701 7.20864 0.102471 
2.36313 8.0305 0.0955653 -1.18902 13.4511 0.0810035 -1.08843 13.8147 0.077993 
-1.59902 10.789 0.0960303 -0.395437 26.5922 0.0170836 -0.0784659 26.6779 0.0129452 
-0.858905 13.7237 0.0763556 -1.00695 14.3028 0.0743393 -0.928551 14.6748 0.0711586 
2.20815 9.11709 0.0880026 2.40772 8.96662 0.0884696 2.38252 8.50851 0.0918868 
3.77655 28.8504 -0.0455368 3.61873 28.6306 -0.0427344 -1.46227 7.11654 0.116123 
-1.21074 7.489 0.113371 -1.39212 6.3657 0.120978 -0.364679 3.55542 0.139396 
2.86065 28.3521 -0.0331424 3.05569 28.4269 -0.0356364 1.94707 5.20599 0.12034 
2.09325 5.18808 0.120917 2.05848 4.83267 0.124774 -1.91885 13.3032 0.08841 
-1.80168 13.5756 0.0864627 -1.58464 13.3474 0.085195 3.81579 29.2861 -0.0481843 
-1.4912 4.14458 0.136018 0.437734 18.8583 0.0343182 0.567996 19.2306 0.0316262 
0.796024 19.243 0.0307004 0.874463 20.7601 0.0223666 0.787601 21.0777 0.0215409 
0.920298 21.4787 0.0192354 -2.25213 12.3772 0.0927866 -2.32045 13.1187 0.091669 
2.48302 28.2068 -0.0281365 2.66909 28.269 -0.0305472 2.73331 27.7889 -0.0289061 
2.35541 27.6369 -0.0238218 3.24243 28.5117 -0.0381155 3.4529 28.5724 -0.040672 
3.46032 28.0987 -0.038336 3.1093 27.9563 -0.0338557 3.97938 29.8967 -0.0530224 
-1.28314 4.93494 0.130838 -1.34211 5.64676 0.125623 -1.11752 5.95676 0.123493 
1.2128 24.8407 0.00434277 1.04611 25.1704 0.00576632 1.75188 28.0677 -0.0184785 
1.93116 28.089 -0.0208827 1.98607 27.5586 -0.0190221 1.60794 27.5255 -0.0139568 
-0.597609 16.0009 0.058842 -0.406841 15.8974 0.0582242 -0.702687 15.7007 0.0619095 
0.0370955 17.1347 0.047018 -0.0473831 17.5177 0.0446781 0.0583659 17.8358 0.0419729 
0.921579 25.5986 0.00538617 1.19712 25.8122 0.000230392 -1.32562 4.01621 0.137694 
-1.91541 12.1561 0.0917356 -1.05357 3.64524 0.141215 -1.19871 4.2561 0.135935 
-1.01427 4.56224 0.133598 1.34443 22.8528 0.00975607 1.47392 23.371 0.00640423 
-0.396407 27.5761 0.011638 1.45776 27.0034 -0.00931282 1.65236 27.0291 -0.0121376 
0.428362 26.755 0.00618556 0.147332 26.6901 0.0103017 -0.976455 3.05482 0.146221 
-1.33322 12.9994 0.084405 -1.0819 12.7806 0.0834701 -1.47265 12.6662 0.0871233 
1.47903 24.261 0.00269925 1.35066 24.5583 0.00321366 1.45661 25.1004 -0.000626274 
2.1863 13.9587 0.0561361 2.18238 13.5014 0.0590525 2.20827 13.0818 0.0616445 
2.18614 12.6227 0.0646956 1.99477 13.2424 0.0615982 2.23436 15.7912 0.0441905 
2.21801 15.3384 0.0471496 2.29128 16.7402 0.0378433 2.26325 16.2556 0.0410757 
2.03875 16.0068 0.0438279 2.37459 17.6996 0.0313059 2.33319 17.2211 0.0345594 
2.10912 16.9518 0.037488 2.43768 18.6264 0.0250689 2.40739 18.1792 0.0280656 
2.18383 17.9118 0.0310459 2.49141 19.5261 0.0190833 2.46191 19.0659 0.022147 
2.24162 18.8303 0.0249697 2.55604 20.439 0.0129874 2.52466 19.9903 0.0159684 
2.30031 19.7331 0.0190335 2.62894 21.374 0.00679152 2.58072 20.8865 0.0100755 
2.36038 20.6437 0.0131061 2.73772 22.3056 0.000394701 2.69365 21.855 0.00339861 
2.45279 21.5704 0.00689081 2.82782 23.2487 -0.00587052 2.78491 22.7785 -0.00278125 
2.56752 22.5222 0.000459676 2.90899 24.1741 -0.0118222 2.86181 23.716 -0.00880773 
2.65104 23.4598 -0.00552076 3.01756 25.1938 -0.0184438 2.96473 24.6974 -0.0152085 
2.74226 24.4474 -0.0117801 3.15445 26.1949 -0.0251838 3.09275 25.7092 -0.0219785 
2.87264 25.4836 -0.0185589 3.29479 27.1818 -0.0318466 3.23415 26.7244 -0.0288036 
3.02575 26.5272 -0.0256407 3.39124 27.6735 -0.0354041 -0.164698 4.28443 0.132224 
-0.28699 4.2433 0.13333 -0.444873 4.06162 0.135565 -0.537986 3.90999 0.137314 
-0.466022 4.60326 0.131417 0.119913 4.29218 0.130444 -0.0156106 4.26519 0.131564 
-0.131415 4.76399 0.128397 -0.896247 15.0803 0.0682059 -0.803693 15.4211 0.0647961 
-0.614759 15.3041 0.0640364 -0.74624 14.617 0.0697758 1.06727 21.9231 0.0164081 
1.19657 22.3639 0.0134501 1.14973 21.5971 0.016874 -1.21021 10.3934 0.0965995 
-1.33849 11.2038 0.0929967 -0.977745 8.72051 0.104995 -1.06894 9.55257 0.100485 
0.392216 4.49124 0.127583 0.255765 4.45509 0.128611 0.170012 4.90787 0.125447 
0.686151 4.52955 0.126526 0.550036 4.51962 0.127112 0.486279 5.10142 0.122511 
0.966543 4.48483 0.126708 0.832105 4.49134 0.126616 0.814943 5.09383 0.121686 
1.26262 4.42082 0.12718 1.11133 4.43657 0.127033 1.12873 5.01019 0.121822 
1.55185 4.28644 0.12911 1.41146 4.34518 0.128259 1.44564 4.88996 0.122871 
1.08009 20.0446 0.0248765 0.983909 20.4126 0.0234704 1.11062 20.8051 0.020826 
-0.0929755 16.0746 0.054987 0.0197734 16.3814 0.0521745 1.87795 6.31528 0.110061 
1.83613 5.8267 0.114369 1.82347 26.846 -0.0134464 2.00262 26.857 -0.0157063 
1.67296 26.3273 -0.00906166 1.80459 4.08797 0.132762 1.67925 4.21084 0.130678 
2.20538 14.8728 0.0502061 2.19551 14.4323 0.0530436 1.9979 15.0767 0.0499397 
1.96753 10.1899 0.0815122 1.9651 9.7145 0.0847305 0.180994 18.1717 0.0394635 
0.302131 18.5097 0.0369087 0.520709 18.4952 0.0362487 0.264818 17.8 0.0417071 
1.74407 4.74366 0.124737 0.624254 26.8889 0.0027572 1.44193 22.5322 0.010221 
-1.08952 11.5676 0.0896877 -1.47793 11.9667 0.090264 1.80033 5.27698 0.119497 
2.18878 8.18245 0.0948549 1.59409 23.9123 0.00259529 1.71482 24.4603 -0.000999121 
1.71238 23.5629 0.0028963 0.805658 26.806 0.000614149 1.97697 14.1369 0.0559988 
1.95053 7.35527 0.101591 1.90838 6.86026 0.105562 1.71293 6.46505 0.109034 
-2.10867 13.1513 0.0902841 -0.791724 4.15513 0.13643 -0.843304 4.82766 0.130936 
-0.631272 13.2009 0.0774828 -0.551236 13.6912 0.0739189 1.97536 9.20666 0.088145 
1.97446 8.75004 0.0913589 1.73443 9.35327 0.0880248 1.94952 12.4058 0.0671663 
2.11433 12.2064 0.0677053 2.07368 11.752 0.0707963 3.19971 27.5482 -0.0327253 
-0.886903 7.0034 0.115535 -0.933195 7.81522 0.11026 -0.654313 8.23873 0.106381 
-1.91313 12.8639 0.0895851 2.22963 27.0285 -0.0193433 2.41555 27.0978 -0.0218451 
2.06324 26.3209 -0.01393 0.238003 16.2976 0.0516894 0.147975 16.7252 0.0492774 
0.253163 17.0546 0.0464707 -1.73101 12.3094 0.0903136 -0.820287 9.97644 0.0969169 
1.18776 19.644 0.0264773 1.32776 20.0524 0.0234078 -0.227133 15.7901 0.0577761 
-0.0216339 15.6594 0.0573382 -0.334347 15.4753 0.0606031 1.65111 5.3688 0.118537 
1.04987 26.8102 -0.00274074 1.24062 26.875 -0.00586631 1.28937 26.3759 -0.00391297 
1.03682 19.2167 0.0297563 1.28816 19.2192 0.028356 0.898322 18.8201 0.0327209 
-0.865481 5.52135 0.125854 -0.891233 6.23756 0.120695 -0.647762 5.11171 0.128226 
1.99188 10.732 0.07781 1.7457 10.4067 0.0809799 2.01793 11.2326 0.0744411 
3.01462 27.4642 -0.0303455 -0.741018 12.5743 0.0818459 -0.436249 12.5527 0.0797942 
-0.881406 12.117 0.0854719 1.53282 22.1556 0.0110965 1.67966 22.6465 0.00745299 
1.88645 17.2119 0.0370657 1.8444 16.7318 0.0402936 1.8151 16.249 0.04347 
1.78645 15.785 0.0465142 1.58984 16.5117 0.0430471 1.99008 19.0335 0.0252563 
1.96472 18.5951 0.0280886 2.1076 20.8431 0.0136679 2.07988 20.3974 0.0164854 
2.41356 22.7021 0.000734178 2.36387 22.2315 0.00373831 2.4075 23.6282 -0.00435655 
2.37117 23.1643 -0.00146962 2.17013 22.8724 0.0018875 2.56167 24.7357 -0.0115498 
2.50581 24.2153 -0.00827685 2.23083 23.9156 -0.00422188 2.72586 25.8124 -0.0188355 
2.65233 25.2985 -0.015429 2.4185 25.0624 -0.0116972 2.9021 26.916 -0.0263211 
2.82467 26.3869 -0.0228181 2.6046 26.1989 -0.0194816 2.81241 27.3223 -0.0274126 
-0.462897 5.29221 0.126043 2.0174 8.33375 0.0941678 1.99962 7.85223 0.0977284 
1.78632 7.50889 0.100857 1.78947 8.42453 0.0942442 0.565879 5.83505 0.116853 
0.384218 5.80567 0.117862 2.62337 27.2396 -0.0249648 1.63177 20.1224 0.0210735 
1.52518 20.5252 0.0195602 1.48017 5.43951 0.117868 0.832476 26.2324 0.00356823 
2.49418 26.6336 -0.0204769 1.49931 6.05523 0.112787 1.31049 5.57961 0.116851 
1.14392 5.62399 0.116739 1.71732 25.4786 -0.00561097 1.57512 25.7716 -0.00515176 
1.26296 21.2319 0.0177724 1.40307 21.6791 0.0145283 1.64962 21.7865 0.0119112 
1.37287 20.88 0.0186687 1.7588 15.2662 0.0499723 1.74693 14.8004 0.0529475 
1.53337 15.5114 0.0496002 0.962051 5.75946 0.116148 0.792875 5.79568 0.11635 
0.691359 6.50233 0.111746 -0.641193 3.9431 0.137552 2.01079 18.1464 0.0305764 
1.97758 17.6675 0.0337323 1.71063 17.4481 0.036622 1.75595 18.3515 0.0308135 
1.73624 13.2215 0.0629782 1.76307 12.8001 0.0655071 1.82081 25.0369 -0.00513046 
1.94793 25.7016 -0.00959466 2.17052 25.8729 -0.0131468 1.94373 24.6797 -0.00488649 
-0.0310367 5.42458 0.122844 -0.204159 5.44583 0.123653 -0.750522 11.3674 0.0886815 
0.742277 18.4133 0.0358911 0.985325 18.3802 0.0349091 0.60901 18.0563 0.0386291 
1.42647 18.7944 0.0300444 1.57243 19.2252 0.0266744 1.48395 9.40932 0.0886361 
1.49621 8.89789 0.0919793 -0.310516 13.8257 0.0712357 -0.534213 14.3353 0.0698585 
1.69194 12.3842 0.0684723 1.40785 25.9482 -0.00367762 2.12509 19.952 0.0188387 
2.09012 19.4889 0.0218541 2.26973 21.7976 0.00699084 2.2019 21.3188 0.0102379 
2.39897 26.0586 -0.0165767 -0.638681 6.5699 0.117574 -0.284542 7.72915 0.107952 
-0.306371 8.62918 0.102163 -0.375972 5.95586 0.120817 1.9671 4.47563 0.128666 
0.354147 15.8214 0.0540839 0.480139 16.1751 0.0511884 0.337092 17.4305 0.0437509 
0.457644 17.7771 0.0409762 0.680992 17.688 0.0406262 0.447366 17.0274 0.0458953 
1.52499 6.6014 0.108284 -0.398107 9.72806 0.0961233 -0.524984 10.5559 0.0918445 
1.47705 10.0619 0.084335 1.24215 9.61322 0.0883066 1.49883 10.6061 0.0807386 
0.121045 5.58835 0.120667 0.172306 6.32483 0.114883 1.49519 14.4725 0.0563157 
1.73515 14.2796 0.0563118 1.72687 13.8053 0.0593151 0.051152 15.0922 0.060584 
0.182909 15.3859 0.0579331 0.42621 15.2587 0.0573516 1.81157 19.2537 0.0250204 
1.82333 11.4698 0.0737538 -0.0205506 9.22497 0.0969731 -0.322309 11.1175 0.0874404 
1.49437 13.3672 0.0632549 2.11513 21.9785 0.00712148 1.92237 21.0715 0.0136872 
1.12598 6.32875 0.111413 1.34533 6.93063 0.106311 1.14201 7.06369 0.105974 
1.55024 7.33608 0.102744 1.22413 18.3106 0.0340718 1.51037 18.3126 0.0324696 
1.55783 17.8645 0.0348968 1.07192 17.8991 0.0373472 1.30779 8.31233 0.0967222 
1.5506 8.2543 0.0962295 1.8568 23.1787 0.00308912 1.98088 23.7213 -0.000694014 
1.95498 22.7973 0.00407315 1.32321 15.8155 0.048812 1.29605 15.2981 0.0521324 
1.86816 20.1533 0.0193545 1.59861 11.7872 0.0727323 1.54467 11.2675 0.0762735 
1.2762 10.9294 0.0797101 1.4121 12.1867 0.0710983 2.2779 25.4419 -0.0122493 
-0.348197 6.71908 0.115026 -0.0251642 7.1189 0.110626 -0.50231 14.7394 0.0668845 
-0.404976 15.0263 0.064215 -0.201895 11.9488 0.0817651 -0.0934635 12.5817 0.0772354 
1.18621 14.7646 0.0561222 1.17556 14.2444 0.0594205 0.974529 15.0751 0.0553658 
0.0159792 11.1556 0.0850677 0.276512 10.6314 0.0867005 0.400091 11.4699 0.0809764 
1.676 19.6784 0.0233445 0.23423 12.7341 0.0742336 0.00299689 13.3213 0.0721352 
0.01995 13.9648 0.0680336 1.67122 20.9546 0.0161853 1.24353 13.6606 0.0627079 
1.25428 13.0755 0.0662897 0.934138 13.9601 0.0625039 2.07865 24.3048 -0.00447897 
2.19041 24.8803 -0.00844765 0.870608 7.17326 0.106227 0.620098 7.21212 0.106984 
1.77063 21.4273 0.0129003 1.07727 7.77075 0.10135 0.908965 12.8356 0.0696691 
1.15976 12.5343 0.0702006 -3.12224 15.8889 -0.0456915 0.736933 11.6281 0.0780473 
0.476923 12.1367 0.0764482 0.293418 14.1493 0.0650938 -0.0176044 14.6379 0.0640503 
1.46499 17.4112 0.0381931 -0.224285 14.9203 0.0635901 0.42934 8.00025 0.102593 
0.265019 7.33423 0.107709 0.938298 9.81584 0.0883656 0.950373 9.16 0.0925294 
1.89531 21.9073 0.00939755 0.597881 14.0069 0.0641711 0.561454 14.6767 0.0601916 
0.726486 8.62689 0.0969987 0.349346 8.748 0.0980797 1.01995 8.41919 0.0971397 
0.667578 13.4188 0.0673793 1.99257 22.3386 0.00621631 1.29957 16.8781 0.0423664 
1.26985 16.3976 0.0454595 1.03038 16.1882 0.0480435 1.14332 17.2972 0.0406486 
0.277138 9.83644 0.0915791 0.654968 10.1656 0.087539 0.786206 16.2327 0.0491111 
0.671702 16.7029 0.0467889 0.57419 12.8835 0.0712591 0.841086 15.6505 0.0524512 
0.902867 17.3722 0.0414272 0.946481 10.6081 0.083296 0.988311 11.2694 0.0789629 
0.753769 17.0873 0.04389 1.59269 7.83406 0.0990139 0.730616 15.1232 0.0563609 
1.06843 11.9402 0.0743612 -2.80914 31.5937 -0.109343 -0.658645 0.566808 -0.0559787 
-1.09756 1.2283 -0.0691275 -2.81613 31.2102 -0.107791 -2.82367 30.8267 -0.106239 
-2.83522 30.2935 -0.104071 -2.84733 29.7946 -0.102076 -2.86225 29.2307 -0.0997998 
-2.87853 28.6526 -0.097535 -2.89738 27.995 -0.0948604 -2.9151 27.3573 -0.0923537 
-2.93411 26.5933 -0.0891099 -2.94817 25.8983 -0.0862133 -3.24121 18.6218 -0.0578972 
-3.35027 17.9638 -0.0561189 -3.75457 16.078 -0.0517778 -3.87362 15.5699 -0.0520556 
-3.97256 15.1036 -0.0508297 -4.05436 14.6443 -0.0509345 -3.37696 5.79905 -0.0136716 
-3.22408 5.22975 -0.0132952 -3.02512 4.6152 -0.0124693 -2.83202 4.10227 -0.0128846 
-2.62401 3.62858 -0.0147704 -2.38008 3.13325 -0.0194922 -2.11376 2.67318 -0.0257326 
-1.82167 2.20951 -0.0326241 -1.48076 1.73527 -0.0452761 -3.62026 16.6593 -0.052978 
-4.14515 13.091 -0.0451532 -4.14195 13.5964 -0.0474355 -4.1021 11.8621 -0.0381318 
-4.12847 12.4535 -0.0414092 -3.52885 6.47512 -0.0155224 -3.48249 17.288 -0.0540996 
-2.95914 25.0605 -0.0828787 -2.96489 24.288 -0.0795156 -2.98418 21.7509 -0.0690349 
-3.01397 20.9255 -0.0657393 -3.06752 20.1145 -0.0632484 -3.1401 19.3726 -0.0608206 
-4.11408 14.1181 -0.0503144 -2.97174 22.5217 -0.0714853 -4.05866 11.1092 -0.0341813 
-4.00596 10.3351 -0.0300997 -3.94765 9.60698 -0.0268288 -3.86984 8.78895 -0.0231027 
-3.77235 7.96095 -0.0201432 -3.66065 7.20026 -0.0172401 -2.9668 23.432 -0.0757649 
0.663204 0.568456 0.0638016 5.49473 32.7713 -0.217415 5.46219 32.4046 -0.215191 
1.08558 1.19339 0.101286 1.42247 1.65348 0.0835329 1.77473 2.13749 0.0672716 
2.01311 2.50684 0.0571248 2.27192 2.94118 0.0471105 2.44812 3.2711 0.0391354 
2.64957 3.68824 0.0308589 2.80201 4.03875 0.0238177 2.96628 4.46196 0.0165471 
3.18998 5.1378 0.00574705 3.31182 5.57236 -0.000526235 3.39025 5.88736 -0.00492349 
3.47453 6.26309 -0.00983193 3.53525 6.56446 -0.0137111 3.60635 6.95756 -0.0184642 
3.66251 7.30669 -0.0226199 3.72731 7.76438 -0.0277631 3.80577 8.42507 -0.0349412 
3.8447 8.81189 -0.0389212 3.87409 9.13847 -0.0421928 3.90682 9.54475 -0.0461027 
3.93057 9.87454 -0.0492352 3.95811 10.3007 -0.0531443 3.97745 10.6338 -0.0561601 
4.00011 11.0641 -0.0599389 4.03264 11.7702 -0.0660451 4.05118 12.2226 -0.0698494 
4.06433 12.5634 -0.0727018 4.08051 13.0033 -0.0762872 4.09273 13.3468 -0.0790738 
4.10825 13.79 -0.0826047 4.12086 14.1525 -0.0854824 4.13779 14.632 -0.089246 
4.16398 15.3461 -0.0948148 4.1821 15.8129 -0.0984171 4.19782 16.1973 -0.101378 
4.21736 16.6495 -0.104831 4.23345 17.0018 -0.107521 4.25456 17.4387 -0.110833 
4.27259 17.792 -0.113508 4.29721 18.2466 -0.116946 4.34278 19.0219 -0.122797 
4.37055 19.4602 -0.126104 4.39753 19.8647 -0.129173 4.43168 20.3533 -0.132862 
4.52196 21.5476 -0.141805 4.56115 22.0343 -0.145438 4.62542 22.8049 -0.151131 
4.66552 23.273 -0.154581 4.69594 23.6236 -0.157135 4.7339 24.0571 -0.160289 
4.76473 24.4069 -0.162805 4.80593 24.8729 -0.166145 4.87948 25.7037 -0.172008 
4.83686 25.222 -0.168627 4.94385 26.4342 -0.177052 4.98166 26.8656 -0.179987 
5.08825 28.0937 -0.188176 5.12828 28.5587 -0.191207 5.18681 29.2401 -0.195597 
5.22539 29.6891 -0.198441 5.2569 30.0552 -0.200747 5.29427 30.4881 -0.203443 
5.32605 30.8545 -0.205716 5.36528 31.3045 -0.208484 5.39742 31.6712 -0.210718 
5.4327 32.0712 -0.213161 4.45621 20.69 -0.135388 4.49307 21.1779 -0.139051 
4.91467 26.1022 -0.174777 5.01204 27.2141 -0.182337 5.05669 27.7285 -0.185765 
3.08165 4.79267 0.0109207 3.76943 8.10164 -0.0314872 4.01621 11.4004 -0.0628649 
4.15095 14.9969 -0.0920846 4.32036 18.651 -0.119991 4.5916 22.4031 -0.148168 
5.15827 28.9076 -0.193465 5.38182 33.0894 -0.217733 -2.67068 31.9663 -0.112432 
-2.53485 31.9723 -0.114023 5.22187 33.0539 -0.215731 5.05395 33.0165 -0.213615 
4.77004 32.9527 -0.210031 4.58995 32.912 -0.207737 4.44173 32.8782 -0.205839 
4.25315 32.835 -0.203404 4.11649 32.8035 -0.201633 3.93924 32.7625 -0.199318 
3.6562 32.6968 -0.19558 3.46932 32.6535 -0.193088 3.32248 32.6194 -0.191127 
3.13405 32.576 -0.188593 2.99001 32.543 -0.186636 2.81215 32.5027 -0.184217 
2.6708 32.4712 -0.182254 2.50361 32.4344 -0.179953 2.19591 32.369 -0.175682 
2.00454 32.3302 -0.173023 1.86335 32.3025 -0.171039 1.67407 32.2671 -0.168421 
1.51399 32.2387 -0.166175 1.30525 32.2039 -0.16329 1.148 32.1796 -0.161127 
0.950769 32.1515 -0.158403 0.629785 32.1115 -0.154022 0.418584 32.0892 -0.151153 
0.273528 32.0758 -0.149156 0.0892875 32.0608 -0.146682 -0.0725037 32.0495 -0.144545 
-0.272676 32.0378 -0.141903 -0.445714 32.0294 -0.139715 -0.634714 32.0221 -0.13728 
-0.936483 32.0133 -0.133471 -1.12973 32.009 -0.131053 -1.27552 32.0062 -0.129272 
-1.46147 32.0028 -0.126959 -1.60905 32 -0.125171 -1.78814 31.9963 -0.122969 
-1.92568 31.9931 -0.121278 -2.09474 31.9884 -0.119218 -2.23503 31.9839 -0.117554 
-2.38699 31.9783 -0.115777 4.91402 32.9851 -0.211848 3.80195 32.7307 -0.197508 
2.36073 32.4037 -0.177972 0.796973 32.1313 -0.156301 -0.779751 32.0174 -0.135444 
-0.0195833 20.7362 -0.121144 -0.109205 20.5988 -0.126034 -0.211103 20.4427 -0.13218 
-0.313802 20.2864 -0.133217 -0.421342 20.115 -0.134403 -0.540658 19.9308 -0.133774 
-0.673221 19.7202 -0.132899 -0.811583 19.5074 -0.131517 -0.937626 19.3089 -0.129946 
-1.07807 19.0923 -0.127812 -1.22354 18.8642 -0.126041 -1.36297 18.6508 -0.123363 
-1.51398 18.4132 -0.120489 -1.67047 18.1736 -0.116756 -1.80895 17.9525 -0.113775 
-1.95368 17.7287 -0.109603 -2.10362 17.4879 -0.107119 -2.25535 17.2521 -0.103291 
-2.41551 16.9963 -0.101564 -2.56429 16.7655 -0.0973191 -2.70729 16.5356 -0.0936436 
-2.84943 16.3164 -0.0870311 -2.98671 16.0918 -0.0817286 -0.0207751 20.7388 -0.0401438 
-0.110795 20.598 -0.0382098 -0.316658 20.2767 -0.0315342 -0.218646 20.4294 -0.0338118 
-0.556371 19.8998 -0.0277013 -0.437563 20.0839 -0.0296245 -0.798842 19.5223 -0.0235313 
-0.6737 19.7135 -0.0264549 -1.07363 19.0968 -0.0220478 -0.927052 19.3195 -0.0237256 
-1.35923 18.6528 -0.0206866 -1.21152 18.8784 -0.0215303 -1.63932 18.2136 -0.0191377 
-1.49311 18.4391 -0.0200358 -1.94583 17.737 -0.0174132 -1.78685 17.9796 -0.0185202 
-2.26329 17.2386 -0.0179861 -2.09324 17.5018 -0.0167748 -2.55297 16.7766 -0.0192104 
-2.40321 17.0129 -0.016044 -2.84414 16.311 -0.0201507 -2.70704 16.5266 -0.0178592 
-2.98192 16.0817 -0.0147496 0.00288221 20.8858 -0.0801408 -0.086839 20.7538 -0.0844538 
-2.97463 16.3232 -0.0553769 -2.83359 16.5703 -0.0566276 -0.297121 20.4415 -0.0840976 
-0.180505 20.6109 -0.0837096 -0.534418 20.0951 -0.0822917 -0.405262 20.283 -0.0835798 
-0.794812 19.7149 -0.0787443 -0.669989 19.897 -0.0808498 -1.05744 19.3288 -0.0752973 
-0.923231 19.5261 -0.0765681 -1.34916 18.8957 -0.0726215 -1.20527 19.1099 -0.0731456 
-1.64194 18.4555 -0.0687862 -1.50279 18.6653 -0.070535 -1.79048 18.2279 -0.0668906 
-2.08781 17.7708 -0.0604234 -1.93403 18.0079 -0.0636558 -2.37954 17.3112 -0.0582428 
-2.23702 17.5377 -0.0600028 -2.69567 16.8005 -0.0584446 -2.53853 17.0555 -0.0578922 
-1.64633 18.2068 -0.0683437 -1.50782 18.4194 -0.0704015 -1.37361 18.6321 -0.0723434 
-1.2338 18.846 -0.0733549 4.46342 25.738 -0.168163 4.62061 25.9511 -0.170967 
4.50282 26.212 -0.171357 4.65987 26.4253 -0.174168 -1.81169 17.9457 -0.0652135 
-1.95574 17.7221 -0.0638128 -1.09556 19.0643 -0.0752462 -0.529382 19.9463 -0.0811574 
-0.662411 19.7357 -0.079322 -0.0160693 20.7329 -0.0819991 -0.305154 20.2994 -0.0827785 
-0.412723 20.128 -0.0818245 -0.953629 19.2813 -0.0761564 -0.836055 2.13327 -0.00443747 
-0.693283 1.80396 -0.00290878 -0.779552 1.82005 -0.00382964 -0.107801 20.6074 -0.0840252 
-0.208653 20.4503 -0.082266 -2.57199 16.7478 -0.0574073 -2.4208 16.9838 -0.0606067 
-2.71268 16.5204 -0.0560346 -2.10222 17.4881 -0.0616137 -2.25321 17.2535 -0.0606713 
-2.84933 16.3057 -0.0530783 -2.98696 16.0902 -0.0494358 -3.0613 18.4062 -0.0579792 
-2.71235 18.9068 -0.0612698 -3.21239 17.6785 -0.0554788 -2.85512 18.1871 -0.0581096 
-0.825513 19.484 -0.078752 -0.786049 19.5453 -0.0791206 1.4479 1.65301 0.0701455 
1.05953 1.11117 0.0872903 0.529072 0.481642 0.0379959 0.486204 0.402378 0.0366971 
0.966393 1.04238 0.0650976 -2.39386 17.0273 -0.0607714 -1.37674 18.641 -0.0711699 
2.16357 26.996 -0.151785 1.93262 27.1758 -0.150093 1.9981 26.2879 -0.146688 
1.77067 26.4642 -0.14501 -2.80524 19.8718 -0.0637729 -2.95831 19.0564 -0.060485 
-2.6182 19.5405 -0.0639682 -1.16933 17.4135 -0.0674623 -1.04832 17.6658 -0.0691459 
-0.987904 17.294 -0.0686989 -0.919858 17.9212 -0.0713083 -0.865601 17.559 -0.0706835 
-2.20115 13.18 -0.0441393 -2.41375 13.1435 -0.043032 -2.19285 12.7371 -0.0428042 
3.03474 32.2183 -0.185773 3.1994 32.17 -0.187593 3.10171 31.8124 -0.1848 
2.4198 20.8978 -0.119807 2.20614 20.6513 -0.11636 2.39411 20.4509 -0.116837 
2.18031 20.2047 -0.113378 -0.579532 2.22049 -0.00480242 -0.707872 2.61637 -0.00660007 
-0.621113 2.62776 -0.00717812 -0.972273 7.31633 -0.0278434 -0.696379 7.64955 -0.0309526 
-1.01742 8.13057 -0.0310575 1.23195 14.0268 -0.0710478 0.99088 13.7411 -0.0680766 
1.37991 13.5656 -0.0695106 1.13955 13.2764 -0.066629 1.92285 8.46556 -0.0432451 
2.1088 8.7928 -0.0450579 1.87776 8.88318 -0.0456948 3.35451 17.7569 -0.107106 
3.33284 17.2751 -0.103707 3.20012 17.9294 -0.107189 3.17766 17.4478 -0.103833 
3.20114 6.08561 -0.0123945 3.03392 5.84213 -0.0119903 3.09857 6.22922 -0.0163221 
2.9324 5.98813 -0.0159054 -3.25809 6.10363 -0.0147766 2.99319 17.2887 -0.101539 
2.96974 16.8003 -0.0981983 3.16382 17.0741 -0.101248 -3.81807 10.6675 -0.0320043 
-3.61858 10.994 -0.0336358 -3.5654 10.2789 -0.0304874 1.2757 31.4274 -0.159801 
1.20211 31.8462 -0.160537 1.37736 31.785 -0.162597 0.327661 0.817384 0.00681908 
0.366297 0.823256 0.00747544 0.218887 0.509468 0.0149363 0.244914 0.513579 0.00412053 
0.213255 14.0784 -0.0644792 0.136014 14.8136 -0.0672503 0.37558 14.5998 -0.0680588 
-0.228574 30.9257 -0.137981 -0.129359 31.2876 -0.140697 -0.287765 31.2835 -0.138647 
-0.0867298 23.1218 -0.109897 0.158085 23.1652 -0.114357 0.050194 22.5695 -0.110878 
-1.00623 18.6485 -0.0732953 -0.881507 18.8808 -0.0759471 -1.02679 18.9907 -0.0750872 
-0.0565989 0.219522 -0.000496137 0.691172 31.7802 -0.153501 0.559125 31.3327 -0.149944 
0.764607 31.3596 -0.152761 -2.53592 26.6242 -0.0937779 -2.71322 26.9133 -0.0928458 
-2.50707 27.2899 -0.0965453 2.80253 31.3992 -0.179282 2.65649 31.3596 -0.177308 
2.67328 30.9123 -0.175552 2.52765 30.8726 -0.17358 -1.20988 26.4588 -0.108037 
-1.46661 25.9029 -0.102611 -1.4469 26.8135 -0.106501 -1.70119 26.2545 -0.101393 
2.48062 31.3118 -0.174903 0.47321 29.6776 -0.142085 0.315934 29.668 -0.139962 
0.410113 30.1419 -0.143136 0.252258 30.1337 -0.141024 0.682614 23.6079 -0.122052 
0.516559 23.7162 -0.119781 0.539378 23.3049 -0.119881 -1.25798 18.8561 -0.07239 
3.37804 6.35558 -0.0132203 3.43706 6.71448 -0.0175451 3.27945 6.50537 -0.0171016 
0.780035 20.5827 -0.101086 0.648312 20.1448 -0.0971129 0.883038 20.2407 -0.10043 
-1.38904 18.8975 -0.0714807 2.82275 20.5049 -0.120876 2.99396 20.3126 -0.121101 
3.03128 20.7698 -0.124331 4.21245 29.313 -0.185464 4.07581 29.4941 -0.184914 
4.23169 29.7718 -0.188029 -3.93973 12.7112 -0.0425478 -0.613033 1.4626 -0.0021578 
-0.543428 1.41551 -0.000840122 -0.615699 1.75476 -0.00204952 4.64704 31.6012 -0.201899 
4.50187 31.6984 -0.200733 4.62358 32.0227 -0.203728 1.07694 31.3988 -0.157056 
0.924774 31.3796 -0.154972 0.983388 31.0366 -0.154364 0.823511 31.0124 -0.152123 
0.693758 30.5466 -0.148551 0.61947 30.9841 -0.149325 -3.24926 16.419 -0.0511244 
-3.62668 15.9248 -0.0514485 -3.50231 16.4418 -0.0518422 3.76305 26.6656 -0.166631 
3.56798 26.4596 -0.163548 3.61144 26.8227 -0.165979 3.41699 26.6162 -0.16291 
-1.25379 30.9247 -0.125102 -1.17144 30.4948 -0.124372 -1.39741 30.9394 -0.123418 
-1.31498 30.5099 -0.12269 0.583279 28.7967 -0.140008 0.631448 28.3879 -0.138959 
0.718937 29.3065 -0.143804 0.766348 28.8995 -0.142805 4.01885 15.1557 -0.0926116 
1.56414 29.4842 -0.155522 1.69885 29.4932 -0.157274 1.66183 29.8934 -0.158499 
4.66142 29.5674 -0.191644 4.49491 29.3735 -0.188821 4.54117 29.7383 -0.191233 
-3.58002 12.7225 -0.0414223 -3.33976 12.3577 -0.0394688 -3.40387 13.0496 -0.0427432 
-3.42938 15.519 -0.0508525 -3.52917 15.0136 -0.0523738 -3.22818 15.8203 -0.0496482 
-3.35023 15.3246 -0.0505251 -0.449092 14.0699 -0.0594969 -0.285272 14.2811 -0.0617125 
-0.492717 14.5985 -0.0613882 -0.2145 0.223614 0.00305537 -0.184704 0.207363 -0.00420724 
-0.504334 0.590121 -0.00354685 -0.456939 0.561621 0.00811218 4.55984 25.2232 -0.165979 
4.43751 25.372 -0.165708 4.59303 25.5836 -0.168493 2.17857 11.3558 -0.0604412 
1.98414 11.5908 -0.061296 2.23361 11.689 -0.0625467 2.0385 11.924 -0.0634 
2.14964 3.86417 -0.000828751 2.19975 3.69109 0.0045934 2.02096 3.50249 0.00233629 
2.05985 3.32825 0.00840492 3.47381 9.59405 -0.0477943 3.32304 9.38793 -0.0464762 
3.62067 9.43049 -0.0458857 3.47019 9.22652 -0.044584 -0.893368 19.2111 -0.0766021 
2.30481 9.0132 -0.0462142 2.28464 8.66707 -0.0440433 2.25892 8.29066 -0.0416434 
2.09434 8.43498 -0.0428564 -1.17554 28.7476 -0.117389 -1.02131 29.1951 -0.121006 
-1.32399 28.8563 -0.116035 -1.17105 29.3027 -0.119631 -3.39497 14.9917 -0.0544563 
-3.49151 14.6587 -0.0527287 0.073004 0.195343 -0.00254188 0.0864686 0.197768 0.00631704 
4.12085 17.6123 -0.111208 3.56465 15.2574 -0.0910984 3.58478 15.7238 -0.0945019 
3.40677 15.0648 -0.0889561 3.42623 15.531 -0.0923101 4.08782 17.1905 -0.107961 
3.95405 17.3631 -0.108344 -0.756478 19.1173 -0.0777949 -2.65153 8.33176 -0.0244599 
-2.95987 8.74425 -0.0252028 -2.87393 7.98778 -0.0223906 -0.77494 30.0474 -0.12745 
-0.825084 30.4598 -0.128499 -0.932493 30.0853 -0.125651 -3.83939 14.9182 -0.0516166 
-3.6338 15.2055 -0.0514688 -3.7618 15.3966 -0.0516482 -1.33198 29.372 -0.117976 
-1.51524 29.3348 -0.115647 -1.50671 28.8203 -0.113742 -0.261863 20.9159 -0.0803844 
-0.240845 21.1984 -0.0813052 -0.46064 21.441 -0.0888843 4.93945 27.8804 -0.185407 
4.8827 27.4391 -0.182308 4.76552 27.5908 -0.181962 -1.63694 30.4891 -0.118752 
-1.49999 30.4876 -0.120379 -1.58589 30.1708 -0.118104 0.0462199 0.193977 -0.00241048 
0.0433544 0.23588 -0.00272119 0.0916305 0.531721 -0.0072606 0.297935 0.818899 0.00654822 
0.202437 0.506023 0.0102091 4.83373 32.6814 -0.209407 4.71626 32.3093 -0.206215 
4.65234 32.5806 -0.206822 2.70718 32.1394 -0.18131 2.75985 31.7297 -0.180208 
2.58367 31.682 -0.177795 4.98341 32.7047 -0.21125 -1.37707 31.5803 -0.126251 
1.16952 29.7488 -0.151559 1.31377 29.8 -0.153625 1.22633 29.3024 -0.150452 
-1.37029 29.7392 -0.118956 -1.27353 30.1521 -0.121764 -1.45844 30.1304 -0.119459 
0.123772 0.833374 -0.00595053 0.0984635 0.828201 -0.00752999 0.0709883 0.532872 -0.0088932 
2.70159 26.6314 -0.155766 2.80879 27.2137 -0.159816 2.59969 27.1086 -0.157097 
-2.40782 31.2333 -0.112607 -2.49303 30.948 -0.110508 -2.31874 30.7828 -0.111896 
-2.40488 30.4982 -0.109792 -2.575 30.1975 -0.106685 -2.72014 30.0238 -0.104391 
-2.55006 29.7098 -0.10513 0.863567 5.31733 -0.0273276 0.868036 4.74905 -0.0244077 
1.02978 5.18982 -0.0265548 -2.01169 9.48278 -0.0315827 -2.11628 10.2639 -0.0343545 
-1.76744 9.88529 -0.0344158 0.148433 1.16659 -0.0101509 0.191935 1.17059 -0.00962956 
2.22333 6.10371 -0.0261266 2.41394 6.38266 -0.0267263 2.27089 6.47384 -0.0288012 
0.0436927 2.23958 -0.0131095 0.118034 2.25917 -0.0135775 0.00897524 1.85778 -0.011414 
0.0719931 1.87644 -0.0120093 2.56788 5.43676 -0.0151345 2.47758 5.01193 -0.0112435 
2.66881 5.29302 -0.0113117 -0.0982401 0.190281 -0.00297003 -0.770544 19.4244 -0.0785245 
-3.75521 9.94448 -0.0285802 -3.49663 9.52871 -0.0271838 -3.80028 14.1246 -0.0501442 
-3.66911 14.3324 -0.0508911 -3.66716 13.8711 -0.0486869 -3.5367 14.0851 -0.0492569 
-1.66526 29.5918 -0.114882 -1.75964 30.1063 -0.115797 -2.75541 9.12304 -0.0274167 
-2.44713 8.71448 -0.0267502 -1.90213 30.0369 -0.113853 -1.93807 30.4293 -0.114943 
-1.81055 30.424 -0.11645 2.35537 4.12891 0.000540147 2.44781 4.465 -0.00330741 
2.2469 4.20362 -0.00420143 1.96913 19.9605 -0.109972 1.92504 20.4052 -0.112266 
-3.16802 12.7173 -0.0409058 -2.92662 12.4287 -0.0396746 -3.10464 12.0745 -0.0383833 
-0.246654 0.224005 0.00226127 3.23223 8.27295 -0.0371321 3.26978 8.63562 -0.0402034 
3.10143 8.39725 -0.0389971 4.5897 28.7361 -0.186449 4.46229 28.8975 -0.185958 
4.62862 29.0912 -0.188765 -1.24694 27.1413 -0.110205 -1.00663 26.9681 -0.112339 
-0.120458 17.2066 -0.0758471 -0.0124668 17.5259 -0.0780945 -0.20266 17.5919 -0.076611 
0.258377 21.7037 -0.0911236 0.183426 22.1423 -0.114159 0.0872267 21.4252 -0.0943813 
-0.0394311 22.028 -0.108307 2.84058 7.31426 -0.0312917 2.88457 7.75657 -0.0348484 
3.02496 7.61631 -0.0325481 4.61875 30.5073 -0.196051 4.44654 30.2444 -0.192802 
4.46121 30.6544 -0.195052 3.05691 18.5036 -0.109928 3.24782 18.7371 -0.112894 
3.22076 18.3034 -0.109817 -2.08323 2.68069 -0.0206141 -2.06016 2.8207 -0.0162164 
-1.7839 2.29638 -0.0195605 3.07734 18.8762 -0.112516 2.89542 18.6821 -0.109866 
-1.13329 1.70087 -0.00853585 -1.29747 1.82792 -0.0116074 -0.981649 1.36705 -0.00862701 
-1.65289 18.3953 -0.0682591 -1.66908 18.6632 -0.0678509 -1.77748 18.4037 -0.0661446 
2.72643 18.87 -0.109746 2.92111 19.1171 -0.11286 -2.98961 17.5844 -0.0554526 
0.130973 0.146292 -0.00719394 0.13215 0.535361 -0.00860088 0.0610601 0.192234 -0.00147954 
0.147264 0.519623 -0.00384749 -0.178029 0.50052 0.014773 -0.199257 0.49842 0.0026653 
1.60121 26.6454 -0.143894 1.75146 27.1657 -0.147912 1.5571 27.1402 -0.145454 
-2.01067 4.14863 -0.0113064 -2.11026 3.86293 -0.0110782 -1.84358 3.54193 -0.0101898 
3.10357 19.3114 -0.115544 0.0387239 1.15878 -0.00826105 0.0712913 1.48225 -0.0104316 
0.0709186 1.15077 -0.00922325 4.29052 22.279 -0.144785 4.47102 22.5552 -0.148152 
4.25934 21.921 -0.142143 4.43962 22.1968 -0.145499 -1.8079 29.5234 -0.11295 
-3.45056 13.6134 -0.0459384 -3.62723 13.2718 -0.0447072 2.93858 19.4781 -0.115311 
3.12585 19.6715 -0.118061 3.81789 20.2366 -0.127265 3.97588 20.4417 -0.129892 
3.96402 20.0207 -0.126935 4.12181 20.226 -0.129574 3.44024 15.8898 -0.0948722 
3.93967 16.9912 -0.105599 3.76722 16.7444 -0.102775 3.80212 17.1616 -0.105941 
3.62935 16.9139 -0.103128 0.311266 17.8225 -0.0823388 0.430616 18.2248 -0.0853045 
0.218163 18.2254 -0.083016 3.79256 12.9059 -0.0746435 3.91916 12.7523 -0.0737947 
3.78026 12.5566 -0.0718887 -1.64268 23.6058 -0.0904899 -1.37532 22.9123 -0.0900643 
-1.66963 22.8258 -0.0862161 2.40428 20.0708 -0.114565 2.37007 19.607 -0.111401 
2.59399 19.8643 -0.114908 -0.482792 1.41321 0.000459691 -0.373523 1.12054 0.00316135 
-0.441976 1.43862 0.000547168 0.825295 21.2998 -0.105916 0.910739 20.9735 -0.104954 
0.691827 20.8991 -0.101828 -0.380113 30.9131 -0.135955 0.104739 0.201281 0.00549049 
-0.554712 3.01246 -0.0102368 -0.456643 2.60742 -0.00879123 -0.547898 2.65062 -0.00810091 
0.332868 3.70034 -0.0196524 0.413776 3.59275 -0.0191015 0.459149 4.16715 -0.0216911 
3.59924 16.1049 -0.0972711 3.45153 23.339 -0.144178 3.49182 23.7924 -0.147314 
3.63931 23.5855 -0.147397 -2.73657 24.6101 -0.0832962 -2.72336 23.7922 -0.0797693 
-1.19064 25.2342 -0.10367 4.28299 25.4743 -0.164846 4.32826 25.9522 -0.168119 
0.332229 0.492168 -0.000318659 0.329145 0.448019 0.00194823 0.174334 0.213658 -0.00204055 
0.521468 0.761286 0.0102474 0.611569 0.818891 0.0157034 0.393491 0.497575 0.0189552 
3.51872 32.3444 -0.192292 3.70533 32.3879 -0.194756 1.03 16.0439 -0.0801335 
1.27345 15.7369 -0.080364 1.26911 16.2531 -0.0830383 1.51178 15.95 -0.0832173 
-2.37673 17.1049 -0.11404 -2.41039 17.1574 -0.0553168 -2.2208 17.3466 -0.00152208 
-2.21217 17.3587 -0.119303 -2.24728 17.4136 -0.058037 -1.09732 21.0137 -0.0809472 
-1.32431 21.084 -0.0800014 -1.04922 21.3742 -0.0842402 -1.27408 21.4505 -0.0824889 
3.59803 23.215 -0.144727 3.78734 23.427 -0.147744 3.0923 29.2842 -0.173013 
3.25175 29.3524 -0.175131 3.15451 28.861 -0.171672 3.82069 23.7918 -0.150308 
3.68123 23.9372 -0.14993 -2.55012 17.168 -0.0537788 -2.74398 16.8959 -0.0514703 
-2.58469 16.897 -0.0517092 3.9759 23.6974 -0.151132 4.00915 24.0625 -0.153711 
3.92574 23.2362 -0.147784 3.74808 22.9818 -0.144604 -0.623918 31.2574 -0.134265 
-0.707732 31.6967 -0.135018 -0.520295 31.7031 -0.137406 4.86326 27.0295 -0.179745 
4.69041 26.7911 -0.176609 4.73397 27.2545 -0.179723 -1.11912 30.1097 -0.123462 
2.42455 28.6021 -0.162195 2.29711 28.0309 -0.158138 2.27656 28.6457 -0.160663 
2.15021 28.0737 -0.156605 -2.31693 13.7145 -0.0449906 -2.53373 13.6757 -0.0437961 
-1.37374 22.1258 -0.085947 -1.47742 21.5478 -0.0812479 -1.67935 22.0355 -0.0819504 
2.08732 14.3081 -0.0774825 1.90862 14.5045 -0.0776377 2.07848 13.8343 -0.0746598 
1.89974 14.0305 -0.0748787 -1.26498 19.1364 -0.072216 -1.13141 19.3748 -0.0741455 
-1.10969 19.1108 -0.0742797 3.43349 31.9109 -0.189281 3.36759 32.3031 -0.190253 
3.24596 31.8538 -0.186749 1.87637 30.7405 -0.164806 1.73179 30.7132 -0.162837 
1.78072 30.37 -0.162018 0.321692 2.69056 -0.0153037 0.414468 2.71381 -0.0150146 
0.32205 3.07276 -0.017011 0.424101 3.09662 -0.0169126 -1.16334 18.7629 -0.0722052 
-1.14615 18.4006 -0.0698896 -1.30535 18.5268 -0.0689163 -1.27097 18.1735 -0.0664447 
-1.35498 17.5502 -0.0660166 -1.29482 17.1554 -0.0659165 1.39211 6.11229 -0.0307546 
1.20288 5.75739 -0.0290671 1.23543 6.21828 -0.0315874 -0.277476 0.51484 -0.00585014 
-0.25301 0.516247 -0.00399688 -0.142965 0.226823 -0.00234122 2.53612 10.1153 -0.0531808 
2.32644 10.295 -0.0542371 2.32271 9.82248 -0.0513089 3.2476 24.5177 -0.149408 
3.06527 24.4669 -0.147408 3.22714 24.8481 -0.151133 -2.43175 19.2614 -0.0638629 
-2.21278 19.073 -0.0647638 -2.60055 18.506 -0.060256 -2.39778 18.3338 -0.0605977 
0.523925 22.3518 -0.112696 0.497922 22.6036 -0.116309 0.394306 21.9224 -0.106325 
0.406289 22.1519 -0.11102 0.146309 21.0459 -0.0945322 -0.012146 20.8648 -0.0895383 
0.103383 21.1886 -0.0922136 -0.113594 20.7033 -0.0850262 -0.0218462 20.9493 -0.0873649 
3.33887 6.82713 -0.020521 0.261106 21.6058 -0.0888119 0.357078 22.3574 -0.116091 
1.44155 24.6514 -0.133398 1.20127 24.3909 -0.129725 1.30426 24.9359 -0.13336 
2.30587 9.46698 -0.049096 2.11037 9.24829 -0.0477994 2.12465 9.60933 -0.0499819 
1.8738 29.5156 -0.159549 1.83801 29.9147 -0.160819 -1.72643 21.3256 -0.0779621 
-2.22628 9.0668 -0.0290292 -2.53949 9.46673 -0.0295297 -2.32397 9.88152 -0.0319429 
-1.96535 21.0077 -0.0745897 -1.90433 21.7214 -0.0783139 1.55406 30.6989 -0.16048 
1.67492 31.1604 -0.163953 2.20455 30.8073 -0.16926 2.10619 30.4295 -0.166402 
2.24616 30.4512 -0.168248 0.476785 1.1635 0.00185082 0.519466 1.14793 0.000933169 
4.94603 29.5744 -0.194773 5.11516 29.8548 -0.198115 5.05627 29.4091 -0.195088 
0.437195 24.1917 -0.120401 0.632937 24.6667 -0.12434 0.618043 24.0592 -0.12192 
-0.714539 29.5428 -0.126174 -0.597719 30.0488 -0.129678 -0.984486 30.4707 -0.126557 
-2.14801 30.7176 -0.113612 -2.07567 30.2209 -0.112543 -2.25256 30.2449 -0.110577 
-1.76974 20.6336 -0.074205 -1.50604 20.8572 -0.0774509 0.397001 0.82259 0.00318834 
0.266064 0.505802 0.00198366 3.09726 7.07546 -0.0264907 2.927 6.83958 -0.0259316 
2.9743 7.19204 -0.0289527 2.79628 6.95889 -0.0283962 2.23792 7.81151 -0.0385661 
2.07697 7.95405 -0.0399398 3.07281 15.0674 -0.0873179 3.08732 15.4208 -0.0897567 
3.24334 15.2631 -0.089503 2.17369 5.69066 -0.0230984 2.36734 5.97144 -0.0235746 
3.32644 27.245 -0.165348 3.26578 26.7875 -0.16232 3.13552 27.1201 -0.162731 
-3.13248 6.47883 -0.0160585 -3.01426 5.82235 -0.0144329 -0.639295 21.8616 -0.093527 
-0.498382 21.7901 -0.0974311 3.81619 13.7354 -0.0810598 3.66294 13.5341 -0.0789906 
3.67835 13.8961 -0.0817365 3.5263 14.1067 -0.0826777 3.68892 14.349 -0.0851161 
3.55161 18.3802 -0.112707 3.69296 18.2096 -0.112531 3.52753 17.9054 -0.109301 
3.66963 17.7344 -0.109084 3.80142 27.0337 -0.169047 3.66796 27.2855 -0.169058 
3.47844 27.0739 -0.166006 -0.564222 30.8901 -0.133517 -0.499296 30.4471 -0.132543 
1.63386 27.7058 -0.14882 1.77837 28.248 -0.15286 1.83013 27.7293 -0.151315 
-0.150024 30.4691 -0.137096 0.015404 30.4839 -0.139334 -0.0624558 30.9396 -0.140165 
-0.0457556 15.9565 -0.0710706 -0.250545 16.0879 -0.0698898 -0.179365 15.6701 -0.0686797 
3.84471 20.5923 -0.129868 3.88731 21.0726 -0.133416 3.71126 20.7588 -0.129896 
3.75466 21.2384 -0.133421 -0.00969022 31.7219 -0.144049 0.0649866 31.2943 -0.143271 
-2.23363 17.1201 -0.101389 -2.08521 17.3575 -0.104194 -1.70931 27.1544 -0.104871 
-3.92916 12.1314 -0.0394064 -3.68609 11.709 -0.0370033 -3.86206 11.4308 -0.0356352 
4.58608 30.8116 -0.197238 4.6054 31.2343 -0.199587 4.74843 30.7277 -0.198615 
4.76779 31.1503 -0.200987 -1.91251 18.1555 -0.064374 -2.04805 18.166 -0.0628635 
-1.91897 18.3815 -0.0649757 3.39757 27.674 -0.168329 3.30162 28.041 -0.169195 
3.23124 27.6116 -0.166259 0.170552 0.181484 0.00435794 3.39618 7.24411 -0.0249708 
3.55008 7.48109 -0.0261219 3.44286 7.59023 -0.0285295 -0.0700352 2.65552 -0.0136452 
-0.0927685 2.22612 -0.0116699 -0.0178876 2.23886 -0.0125415 -2.11218 13.1234 -0.0443914 
-1.94152 12.4604 -0.0431549 -3.50179 12.0346 -0.0382037 -3.25415 11.6667 -0.0366053 
0.00662601 1.1552 -0.00844657 0.0308076 1.48599 -0.0100476 -0.0600635 1.48219 -0.0088378 
-0.019093 1.47719 -0.00949172 -0.0411327 1.86274 -0.0108425 0.281263 11.9077 -0.0550125 
0.619419 12.0604 -0.0577124 0.377348 12.6535 -0.0589753 -1.03492 2.25439 -0.00583096 
-0.97685 1.90078 -0.00579337 -0.849904 1.83869 -0.00468407 -0.176599 0.812489 0.00293357 
-0.127108 0.501429 0.00230923 -0.107384 0.50782 -0.000786791 3.712 27.642 -0.171417 
3.85635 27.4793 -0.172027 3.52399 27.4477 -0.168453 -0.626424 28.4211 -0.122765 
-0.770011 27.973 -0.119235 -0.813241 28.6391 -0.121346 -0.955402 28.1936 -0.117891 
3.56596 29.9933 -0.18176 3.62695 29.5078 -0.180061 3.40216 29.8987 -0.179462 
3.46381 29.4135 -0.177792 -3.73653 12.4017 -0.0404675 0.456334 8.81527 -0.0420582 
0.16354 8.19755 -0.0381945 0.540129 9.77312 -0.0468187 0.239386 9.15267 -0.0425113 
-2.82721 9.87423 -0.0302501 -2.64114 10.2655 -0.032364 0.247159 28.7597 -0.135398 
0.293547 28.3322 -0.13428 0.151178 28.3855 -0.132643 -2.25995 31.2794 -0.114501 
-2.08866 31.2141 -0.116257 2.30506 29.9891 -0.166964 2.1192 29.9542 -0.164508 
0.366599 7.40049 -0.0354142 0.128478 6.86169 -0.0322835 -0.0778105 7.66161 -0.0346107 
1.61208 12.2956 -0.0638491 1.51897 11.6987 -0.0602614 1.79818 11.8996 -0.0624134 
3.27579 16.0811 -0.0952579 3.29136 16.4551 -0.0978961 3.45615 16.3438 -0.0981082 
3.47253 16.7181 -0.100777 0.163355 10.2434 -0.0469811 -2.81639 12.894 -0.0415871 
-3.02318 13.0655 -0.0418652 -0.107183 1.14972 -0.0066131 -0.0659514 1.14771 -0.00761332 
-0.0634385 0.815164 -0.00446647 3.51022 17.5301 -0.106611 3.48842 17.0788 -0.103373 
0.708732 9.24027 -0.0451272 0.867409 9.80445 -0.0482591 0.582577 7.18178 -0.0351928 
0.652144 6.67019 -0.033176 0.406432 6.42079 -0.0316362 -0.339566 1.85324 -0.00518922 
-0.362133 2.21569 -0.00750671 -0.276529 1.85085 -0.00654945 -0.15222 6.65154 -0.0295694 
1.59657 28.4269 -0.151458 1.45229 27.8838 -0.147384 -2.53626 17.4698 -0.0559905 
-2.55132 17.8204 -0.0577692 -2.73097 17.1932 -0.053943 1.24222 14.5475 -0.073844 
0.922376 14.326 -0.0706064 -2.72834 13.8056 -0.0437372 -2.63514 13.242 -0.0425288 
-2.94748 14.0442 -0.0448048 -2.84814 13.4889 -0.0427135 -0.951744 2.82807 -0.00686681 
-0.878095 2.91686 -0.00743942 -0.886986 2.43819 -0.00539014 -0.825005 2.5272 -0.00570031 
1.47963 19.9345 -0.105101 1.67485 20.4083 -0.109879 1.37251 20.3369 -0.106366 
-3.25289 15.3854 -0.0413811 -3.1726 15.461 -0.0543111 -3.05917 13.6522 -0.0438765 
2.60489 24.0794 -0.140907 2.53172 23.4579 -0.136551 2.75997 23.7948 -0.140617 
3.51111 13.7439 -0.0799947 3.36474 13.9042 -0.0805961 2.26951 3.60899 0.00963539 
2.12156 3.24401 0.0138506 2.31086 3.45354 0.0167146 2.15081 3.08861 0.0215101 
-2.66898 16.0769 -0.0498172 -2.78053 15.8262 -0.0493665 -0.968064 18.2709 -0.0717998 
-0.844743 18.534 -0.0747973 -0.80167 18.1736 -0.0735836 -0.66226 25.773 -0.111923 
-0.46367 26.3949 -0.116846 -0.719228 26.4402 -0.114006 -3.44448 11.3404 -0.0352143 
-3.19516 10.9902 -0.0339822 -3.37401 10.6425 -0.032278 1.47092 19.0167 -0.0997844 
1.62482 18.4933 -0.0982537 1.71255 19.0683 -0.10234 2.82927 13.165 -0.0736291 
3.01998 13.4429 -0.076134 2.84859 13.6303 -0.076754 2.86095 13.9974 -0.0792188 
3.0459 14.2506 -0.0816926 2.8695 14.4468 -0.0822095 0.251947 13.4046 -0.0616642 
0.412529 13.9291 -0.0651696 -0.0527198 0.508232 -0.00411047 -0.0333902 0.508005 -0.00614826 
-3.04184 9.53106 -0.0282615 -3.30686 9.90456 -0.0292181 -3.11154 10.2694 -0.0311555 
-0.833728 22.7879 -0.0988401 -0.965029 23.1926 -0.097658 -0.784873 23.2639 -0.102578 
-1.94408 16.9492 -0.06587 -1.7385 16.7843 -0.0620504 -1.80158 17.2017 -0.0644839 
1.42562 28.9631 -0.15158 1.36916 29.4519 -0.152917 -0.569197 24.3161 -0.107528 
-0.381219 24.6961 -0.110841 -0.316394 24.2034 -0.110266 -0.459663 18.9726 -0.0794006 
-0.570669 18.6999 -0.0777364 -0.4079 18.6453 -0.0787259 2.75743 4.13664 0.0167283 
3.98056 25.4676 -0.161912 3.82223 25.6157 -0.161258 4.00791 25.8399 -0.164349 
-1.51129 27.4837 -0.108455 -1.71517 27.8244 -0.107383 3.28055 11.0982 -0.0600494 
3.43689 11.312 -0.0617311 3.42016 10.9509 -0.0589363 -2.11544 15.1937 -0.0474803 
-2.01128 15.5114 -0.0504252 -2.21728 15.686 -0.0467116 -0.109237 24.685 -0.114385 
0.134236 24.6795 -0.117726 -0.0362659 24.1941 -0.113332 0.500489 17.8583 -0.0843093 
0.38368 17.4532 -0.0813646 0.597425 17.4189 -0.0831639 -3.23415 9.1533 -0.0261669 
0.671345 29.7067 -0.144826 0.603527 30.1655 -0.145792 0.817808 29.7054 -0.146779 
0.750752 30.1627 -0.147719 -3.17885 15.6889 -0.0378379 -3.0617 16.0925 -0.0470568 
-3.01953 15.9632 -0.0442465 -2.90744 15.0272 -0.0526668 -3.05966 15.6227 -0.0551626 
-2.8322 15.4693 -0.0536483 1.41456 10.5905 -0.0540632 1.13548 10.7581 -0.0539303 
1.15966 10.254 -0.0515137 -0.175564 23.6483 -0.110894 -2.72586 14.8489 -0.0447998 
-2.61306 15.2109 -0.0381784 -1.9101 15.0364 -0.0497458 -1.6975 14.8508 -0.0516631 
-2.01241 14.7224 -0.0479879 -1.80166 14.5407 -0.0497349 -0.221293 29.5717 -0.132528 
-0.164673 29.1839 -0.13169 -0.325961 29.1196 -0.129373 2.31653 18.4268 -0.103724 
2.33625 18.7952 -0.10614 2.12487 18.5911 -0.103142 -0.348919 30.4584 -0.134503 
-0.448264 30.0421 -0.13154 -0.250439 30.0512 -0.13411 -1.64188 19.5196 -0.070527 
-1.47041 19.5216 -0.0719421 -1.58572 19.232 -0.0703755 4.03116 30.6096 -0.190019 
4.24309 30.8672 -0.193679 4.10449 30.3164 -0.189385 4.31606 30.5736 -0.193026 
-0.67138 29.0939 -0.124894 -0.838498 29.1478 -0.123061 -0.979189 28.695 -0.119545 
-0.565999 29.5345 -0.128001 2.22952 2.93766 0.0383114 2.1991 3.02046 0.0291722 
2.41429 3.3325 0.0299282 3.76031 12.1194 -0.0684185 3.92556 12.3707 -0.0707611 
-0.951785 1.54065 -0.00607485 -0.828501 1.41734 -0.0055658 -0.725634 1.16216 -0.00507824 
-0.412787 0.553131 -0.00151741 -0.204867 0.243709 -2.7309e-05 -0.292932 2.97111 -0.0126807 
-0.383402 3.33112 -0.0135571 -0.300948 3.48243 -0.0150665 -2.44677 5.13354 -0.0131792 
-2.57929 4.81643 -0.0124465 -2.28425 4.49608 -0.0121392 -0.367526 0.535328 -0.00278456 
3.2371 10.3064 -0.0540398 3.39217 10.5093 -0.0554779 3.37242 10.1688 -0.0527784 
4.16599 18.4407 -0.117414 4.18999 18.818 -0.120272 3.71759 15.1736 -0.09126 
3.73082 15.526 -0.0938583 3.55206 14.9053 -0.0885212 3.3647 8.12863 -0.0348731 
3.19217 7.84848 -0.033435 -1.05051 3.26006 -0.00867828 4.01263 15.5539 -0.0955523 
3.88394 15.7337 -0.0961916 3.86743 15.3614 -0.093376 -0.444076 23.7645 -0.107911 
3.48686 12.9116 -0.0738274 3.63921 13.1117 -0.0757566 3.49655 13.2723 -0.0765188 
-0.689335 3.4309 -0.0113848 -0.580613 3.45566 -0.0124698 2.67516 18.0392 -0.104099 
2.70425 18.4869 -0.10715 2.87424 18.2988 -0.107243 -1.64508 19.9178 -0.072077 
-1.56945 20.3561 -0.0744016 -1.47085 19.9187 -0.0732168 0.369294 1.52044 -0.00673767 
0.269941 1.1694 -0.00682956 0.30797 1.17221 -0.00471747 2.58727 22.1359 -0.128989 
2.63513 22.6082 -0.13232 2.80557 22.3915 -0.132539 0.240767 1.89257 -0.0121751 
0.168963 1.49997 -0.0108942 0.223211 1.50522 -0.0105064 0.693721 19.0169 -0.0918645 
0.799512 18.6019 -0.0908601 0.934795 18.9882 -0.094256 1.04236 18.5706 -0.0931621 
3.56491 10.7725 -0.0574827 -1.68232 6.25181 -0.0195804 -1.40294 5.77868 -0.018759 
-1.45619 6.58705 -0.022012 3.05084 21.1422 -0.126865 3.22382 20.9666 -0.127213 
0.363475 1.90642 -0.0107463 0.29565 1.90028 -0.011698 0.268745 1.51244 -0.00956699 
-0.0842756 0.189408 0.00571076 0.534297 8.0688 -0.039047 0.757341 7.85371 -0.0387995 
0.939526 23.8189 -0.125367 1.01548 24.3495 -0.127761 0.823183 24.083 -0.124915 
2.19911 4.85872 -0.0144872 2.39617 5.15366 -0.01458 2.2758 5.23975 -0.0175145 
4.15858 28.9223 -0.182848 4.32667 29.0837 -0.185494 -0.77183 13.4522 -0.0545065 
-0.948647 13.7323 -0.0542307 -0.69111 13.9413 -0.0570064 -0.867263 14.2203 -0.0568274 
-1.82111 5.27448 -0.0149465 -2.09584 5.70808 -0.0156775 -1.97775 5.02581 -0.0134834 
-2.67712 31.5997 -0.110914 -2.61314 31.2229 -0.110187 -1.43285 4.21784 -0.0118445 
-1.26264 3.60037 -0.00979559 -1.42365 3.7264 -0.00982262 -1.42651 23.5442 -0.0928563 
-1.42429 24.1387 -0.0961761 -1.13906 23.8543 -0.0984872 -1.12633 24.4616 -0.10214 
3.20233 14.0885 -0.0812457 3.21416 14.4599 -0.0838532 -1.92106 8.63202 -0.0285495 
-1.53061 4.8245 -0.0140211 -1.67317 4.56516 -0.0126111 -1.89117 4.42637 -0.0117763 
-1.41715 19.2033 -0.071156 0.607029 6.05913 -0.0302832 0.526368 5.32255 -0.0271179 
0.701803 5.35554 -0.0274995 1.93501 15.3399 -0.0826093 1.71009 15.5831 -0.0825389 
1.98443 15.6812 -0.0848884 1.7601 15.9239 -0.0848363 -0.219351 1.14306 -0.0019036 
-0.296694 1.48329 -0.00267103 -0.256203 1.49565 -0.00405907 -0.260462 1.14405 0.000607989 
-0.349236 1.48472 -0.00106068 2.77273 19.6915 -0.115318 2.58504 19.4916 -0.112506 
1.32924 24.0986 -0.12962 -2.37874 17.4314 -0.056512 -0.457272 1.84603 -0.00309057 
-0.389454 1.84174 -0.00410592 0.184296 0.838464 -0.00553593 0.110974 0.535153 -0.00759569 
-2.37156 17.9733 -0.0593506 -2.34696 17.6949 -0.0581931 1.30666 25.4885 -0.135698 
1.11336 24.9017 -0.131244 2.14875 27.5533 -0.154272 -2.8942 16.3233 -0.0468259 
0.983064 7.82854 -0.0392443 0.975997 8.23241 -0.0411555 1.07196 25.433 -0.132544 
0.847693 24.6728 -0.127027 0.796796 25.2134 -0.128596 0.984117 28.2165 -0.14285 
0.827092 28.4306 -0.141669 0.84893 27.7351 -0.139131 0.690987 27.9507 -0.137968 
-0.0533973 0.190114 -0.00169783 -0.149419 0.499239 0.0142809 -0.650965 0.902833 -0.000235301 
-0.581207 0.85893 -0.000308054 -0.153147 0.188303 -0.00162236 0.113201 1.16308 -0.0094354 
-2.00106 13.8428 -0.0467077 -1.92249 13.2756 -0.0458789 -2.11919 13.567 -0.0454873 
-1.22566 14.0602 -0.0532701 -1.07444 13.4738 -0.0521913 -1.09806 14.3149 -0.0552514 
0.0166617 0.205295 -0.00376176 0.032044 0.525542 -0.00796374 0.0267101 0.228524 -0.00238399 
-2.55986 12.5019 -0.0406506 0.0529857 0.525115 -0.00509579 0.0313517 0.198081 -0.00121517 
-1.58492 13.5039 -0.0485869 -1.80251 13.7334 -0.0477389 -1.49759 13.835 -0.0502572 
-1.71506 14.0666 -0.0492496 1.85063 3.08596 0.00573047 3.16164 20.142 -0.121389 
3.18639 20.5091 -0.123968 1.96454 28.6675 -0.156995 2.0962 28.605 -0.158316 
2.07164 29.047 -0.159944 0.635037 26.4152 -0.131019 0.881773 26.4182 -0.134213 
0.855904 26.9904 -0.136282 0.0794843 21.2193 -0.0860938 3.87871 30.5311 -0.187914 
3.77621 30.9109 -0.188597 3.95982 31.0258 -0.191253 -1.53973 31.6916 -0.124724 
-1.45767 31.2693 -0.124015 -1.63577 31.2513 -0.121804 3.72555 31.9853 -0.193118 
3.84654 32.4207 -0.19659 3.91665 32.0509 -0.195683 -3.13363 5.50679 -0.0134974 
-2.86005 5.15014 -0.0131093 2.7837 30.069 -0.173107 2.67276 29.6236 -0.169756 
2.83582 29.6728 -0.1719 0.292267 0.247515 0.0100019 0.253799 0.229534 0.0113572 
0.708783 0.769704 0.0597132 3.50226 30.3443 -0.182732 3.3164 16.9144 -0.101162 
-0.368002 14.8833 -0.0637069 -0.138754 14.637 -0.0644451 2.7221 10.3297 -0.0545693 
2.70567 9.97551 -0.0521474 0.133171 29.6508 -0.137489 -0.0261686 29.6123 -0.135234 
0.0684972 30.1129 -0.138514 -0.0911542 30.0754 -0.13629 -1.52582 18.3831 -0.0693521 
2.21636 29.0412 -0.161696 0.196378 16.6856 -0.076323 0.299753 17.0762 -0.0789326 
0.422568 16.5886 -0.0777335 0.375254 29.2795 -0.13918 0.437438 28.7989 -0.138072 
0.533707 27.9371 -0.135849 0.483672 28.3732 -0.136941 -1.49759 29.7801 -0.117606 
2.30386 5.59296 -0.0207571 2.49637 5.87238 -0.0211425 2.38188 4.62555 -0.00769758 
2.27548 4.7112 -0.0111885 1.9081 31.973 -0.17032 1.7729 31.517 -0.166693 
1.72604 31.8465 -0.167425 1.61773 28.9945 -0.154155 1.75125 29.0048 -0.15584 
2.70234 7.43008 -0.0333186 2.74316 7.87543 -0.0367063 1.1342 26.5376 -0.137965 
1.11153 27.1032 -0.139839 -1.68277 29.1475 -0.112945 1.90029 4.77276 -0.0179064 
1.96154 5.30486 -0.0219577 1.76024 4.84239 -0.0201526 2.29633 14.1307 -0.0774989 
2.29212 13.6737 -0.0747164 -0.215709 3.03132 -0.0137858 -0.212714 3.54349 -0.016019 
3.80536 13.3712 -0.0782524 -2.55886 16.3687 -0.0565373 -2.44454 15.8466 -0.0433326 
-2.53633 15.5545 -0.0420109 -1.2601 16.0446 -0.061524 -1.45854 16.2083 -0.0608243 
-1.38074 15.7881 -0.0593243 0.169248 25.7545 -0.122287 0.452365 25.8294 -0.126318 
0.29146 25.2207 -0.121662 3.38241 20.7632 -0.127224 3.53875 20.5986 -0.127438 
3.5698 20.9649 -0.130095 0.704139 25.8507 -0.129749 -1.20844 31.691 -0.128772 
-1.31249 31.2653 -0.125764 0.675122 27.0732 -0.134137 3.681 20.3919 -0.127207 
3.50612 20.1403 -0.124158 3.42333 18.9471 -0.115591 3.2689 19.11 -0.115506 
4.37273 29.4483 -0.187892 3.58419 31.9523 -0.191276 4.56421 30.1702 -0.193717 
4.39223 29.9073 -0.190483 -0.906088 30.9153 -0.129328 -0.973969 31.2661 -0.129923 
-0.818399 31.2673 -0.131862 -1.12443 31.2669 -0.128069 -1.06577 30.9261 -0.127408 
-1.41758 2.76519 -0.00821975 -1.63446 2.99518 -0.00940224 -1.58496 3.25933 -0.00909939 
3.27974 25.346 -0.1545 3.11855 24.9639 -0.150764 3.05476 25.425 -0.152795 
-1.67131 4.07587 -0.0109462 3.01369 9.25126 -0.046354 2.98912 8.91601 -0.0438144 
2.83891 9.03594 -0.0452399 3.83689 14.5495 -0.0872404 3.69895 14.7088 -0.0877948 
-0.750265 2.10463 -0.00384628 0.611272 2.30142 -0.0101786 0.684045 2.29229 -0.00928762 
0.758643 2.73429 -0.0124321 0.844268 2.72851 -0.0115547 0.545446 1.90802 -0.00733193 
0.816221 1.47093 0.000732931 0.861113 1.43034 0.00397169 1.00338 1.7958 0.00129911 
1.06495 1.76247 0.00544253 3.05834 22.898 -0.137927 2.88564 22.7369 -0.135367 
3.10006 23.3697 -0.14118 2.928 23.2079 -0.138641 2.95599 8.4752 -0.0404077 
2.92099 8.11224 -0.0376255 3.13439 8.75766 -0.0419206 3.78704 19.7695 -0.123879 
0.540244 2.30025 -0.0111612 0.583514 2.75041 -0.0140446 0.664856 2.75269 -0.013389 
3.94625 26.8792 -0.169648 4.13608 27.1231 -0.172918 3.99081 27.2778 -0.172301 
0.0659821 0.82398 -0.00606836 -1.16479 19.6438 -0.0746307 -1.21358 19.9824 -0.0751564 
-1.33015 19.7238 -0.0736136 2.90923 25.7145 -0.152984 2.83464 25.2 -0.149389 
2.68875 25.5289 -0.149832 2.64817 8.73446 -0.0435932 2.67283 9.18955 -0.0467775 
0.600973 4.1767 -0.0217829 0.511071 3.68113 -0.0195173 0.731503 4.18754 -0.0216774 
0.630342 3.6896 -0.0191955 2.46246 8.51473 -0.0425861 2.62075 8.38788 -0.0411995 
2.43998 31.6555 -0.175861 -1.11808 11.9592 -0.0461665 -0.777856 11.7563 -0.0476041 
-0.983678 11.2039 -0.0439418 -0.317331 12.8359 -0.0551192 -0.302652 13.6384 -0.0587229 
-0.0768606 13.253 -0.0587275 1.18274 23.5443 -0.125299 1.42031 23.7908 -0.128641 
-1.39613 14.1987 -0.0523249 -1.32688 13.6971 -0.0511337 1.45098 30.2932 -0.157464 
1.40101 30.6565 -0.158306 2.69493 6.21243 -0.022089 2.56247 6.30782 -0.0246975 
2.74719 6.55299 -0.0249732 -1.75593 12.6131 -0.044598 -2.35872 11.7852 -0.0390262 
-2.23797 11.13 -0.0370996 -2.54346 11.4679 -0.0372704 3.98869 22.2753 -0.142178 
4.13134 22.0724 -0.142069 3.95397 21.9186 -0.139553 4.09716 21.715 -0.139418 
-0.0958928 17.9033 -0.0788408 -0.176343 18.2809 -0.0793355 -0.285937 17.9771 -0.0773828 
2.31825 6.84853 -0.0313101 2.46253 6.73637 -0.0293449 -1.7267 13.1712 -0.0465911 
-1.53717 12.9232 -0.046984 -1.39688 13.2557 -0.0490526 -0.902176 13.091 -0.0520051 
-1.14426 13.0336 -0.0500564 1.94683 2.53346 0.037256 -0.91836 6.33525 -0.0237506 
-0.663914 6.66719 -0.0267846 2.9531 16.4375 -0.0957115 3.14634 16.7112 -0.0987267 
2.12528 21.776 -0.122561 1.98334 21.3335 -0.118462 2.30729 21.5497 -0.122817 
2.16709 21.106 -0.118809 -2.57834 7.54321 -0.0215185 -2.27555 7.13605 -0.0208431 
-2.7785 7.2106 -0.0195442 -2.4714 6.79489 -0.018835 2.80344 16.9752 -0.0982356 
2.8277 17.4636 -0.101536 -1.61044 5.53624 -0.0169723 2.3594 7.30746 -0.0345 
2.39663 7.68107 -0.0370201 2.20384 7.43659 -0.0361811 3.17488 6.60535 -0.0200388 
3.05038 6.74203 -0.0233414 2.99456 6.32992 -0.0192724 2.61414 6.65965 -0.0273659 
0.248517 2.68471 -0.0153643 2.43402 8.13984 -0.0401014 -3.17781 16.199 -0.04938 
2.89924 4.50843 0.0113799 -0.0667829 0.191641 0.00469803 -0.162725 0.498689 0.00966966 
2.79479 16.5997 -0.0957706 3.82704 14.1876 -0.0845008 -1.16937 20.6931 -0.0786563 
-1.37677 20.5841 -0.0768857 2.82455 26.2441 -0.155015 2.90237 26.7728 -0.158532 
3.01706 26.1744 -0.15652 3.09611 26.7034 -0.160163 3.64054 12.7081 -0.0727094 
3.16469 12.822 -0.0723254 3.34042 13.0703 -0.0745711 3.15767 12.4781 -0.0698905 
3.3333 12.7269 -0.0720873 0.479597 26.939 -0.131094 4.17989 24.2744 -0.156581 
4.04122 24.4239 -0.156221 4.22464 24.74 -0.15986 4.08606 24.889 -0.159465 
3.45064 24.7742 -0.152807 3.42965 25.1052 -0.154551 3.01681 22.5343 -0.135305 
2.92629 21.7349 -0.129519 2.96878 22.1869 -0.132716 3.13195 22.0014 -0.133002 
-0.811418 21.2859 -0.0840176 -0.906815 21.0685 -0.0828482 -0.698002 20.9284 -0.0816583 
3.47614 12.466 -0.0705156 3.80659 25.2509 -0.15897 1.02833 27.6529 -0.141101 
-1.0207 2.60324 -0.00620674 -1.13976 3.03588 -0.00760442 0.838606 6.02111 -0.0305133 
-0.467189 25.3177 -0.112918 -0.194071 25.2745 -0.115554 0.894894 6.633 -0.0334518 
0.829345 7.34108 -0.0365177 0.468085 18.9578 -0.0890337 0.382698 19.3331 -0.0897734 
0.252202 18.9676 -0.086675 -0.570587 17.7399 -0.0740193 -0.392898 17.6618 -0.0752955 
-0.461132 18.0195 -0.0760805 -0.0414041 0.219071 -0.00125871 -0.147068 26.4761 -0.121016 
0.103997 26.3026 -0.123372 -0.0761043 25.8056 -0.119339 -1.02818 20.4823 -0.0785516 
-1.08636 20.1723 -0.076661 -0.922113 20.1479 -0.0771993 0.386179 26.3684 -0.12764 
-0.342474 4.02795 -0.0171124 -0.355172 4.56819 -0.0193807 -0.196474 4.00849 -0.0180412 
-0.196487 4.54809 -0.0201931 -0.486303 3.42437 -0.013166 -0.436744 3.87494 -0.0157744 
-0.217965 2.59364 -0.0117372 -0.223117 2.22557 -0.00981549 -0.294736 2.60598 -0.0108592 
3.90291 26.4665 -0.166905 4.05764 26.3139 -0.167568 4.08657 26.6799 -0.169932 
0.341031 5.68198 -0.0281013 -0.874333 15.7602 -0.0633584 -0.684516 15.6378 -0.0644328 
-0.753906 16.0405 -0.0656153 -0.566252 15.9221 -0.0666278 -0.577747 15.159 -0.0631796 
-0.478903 15.443 -0.0652345 -0.785119 15.3575 -0.0622901 -1.21685 29.6961 -0.120634 
-0.359085 15.7753 -0.0676958 -3.3696 14.6709 -0.0535749 -3.19343 14.7202 -0.0510983 
-3.26014 14.3269 -0.0491586 0.606438 19.3958 -0.0927474 0.853053 31.7989 -0.155691 
-0.614142 17.0705 -0.0710847 -0.728408 16.7844 -0.0689899 -0.536091 16.63 -0.0699307 
-0.64634 16.3371 -0.0677293 4.51004 27.9149 -0.181134 4.34543 27.7245 -0.178386 
4.38337 28.0764 -0.180704 0.564559 18.5774 -0.0882911 0.345673 18.5899 -0.0859954 
5.04328 29.045 -0.192977 4.91275 29.2137 -0.192479 3.00778 17.6623 -0.104079 
-0.709349 3.96048 -0.0141637 -0.927013 25.9257 -0.109365 2.60597 16.8172 -0.0959068 
2.61536 17.1927 -0.0983324 -2.43378 10.6496 -0.0345249 -0.580841 3.93082 -0.0149473 
-0.704879 4.44218 -0.0164029 -0.521463 4.3873 -0.0174634 1.67646 9.52207 -0.0490386 
1.68768 9.01195 -0.0462847 1.88158 9.75385 -0.0506368 1.89281 9.24527 -0.0477364 
1.04268 6.35256 -0.0323644 1.08961 6.76606 -0.0343692 0.0145972 18.2594 -0.0812195 
1.92521 17.9877 -0.0979164 1.85345 17.6343 -0.0952602 1.67117 18.0452 -0.0960956 
-1.48554 17.2966 -0.0655099 -1.41771 16.8949 -0.0644262 -1.60453 17.0456 -0.064474 
-3.01282 16.7121 -0.0513983 -0.360368 27.6068 -0.122884 -0.362094 28.1754 -0.125071 
-0.579554 27.921 -0.12134 -2.41848 25.1256 -0.088991 -2.18176 24.6617 -0.0895227 
-2.20625 25.5132 -0.0930537 0.594101 27.4979 -0.134848 -0.455877 16.2296 -0.0689017 
-0.411127 7.26304 -0.0309443 -0.484868 3.0436 -0.0111114 -0.384769 2.9609 -0.0116965 
-0.380345 2.58666 -0.0096093 -2.94771 4.85717 -0.0125627 2.11512 6.5675 -0.0305207 
1.92458 6.28362 -0.0296266 1.96574 6.66694 -0.0320948 1.49727 2.11699 0.0212114 
1.20299 1.62494 0.0254749 1.72685 2.40015 0.0243021 1.43512 1.89652 0.0302815 
2.15883 6.94329 -0.032967 1.31464 3.03837 -0.00884676 1.12135 2.64989 -0.00771022 
1.2188 2.64145 -0.00600182 -0.127047 3.0838 -0.0148122 -0.105332 3.58521 -0.0169983 
0.834205 19.4104 -0.0953934 1.08387 19.4368 -0.0982108 1.18593 19.0118 -0.0969575 
0.992173 4.13037 -0.0205229 1.01279 4.70061 -0.0238462 1.16243 4.65363 -0.0230872 
2.15509 15.5083 -0.084979 2.55608 19.0311 -0.109393 2.74331 19.2309 -0.112168 
2.52213 21.7609 -0.126077 2.69783 21.5648 -0.126439 2.76177 21.9408 -0.129342 
3.064 7.96913 -0.0354731 0.957709 1.84886 -0.00114656 1.16572 2.1766 -0.000468166 
1.08441 2.21333 -0.00331186 1.28901 2.54706 -0.00300873 -0.257233 0.794175 0.00766206 
1.95991 31.5552 -0.16928 2.10819 31.5875 -0.171329 2.05771 32.0045 -0.172397 
2.05245 13.4456 -0.0722681 1.86614 13.5981 -0.072245 -1.89639 22.4935 -0.0821957 
2.84164 24.2177 -0.143862 2.66114 24.6006 -0.14436 2.89734 24.7405 -0.147416 
3.32285 7.70586 -0.0309131 -1.76822 7.0022 -0.0224541 -1.83757 7.8317 -0.0255979 
-1.52397 7.33933 -0.0248822 1.40672 2.56118 0.000432008 1.24709 2.17159 0.0027439 
1.17032 21.1191 -0.108804 1.04028 21.4532 -0.109488 1.00998 2.24484 -0.00504003 
2.86646 30.9602 -0.178119 3.01815 30.9974 -0.180115 2.91464 30.5785 -0.176968 
-2.09763 17.6515 -0.0628258 -2.06261 17.9117 -0.0626943 -2.21196 17.6734 -0.0594946 
-0.726236 5.13007 -0.019611 -0.528254 5.0733 -0.0204672 -1.81543 17.8908 -0.0663159 
-1.93352 17.9035 -0.0631147 -1.78964 18.1523 -0.0660201 0.229153 26.9031 -0.127651 
0.822852 1.88726 -0.00376977 0.882276 1.84982 -0.00269596 0.0953248 17.888 -0.0805266 
0.198277 15.7874 -0.0721628 0.0655231 15.4943 -0.0698423 0.532692 13.2735 -0.0628867 
0.190707 17.4805 -0.0796951 -1.03593 16.6033 -0.065706 -0.958601 16.1953 -0.0645578 
-0.847779 16.4879 -0.0667647 2.12868 10.0834 -0.0527936 0.135815 18.5896 -0.0838038 
0.316946 2.26571 -0.0133448 0.395112 2.27257 -0.0127461 0.947406 22.4626 -0.115794 
0.874371 22.7442 -0.1176 1.06125 23.0237 -0.121015 0.975199 23.309 -0.122473 
-0.536882 19.8299 -0.0812485 1.10578 4.07496 -0.0196705 1.28722 4.60199 -0.022011 
-0.595045 13.0606 -0.0542372 -0.704242 12.4332 -0.0508175 -0.0854894 8.57425 -0.0384691 
-2.18531 23.7038 -0.0851842 -2.41018 23.3484 -0.0810235 -2.40944 24.3078 -0.0853562 
-0.434641 8.17508 -0.0348011 -0.45881 9.07803 -0.0383476 -0.734297 8.55204 -0.0345012 
-2.21736 14.0081 -0.0457075 -3.06045 7.59914 -0.0202758 -3.34386 8.01016 -0.0211604 
-3.15646 8.39413 -0.0232238 -0.0412862 4.5279 -0.0211777 0.097927 4.69291 -0.0226923 
-0.0787008 4.05101 -0.0190034 0.0495866 4.21317 -0.0204438 0.78413 8.49612 -0.0418555 
1.00871 9.03059 -0.0450493 -0.0398319 3.12145 -0.0157071 3.04599 27.5276 -0.163871 
3.11562 27.9568 -0.166787 -2.01472 19.2109 -0.0666707 -2.16276 18.6429 -0.0634913 
-1.9151 18.869 -0.066371 2.04669 7.55406 -0.0374994 2.00616 7.05942 -0.0344779 
1.83133 7.20873 -0.0359901 -0.0602449 13.8969 -0.0616368 0.465474 2.3017 -0.0120989 
0.493898 2.74405 -0.0146896 2.12704 15.1568 -0.0827102 3.32438 28.9745 -0.174098 
3.37758 28.5026 -0.172334 3.20835 28.3896 -0.169943 -3.69045 9.19234 -0.0253508 
-3.42982 8.80526 -0.0243127 -3.60949 8.40276 -0.0221258 1.28875 6.63227 -0.0337271 
0.0684967 16.3402 -0.0735949 -1.54086 18.9217 -0.0694426 -1.72747 18.9367 -0.0683106 
1.43233 6.51574 -0.0327896 2.84214 20.8771 -0.123394 2.6494 21.0773 -0.122964 
2.88874 21.3657 -0.126867 -1.1564 28.37 -0.116145 -1.14714 27.8086 -0.114019 
-1.05674 27.5222 -0.113939 -0.719357 27.4171 -0.117559 2.00648 31.2259 -0.16851 
1.82077 31.1868 -0.165952 3.22876 14.912 -0.0870303 1.406 28.3937 -0.148944 
4.76748 25.8646 -0.171885 4.79491 26.2321 -0.174373 0.164932 31.6332 -0.14598 
0.223067 31.3003 -0.145364 4.27462 31.24 -0.19588 4.11257 31.1042 -0.193378 
0.814935 22.0234 -0.111077 0.959479 21.777 -0.110626 1.09173 22.2174 -0.115318 
0.849157 14.9552 -0.0732381 0.680051 14.4612 -0.0695916 1.71744 16.2896 -0.0865736 
-2.67754 29.4825 -0.102842 4.01878 18.6437 -0.117834 3.8904 18.8194 -0.118152 
4.04345 19.0202 -0.120639 0.481957 31.7567 -0.150634 0.332418 31.7428 -0.148636 
5.0114 30.4079 -0.199882 5.18471 30.6539 -0.203087 5.12098 30.2425 -0.200228 
2.74386 10.8062 -0.0577931 2.55616 10.4947 -0.0556406 2.57643 10.9729 -0.0587579 
2.71574 22.9528 -0.135183 2.72561 23.3283 -0.13754 2.49599 22.9926 -0.133426 
2.02208 5.70937 -0.0247256 1.82064 5.37377 -0.0238489 3.87208 26.0891 -0.16446 
-0.47316 31.2592 -0.136176 -0.367985 31.7061 -0.139374 -1.52852 3.51639 -0.00939188 
-2.13901 8.27653 -0.0261709 -1.50999 1.83309 -0.0221364 -1.24315 1.41512 -0.0275558 
-1.1424 1.355 -0.0205477 -2.52762 14.7053 -0.0443374 -2.32464 14.5359 -0.045351 
-2.42033 15.0498 -0.0429013 -2.47199 31.6104 -0.113343 1.87205 18.7949 -0.102179 
2.14971 19.0299 -0.105995 3.79579 10.0555 -0.0511274 3.78752 9.67933 -0.0476989 
3.65247 9.8568 -0.049622 0.582833 1.50829 -0.00158395 0.639169 1.50544 -0.00126428 
0.751473 1.88577 -0.0044133 3.67367 10.2006 -0.0526081 3.83614 10.4496 -0.054592 
3.69594 10.6425 -0.056345 0.436932 20.0997 -0.0941702 0.344381 20.3779 -0.0944124 
0.551851 20.4318 -0.0974154 3.74022 9.29966 -0.0442589 -3.21262 13.8714 -0.0454543 
-3.10554 14.2702 -0.0466998 1.67939 25.0179 -0.137501 1.80271 24.6635 -0.136792 
1.53933 24.3391 -0.132599 1.65557 23.9886 -0.131576 -0.792048 0.793761 -0.0563178 
-0.47162 0.403159 -0.0438078 -0.575747 0.589647 -0.0281154 -0.282394 0.223719 -0.00651157 
1.18847 5.14268 -0.0258911 -2.18037 4.78912 -0.0126582 -2.26104 5.38434 -0.0141568 
4.25316 20.0906 -0.129645 3.76252 19.3924 -0.121131 3.90966 19.1818 -0.120785 
3.93887 19.643 -0.124172 -2.6917 29.0127 -0.100935 3.95398 13.1599 -0.07711 
3.71802 18.5924 -0.115339 2.937 23.5842 -0.140997 2.98408 24.0429 -0.144157 
2.3723 3.39637 0.0231081 2.60582 3.73726 0.0238433 -0.501549 27.097 -0.119107 
2.84566 17.8315 -0.104027 2.65632 17.6714 -0.101639 3.22583 5.64374 -0.00431872 
3.03335 5.33342 -0.00339369 3.13325 5.75093 -0.00843148 2.71991 14.9662 -0.0848388 
2.70302 14.6104 -0.0824795 2.8818 14.8115 -0.0846571 5.25271 31.4466 -0.207941 
5.07162 31.1951 -0.20462 5.28824 31.7721 -0.21 5.10701 31.5205 -0.206678 
4.89478 30.5675 -0.199419 4.92627 31.0119 -0.202053 3.59878 11.5703 -0.0638693 
3.7304 11.4123 -0.062714 3.74894 11.772 -0.0656326 4.00699 14.8085 -0.0899671 
4.95064 31.4047 -0.204332 2.64969 4.76218 -0.0031262 2.57891 4.9154 -0.00757389 
2.77326 5.20215 -0.00764176 4.46017 31.3315 -0.198437 4.42846 30.9586 -0.196214 
3.61274 11.9351 -0.0667251 3.63259 12.3728 -0.0701404 -2.90217 17.2667 -0.0543158 
2.15237 10.856 -0.05742 2.13189 10.4644 -0.0550717 2.34499 10.6758 -0.0566215 
-2.58216 16.681 -0.0557985 -2.74284 16.4141 -0.0547277 3.37664 14.275 -0.0832657 
3.39234 14.7141 -0.0864288 -2.24075 3.30782 -0.0134307 -2.16787 3.51096 -0.0123775 
-1.92477 2.92584 -0.0121681 -2.69608 30.9358 -0.108119 2.53575 18.6626 -0.106933 
5.32355 32.1721 -0.212441 2.36163 19.2343 -0.109036 2.77634 16.228 -0.093265 
2.75072 15.7729 -0.0901909 2.92671 15.9824 -0.0925779 3.25434 21.3397 -0.129868 
-0.0291074 0.193308 -0.001366 -0.0240997 0.218245 -0.00160144 0.422406 1.91558 -0.00974123 
-0.20346 22.5746 -0.109774 1.00943 20.6326 -0.104116 -0.0326917 1.14611 -0.00797755 
-0.0101042 0.823332 -0.00398839 4.24206 19.6312 -0.126354 4.0976 19.8573 -0.126848 
-1.98423 6.6891 -0.0201546 -1.87239 5.9593 -0.0175827 -2.18322 6.40573 -0.0181933 
-0.338902 21.5465 -0.0826458 -0.678452 23.7821 -0.104765 -0.565592 23.1884 -0.105428 
3.65058 17.3655 -0.106399 3.62295 19.5624 -0.121221 -2.89519 16.5871 -0.0487967 
-3.34968 17.0506 -0.0536243 -3.09142 17.0179 -0.0527882 1.3116 21.566 -0.113127 
1.18454 21.8985 -0.113974 1.50117 22.1344 -0.118763 -0.316412 23.1537 -0.107569 
4.48583 22.9888 -0.151138 0.2287 1.17054 -0.00855875 -1.80279 15.3485 -0.0525387 
-2.29753 28.5047 -0.103444 -2.49565 28.0329 -0.0994707 -2.49764 28.649 -0.101739 
-2.77481 4.28349 -0.0123366 -2.56522 3.73409 -0.0137259 -1.58396 15.9343 -0.0582256 
-1.66817 16.3666 -0.0602129 -0.921427 4.84818 -0.0171716 -1.12902 5.37133 -0.0183804 
-1.10053 4.72348 -0.0155971 -1.29114 4.42001 -0.0132256 -1.02301 4.04955 -0.0126141 
3.86391 31.2929 -0.191447 4.04777 31.4076 -0.194115 4.00851 32.3927 -0.198388 
-3.24712 7.21413 -0.0184558 3.63647 31.6269 -0.190379 3.82755 31.6928 -0.192938 
3.71867 31.2404 -0.189512 2.3494 30.8329 -0.17119 -1.57573 30.9218 -0.121197 
-1.71263 30.9228 -0.119549 1.88516 10.1361 -0.0527843 -1.34459 5.06558 -0.015978 
-1.14315 3.80502 -0.0109293 1.04873 31.8262 -0.158405 5.15141 32.7422 -0.213353 
5.06862 32.2761 -0.210067 -2.23947 17.1081 -0.0232229 1.87484 23.8977 -0.133213 
0.199751 30.5036 -0.141825 0.411023 31.3177 -0.14791 4.33142 22.7401 -0.148169 
4.36333 23.1138 -0.150881 0.852699 30.5697 -0.150723 0.514537 3.18359 -0.0169863 
1.64844 22.625 -0.123387 1.92357 22.7761 -0.126847 1.74411 22.2439 -0.121812 
2.24036 12.4588 -0.0672107 2.26266 12.9177 -0.070038 2.44638 12.6888 -0.0693025 
2.46888 13.1468 -0.072212 -0.237362 19.5499 -0.0829893 -0.345953 19.2615 -0.0812624 
-0.183356 19.2607 -0.08279 2.45655 21.2805 -0.122514 -2.19563 16.415 -0.0548588 
-2.41777 16.5843 -0.0547676 -2.32571 16.1491 -0.0507641 3.03246 13.8092 -0.0786589 
3.99851 18.201 -0.114572 3.86943 18.3774 -0.11492 3.84513 17.9941 -0.112064 
-0.185364 1.14656 -0.00385007 0.398047 4.74513 -0.0241462 0.240427 4.85709 -0.0241149 
0.32798 4.1298 -0.0214932 0.184338 4.24158 -0.0213196 3.91938 21.4512 -0.136188 
4.05684 21.2433 -0.135941 4.05972 23.0854 -0.148017 4.09574 23.4476 -0.15064 
-0.176091 28.2549 -0.127782 -0.173903 27.6856 -0.125619 0.614223 3.19081 -0.0166017 
-0.84207 19.5714 -0.0776732 -1.00412 19.6054 -0.0758346 -0.986267 19.325 -0.0755703 
3.83753 10.83 -0.0578902 3.71317 10.9757 -0.0591255 4.22886 21.557 -0.139457 
-0.249372 28.6884 -0.128587 -0.177902 20.1049 -0.0851689 -0.203571 20.3164 -0.0853429 
-0.0275396 20.173 -0.08759 -0.0738987 20.3933 -0.0873351 -3.00028 14.5892 -0.0454289 
-2.82288 14.4447 -0.0466305 -1.75266 3.86335 -0.0103662 -0.140387 2.64528 -0.0128978 
1.35087 26.6675 -0.141014 1.30268 27.1669 -0.142539 -1.68558 18.1523 -0.112049 
-1.82143 17.926 -0.0202417 -1.67916 18.1583 -0.024043 -1.82164 17.9309 -0.10624 
-1.63275 17.7702 -0.125993 4.97923 30.0416 -0.19761 -2.41776 30.1191 -0.108201 
-0.467138 28.4312 -0.12476 -1.17499 6.08722 -0.021258 -1.20657 6.89802 -0.024713 
-0.477707 21.1643 -0.08478 -0.335765 20.6922 -0.0779768 -2.50674 29.2614 -0.103919 
-1.38521 2.43493 -0.00830436 -1.17903 2.21867 -0.00696231 2.90941 31.7683 -0.182246 
2.48626 28.0996 -0.160584 2.33241 27.5054 -0.156092 2.51986 27.5742 -0.158495 
-1.67141 17.4454 -0.0662878 -0.465444 13.4252 -0.0566078 0.542223 30.5394 -0.146499 
0.347958 30.5173 -0.143843 0.466864 30.9782 -0.147286 -0.864675 31.6946 -0.133035 
-0.290267 0.78881 0.00663312 -0.322331 0.803158 0.00396192 -0.881687 1.30363 -0.00614064 
-0.978687 2.28571 -0.00546358 -1.01198 1.8303 -0.00617415 -0.00716868 3.62382 -0.0178467 
-0.405525 20.0677 -0.0820177 0.254048 21.5511 -0.100535 0.0849277 17.0945 -0.0771362 
1.3018 22.4222 -0.118853 1.20835 22.7385 -0.120139 -0.837763 3.64128 -0.0116454 
-0.685853 3.06375 -0.00941113 -1.36933 11.5974 -0.0431878 -1.66291 11.13 -0.0398694 
-1.75823 11.909 -0.042241 -0.426111 12.206 -0.0518318 -2.09077 12.1309 -0.0413176 
-1.80196 2.19994 -0.0270371 0.320412 1.51202 -0.00846049 0.120932 0.200358 -0.00174309 
0.137321 0.219694 0.000556481 -1.28699 12.5799 -0.0474225 -2.00689 17.373 -0.0612113 
-1.86425 17.6092 -0.0657663 -1.54519 16.6432 -0.0625115 2.56347 3.84568 0.0164973 
-1.28805 14.5163 -0.0543608 -0.231841 0.801127 0.00693602 0.550865 25.1754 -0.125104 
-1.85945 16.5316 -0.0599697 -1.17916 15.6034 -0.0600219 -1.28395 15.2884 -0.0577251 
-1.48718 15.4723 -0.0566596 4.60638 27.3992 -0.179244 4.48011 27.581 -0.178971 
4.63912 27.7728 -0.181681 1.30489 7.36812 -0.0373191 3.5828 11.1315 -0.0603687 
3.3439 30.2774 -0.1806 3.13155 30.1883 -0.177728 3.26678 30.7022 -0.181706 
4.7922 31.5431 -0.203244 4.76873 31.9646 -0.205097 -2.41914 14.1587 -0.0451782 
-1.40558 15.0229 -0.0554076 -1.50021 14.6953 -0.0531353 0.946695 25.864 -0.132839 
0.411831 22.7843 -0.117673 0.26391 22.6873 -0.114555 4.72356 30.3605 -0.196457 
4.70032 29.9285 -0.193956 2.65668 28.1288 -0.162642 3.79021 30.119 -0.184904 
3.54327 28.5609 -0.174407 3.46667 28.0992 -0.171248 -1.54628 28.2061 -0.110836 
-1.34096 27.8647 -0.111937 3.53572 29.0353 -0.176718 -0.89849 29.5884 -0.124081 
-1.05492 29.6275 -0.122324 -0.712923 30.9044 -0.131698 3.2538 10.6543 -0.0566878 
2.85119 5.06024 -0.00321398 2.94136 4.97906 0.00117184 1.05136 7.12001 -0.0359013 
1.264 7.72185 -0.0392138 2.92172 10.6146 -0.0565045 3.08185 10.4764 -0.0554564 
3.09733 10.8262 -0.0580115 1.54887 16.9766 -0.0891169 1.51849 16.4948 -0.0862381 
1.74688 16.7722 -0.0895379 3.1863 9.51663 -0.0479715 3.03825 9.68423 -0.0495817 
3.06069 10.0293 -0.0521641 3.21026 9.85954 -0.0506053 2.78994 12.0144 -0.06592 
2.98387 12.2715 -0.0680691 2.96865 11.8058 -0.0648373 3.08725 21.5122 -0.12952 
3.35729 20.3958 -0.124634 2.89529 29.2092 -0.170429 2.73334 29.1599 -0.168339 
1.12365 20.28 -0.103367 4.06772 19.3953 -0.123429 2.16325 15.8782 -0.0872273 
2.38709 16.1277 -0.0901909 2.19242 16.3427 -0.0902072 4.21717 19.2552 -0.123542 
-2.73226 17.9073 -0.0572673 -2.35881 7.89247 -0.0236955 -0.0965378 21.3557 -0.0855754 
-2.43317 16.9115 -0.0571148 4.30032 20.4882 -0.132766 4.15646 20.7139 -0.133182 
2.50551 18.2152 -0.103908 2.48201 17.8405 -0.101407 2.29188 18.0524 -0.101242 
2.6046 26.0564 -0.151801 -1.55883 1.81257 -0.0321477 2.41401 25.4403 -0.146638 
-2.74498 16.6189 -0.0490368 -1.88681 19.569 -0.0689641 -2.0842 19.6525 -0.0677719 
-0.292301 1.13375 0.00245465 -0.385095 1.44321 -7.90823e-07 3.59544 9.10345 -0.0429408 
3.44579 8.89957 -0.0417183 0.859032 4.17861 -0.0213459 2.61188 28.6642 -0.164646 
2.78357 28.6931 -0.166727 -0.208363 1.49547 -0.0057948 -0.142226 1.14799 -0.00562246 
4.16952 32.5077 -0.20084 5.26433 32.4242 -0.213037 -1.88481 24.0407 -0.0902244 
-0.379783 29.5493 -0.130412 0.706115 3.1945 -0.0161087 0.73149 3.69392 -0.0189814 
0.757157 1.48618 -0.000927508 0.681704 1.07338 0.00465505 0.779983 1.13381 0.0116239 
0.976499 1.49884 0.00991268 3.50851 7.07193 -0.0214264 3.40484 24.2988 -0.149568 
2.23236 19.8516 -0.111704 2.02173 19.6074 -0.108342 3.35049 13.4316 -0.0771853 
1.45986 11.252 -0.0576795 1.17833 11.4194 -0.0574051 -2.88452 16.1794 -0.0491707 
-1.90704 26.7916 -0.10122 -2.09736 26.423 -0.0977288 -1.89008 25.891 -0.097903 
-2.56254 30.5767 -0.108285 0.0303779 29.2254 -0.134416 -2.65196 22.9867 -0.0770786 
-2.41227 22.6115 -0.0776285 -2.7289 25.3847 -0.0865017 -2.53921 25.791 -0.0903412 
0.652267 18.1388 -0.0870711 0.888263 18.1615 -0.0895817 0.489719 0.801449 0.000269828 
4.30161 30.1638 -0.190799 4.14539 29.8859 -0.187666 -0.243603 27.0636 -0.122264 
-0.63 22.2263 -0.0995837 -0.479921 22.1675 -0.105539 0.192808 29.2608 -0.136688 
0.0847886 28.723 -0.13309 0.503904 16.9693 -0.0802256 0.147216 27.9418 -0.130845 
-0.413935 19.8172 -0.0822231 -0.0878922 28.7538 -0.130975 1.50997 29.8308 -0.156302 
3.32269 12.2807 -0.0688339 3.97289 31.745 -0.194878 1.59933 12.7339 -0.0661699 
1.78633 12.3374 -0.0647983 3.29564 8.96491 -0.0429763 4.28844 28.7233 -0.183185 
1.33891 18.4898 -0.0955882 3.41199 21.1369 -0.129895 2.86291 32.0929 -0.183077 
1.28405 28.8122 -0.149166 1.56886 31.9071 -0.165604 -0.225321 0.50244 -0.000573543 
-2.62099 14.315 -0.0453377 -0.509728 1.13713 -0.00280597 -0.570902 1.15643 -0.00453849 
-0.679988 1.48782 -0.00375748 3.48695 21.9747 -0.135918 3.63976 21.8212 -0.136247 
3.67277 22.1654 -0.13875 2.02086 4.14209 -0.00881065 1.89971 4.16813 -0.0114989 
2.10439 4.50151 -0.0118813 1.68332 15.0644 -0.0794384 1.92272 14.874 -0.0798423 
1.66909 14.695 -0.077288 2.26595 13.2853 -0.0722652 2.47991 13.5163 -0.0745665 
0.222843 19.9937 -0.0906457 0.151004 20.2465 -0.0908036 0.0354967 19.9309 -0.0877362 
1.44232 14.9385 -0.0771976 2.8692 6.45383 -0.022469 0.820398 17.0999 -0.083648 
0.747521 17.701 -0.0859774 -1.17626 22.0189 -0.0873644 2.07716 24.6798 -0.139371 
2.32549 24.8782 -0.142649 2.12237 24.0949 -0.136574 1.19247 3.62383 -0.0156887 
0.998511 3.13111 -0.0134841 1.08981 3.64883 -0.0167378 0.908294 3.16047 -0.0143607 
3.59372 27.8727 -0.171413 3.64686 28.2727 -0.174037 2.42587 24.3674 -0.140911 
-1.68124 24.4479 -0.0947093 -3.50382 15.7353 -0.05091 -3.92973 14.4243 -0.0509368 
-3.97888 13.8094 -0.0485445 0.849476 3.6849 -0.0184606 0.811239 3.1771 -0.015352 
-2.67292 12.0442 -0.0390452 -2.07227 17.3744 -0.0229759 -3.98219 13.3497 -0.0460879 
-3.81862 13.5741 -0.0469653 -3.77498 12.9845 -0.043622 -2.12428 18.3533 -0.0627589 
-1.99828 18.5734 -0.0646809 -2.02404 11.5698 -0.0396461 0.416169 1.51341 -0.00521047 
-0.892867 5.61799 -0.0208088 -0.673679 5.90439 -0.0233165 -1.67907 9.01496 -0.0312669 
-1.43908 9.42012 -0.0341836 -0.113381 0.189173 -0.000623668 0.0628705 0.24104 -0.00218001 
0.432915 0.810787 0.000648688 0.566732 1.15002 0.000488997 -1.16383 9.88254 -0.0375364 
-1.52786 10.3154 -0.0373003 0.331116 23.2116 -0.11605 2.01893 4.69302 -0.0154725 
1.97114 19.2501 -0.105751 2.6397 5.80311 -0.0183705 2.81874 6.08534 -0.0189564 
1.82292 4.36602 -0.0149063 1.73073 3.78115 -0.00999514 4.51608 24.761 -0.16272 
4.47845 24.3942 -0.160083 4.36148 24.5412 -0.15992 2.05462 3.93048 -0.00464706 
-1.19748 22.4228 -0.0899221 3.11917 5.26194 0.000459353 1.61362 3.90442 -0.0133304 
1.69726 4.40008 -0.0169669 1.49828 3.94444 -0.0152251 1.31342 3.55896 -0.0139732 
1.36531 4.00353 -0.0171938 1.97981 29.9325 -0.162671 3.13395 11.6495 -0.0639743 
2.95583 11.4379 -0.0622718 2.61437 11.8001 -0.0641505 2.62551 12.1625 -0.0665148 
3.65391 30.4055 -0.184764 -0.307164 22.0573 -0.113459 2.39223 26.9668 -0.154178 
2.22284 26.4594 -0.149936 2.99667 12.6187 -0.0704751 2.80279 12.3624 -0.0682537 
2.44161 12.346 -0.0671639 2.64292 12.6057 -0.0694002 2.19859 19.3879 -0.108568 
-0.00344272 28.2221 -0.12995 2.48427 13.9727 -0.0774201 2.67815 13.7827 -0.0770637 
2.02304 23.5113 -0.132259 -0.863602 4.17479 -0.014164 3.8529 22.4173 -0.141924 
4.02465 22.6342 -0.144816 2.59415 11.3267 -0.0610473 2.7568 11.1731 -0.0602632 
3.60918 21.4542 -0.133609 2.32813 23.781 -0.136632 0.743643 19.7823 -0.0963359 
0.518444 19.7627 -0.0935897 3.42585 30.7691 -0.183875 3.62418 30.8499 -0.186561 
0.0612283 3.13819 -0.016445 -0.723375 0.926372 -0.00679597 2.55864 25.1144 -0.146314 
3.89565 27.8247 -0.174287 3.71 26.2176 -0.163602 1.45509 13.9758 -0.0721274 
-1.04355 19.8829 -0.076195 -1.01913 22.4462 -0.0919481 -0.80272 22.3026 -0.0951688 
1.10902 3.09943 -0.0121296 0.94078 2.69229 -0.0102753 0.769597 2.28529 -0.00820248 
2.29385 22.7012 -0.1298 2.25275 23.162 -0.132196 2.61437 20.6937 -0.120266 
2.07374 6.08013 -0.027169 3.0304 29.7414 -0.174469 1.60414 30.3546 -0.159698 
0.639818 22.7336 -0.116689 0.80164 22.9847 -0.119496 0.695668 22.5208 -0.114701 
-2.07021 16.6903 -0.0602018 -2.14432 17.1212 -0.0586778 1.63397 13.1578 -0.0686382 
1.62426 13.742 -0.0717894 1.89268 13.1773 -0.0699939 1.74372 11.3799 -0.0593622 
1.92828 11.071 -0.0581793 1.9237 30.3868 -0.163913 -1.22474 2.57225 -0.00690575 
2.07669 22.6279 -0.127346 1.0483 30.5999 -0.15345 1.62283 31.4866 -0.164611 
1.43401 31.4535 -0.161993 3.98243 28.6677 -0.179645 4.02217 29.1034 -0.182328 
-0.441835 6.49483 -0.0273396 -0.402885 5.68351 -0.0238899 -0.132745 5.84026 -0.0260503 
-0.23258 5.17528 -0.0227728 4.86991 30.2004 -0.197239 0.113774 3.65052 -0.018661 
-1.57437 8.19672 -0.0283315 -1.26845 7.7109 -0.0278821 1.71695 19.965 -0.107627 
-0.0641626 5.15388 -0.0237169 5.12789 32.024 -0.209467 -0.640671 19.3427 -0.0793565 
-0.5283 19.5672 -0.0802277 -0.650603 19.6216 -0.0794683 0.95911 15.4845 -0.0766627 
-1.33805 16.4652 -0.062894 -1.14236 16.3098 -0.0636457 -1.22754 16.7579 -0.064966 
4.15043 31.8342 -0.19737 -0.592993 10.8109 -0.0448386 -0.912271 10.3043 -0.0407405 
1.23111 15.2446 -0.0774278 -2.72088 5.4469 -0.0137699 1.48385 15.432 -0.0801549 
2.37484 22.0285 -0.126402 -0.0704931 0.50978 -0.00347735 -0.120682 0.814303 -0.00233391 
-0.0898533 0.506386 -0.00417785 4.06224 32.097 -0.197613 -0.111039 1.50966 -0.00825734 
-0.104853 1.85034 -0.0098617 3.94816 25.096 -0.159402 3.89787 24.6254 -0.156112 
3.75634 24.7809 -0.155721 2.07863 13.0255 -0.069935 2.07555 12.6573 -0.0677756 
0.280017 30.9598 -0.144734 -2.3459 19.8907 -0.0667513 -0.298015 15.3334 -0.0662652 
-0.0699363 15.0903 -0.0669215 -0.704113 14.8791 -0.0609758 -0.736267 14.4746 -0.0589866 
0.284963 11.0819 -0.0512712 0.543213 10.5668 -0.0504113 0.541796 11.3926 -0.0541318 
-0.0496269 11.4053 -0.0508186 1.39326 17.3943 -0.090128 1.22799 16.8622 -0.0858883 
-0.170357 9.66908 -0.0424153 -0.169091 10.5708 -0.0463159 -2.55865 5.77204 -0.0149432 
-1.35116 28.4241 -0.114011 1.23034 11.923 -0.0601759 1.32225 12.5182 -0.0636844 
-2.00313 29.5431 -0.110753 -1.91043 29.0309 -0.109849 -0.486664 10.0508 -0.0422543 
-0.776809 9.46902 -0.0380569 2.77845 8.24774 -0.0394382 1.8576 12.7535 -0.067427 
3.44501 19.3096 -0.118174 0.7986 13.811 -0.0672467 0.868125 13.224 -0.064767 
-2.10142 28.8486 -0.106955 4.43557 27.1305 -0.175984 4.56298 26.9859 -0.176451 
4.40418 26.7713 -0.173626 0.560602 22.1562 -0.109605 -2.01128 30.927 -0.116055 
0.178098 19.308 -0.0872036 -2.17949 29.5685 -0.108826 3.344 9.7246 -0.0492298 
3.52288 9.98994 -0.0510671 -2.27706 16.8926 -0.0581508 1.20472 1.51509 0.0359003 
-0.0955643 0.840051 -0.0055193 -0.952054 3.50374 -0.0102499 3.6399 28.7469 -0.176393 
3.70571 29.1788 -0.179289 0.613468 1.14769 -0.0005805 -0.497589 20.2378 -0.0805085 
-0.415311 20.4705 -0.0813507 -0.666634 20.3565 -0.0791551 -0.594715 20.6172 -0.0794902 
3.6096 24.9905 -0.155582 3.978 17.8269 -0.111794 -2.21759 21.3669 -0.0738833 
-2.258 20.6269 -0.0703315 3.80283 17.5678 -0.108799 2.39619 32.0762 -0.177074 
2.56329 32.113 -0.179371 4.11851 25.261 -0.161999 4.16393 25.7385 -0.165264 
4.49814 32.606 -0.205163 4.37969 32.241 -0.202006 4.56084 32.2746 -0.204261 
-0.127935 18.9367 -0.0823267 -0.299262 18.9351 -0.0806808 -0.499462 19.2725 -0.0797128 
-0.611601 19.0286 -0.0786258 -1.60855 14.3769 -0.0510778 -1.77044 17.5223 -0.00405745 
4.43886 31.9503 -0.201258 4.32286 32.5131 -0.202667 0.83723 0.979392 0.0457348 
1.04279 1.20051 0.0498259 3.73664 18.9541 -0.117958 3.91026 29.3595 -0.182426 
2.72999 27.6801 -0.161286 4.23977 32.1859 -0.200111 -0.836249 14.6267 -0.0588028 
-1.01968 14.6873 -0.0574392 -2.34411 3.23304 -0.0160425 0.215358 0.862287 -0.00558766 
0.241262 0.828777 0.00178704 -0.96395 21.6033 -0.0859131 -0.80477 21.6405 -0.0880824 
-1.02625 22.0803 -0.0892101 2.02848 17.3988 -0.0952923 2.23586 17.2127 -0.0957328 
2.25965 17.5729 -0.098087 -1.05797 31.6904 -0.130625 1.22881 19.8804 -0.102219 
1.97113 16.5109 -0.0896788 0.977497 16.6249 -0.0826222 0.728699 16.6457 -0.0806273 
0.754504 22.2868 -0.112606 2.00121 22.1376 -0.123604 2.13245 18.2319 -0.101048 
1.91671 18.3467 -0.0999394 -0.202343 20.4787 -0.0834925 -0.65836 1.13261 -0.00524081 
-0.521011 0.834738 -0.00491634 -0.467413 0.812479 -0.00368319 -0.329557 0.519323 -0.00636215 
2.39758 29.0815 -0.164051 2.49407 3.90742 0.0111592 2.69068 4.18855 0.0116775 
4.29315 31.8959 -0.199313 0.627877 23.1037 -0.11981 2.90202 10.1652 -0.0533251 
2.50057 14.351 -0.0798481 2.51062 14.791 -0.0826406 0.186753 0.502732 0.0143533 
0.168903 0.521187 0.00193621 2.93587 10.9798 -0.0590643 -1.27203 10.7317 -0.040378 
2.69356 9.53289 -0.0491337 2.88417 9.81289 -0.0508395 2.86453 9.47122 -0.048378 
1.37907 5.49578 -0.0271223 1.33015 5.05436 -0.0247679 3.14249 12.0135 -0.0665797 
0.0900791 2.67267 -0.0149153 1.46996 7.6545 -0.0389301 1.66162 7.32645 -0.0370502 
1.45623 7.25039 -0.0368529 1.64109 6.92348 -0.0347673 3.62024 7.87688 -0.0301376 
3.18641 24.1834 -0.146853 3.34355 23.964 -0.147009 2.36179 15.3052 -0.08498 
2.37811 15.7578 -0.0878605 3.30538 25.7263 -0.156897 3.50887 25.9714 -0.160247 
3.36759 26.2128 -0.160215 3.13989 23.7237 -0.143686 1.40062 26.0481 -0.139211 
1.1888 25.9131 -0.135961 3.54411 10.328 -0.0538494 3.3332 22.1784 -0.135877 
3.29787 21.8298 -0.133358 3.45235 21.6254 -0.133389 0.486693 1.91318 -0.00843225 
-2.53231 20.2431 -0.0671524 -1.51993 18.6476 -0.0693598 2.38933 11.5293 -0.0619807 
2.37263 11.1744 -0.0597408 5.04284 30.8523 -0.202537 -3.26608 13.4039 -0.0441433 
-2.38526 29.8363 -0.107498 0.433987 1.16083 0.00139381 0.524368 1.51239 -0.00225159 
0.389672 1.16825 0.000492619 -1.70288 31.5596 -0.122211 2.65904 13.3165 -0.074003 
1.88081 5.79539 -0.0264927 3.10575 15.8801 -0.0929355 2.91117 15.6105 -0.0900509 
3.12208 16.2521 -0.0955149 3.73822 15.933 -0.0968263 2.69446 14.1605 -0.0795529 
3.96776 14.3755 -0.0865081 3.98029 13.9673 -0.0834564 4.07476 28.0732 -0.177478 
4.21436 27.915 -0.178068 4.25208 28.2669 -0.180365 3.67907 25.8406 -0.161166 
3.48343 25.5903 -0.157843 -1.38407 24.7887 -0.0994203 -2.16693 22.938 -0.0817626 
-1.86689 23.2765 -0.0863261 -0.935627 25.0678 -0.106334 -0.516754 20.8512 -0.0811515 
-0.769819 20.6768 -0.0797979 -2.21278 14.8648 -0.0459227 -2.12488 14.3998 -0.0465957 
2.44857 30.0087 -0.168804 2.34375 29.567 -0.165566 4.97141 31.9081 -0.20711 
-0.117231 0.215683 2.13968e-05 -1.20123 1.31693 -0.0444912 0.471579 1.50541 -0.00326589 
0.697588 1.49358 -0.00138548 -1.07344 15.9285 -0.062474 -0.995609 15.496 -0.0612045 
-1.63699 2.21643 -0.0157742 -1.44827 1.82157 -0.0191562 -1.09248 1.42604 -0.0132316 
-0.0164627 0.516554 -0.00458488 -0.0389681 0.837958 -0.00673459 -0.107872 20.5674 -0.0868025 
3.60061 19.1995 -0.118615 0.0115973 0.82577 -0.00425485 0.0024615 0.517785 -0.00562808 
-0.013234 19.2736 -0.0847613 -0.0765859 19.564 -0.085025 0.101448 19.6334 -0.0875396 
1.90838 25.2406 -0.140699 2.10577 25.8405 -0.145782 2.18606 25.2566 -0.143564 
2.09898 17.7528 -0.097921 2.95512 31.4361 -0.181325 2.01316 29.538 -0.161391 
-0.677525 30.4444 -0.130279 -1.86094 31.6842 -0.120803 -1.94852 31.2466 -0.118053 
-1.77767 31.2476 -0.120086 1.81418 19.5225 -0.105946 2.73472 15.4118 -0.0877825 
-1.14473 1.96097 -0.00699424 -0.816586 0.979129 -0.0136857 3.65322 20.029 -0.124579 
3.57533 18.7618 -0.115474 2.58807 8.01346 -0.0385732 3.37261 18.1319 -0.109756 
-1.58862 2.37728 -0.0120623 -1.41083 2.23663 -0.00943718 2.54738 7.55679 -0.0353427 
0.0775362 0.229034 -0.00085282 -0.0139733 0.192326 -0.00119861 3.94353 30.2142 -0.187083 
2.81314 8.69125 -0.0427214 2.5078 7.19313 -0.032744 0.448021 0.541191 0.0187423 
0.196256 0.183016 0.00636128 -0.153398 2.21614 -0.0107923 3.25664 15.6217 -0.0920252 
1.29933 1.90386 0.0161578 2.33534 31.2861 -0.172964 0.682496 1.90772 -0.00530303 
2.43323 4.0459 0.00485527 2.61241 4.24776 0.00677054 2.54338 4.38948 0.000992877 
-0.799984 21.9375 -0.091518 -0.975422 20.7556 -0.0800628 0.295111 16.2369 -0.0749927 
0.537433 16.1161 -0.0764813 -0.748382 17.8227 -0.0727629 4.39372 24.9101 -0.16249 
3.15852 26.0172 -0.15707 1.95558 2.69585 0.0269196 -1.2093 14.8891 -0.056645 
-1.08908 15.1555 -0.0588861 1.21403 17.6531 -0.0899404 1.42534 18.0074 -0.0937275 
3.91837 16.5453 -0.102268 -2.47928 20.9883 -0.0703091 4.25693 25.1085 -0.162404 
3.26345 23.1567 -0.141359 3.41007 22.969 -0.141513 0.662492 21.8118 -0.107409 
0.521507 21.4061 -0.102729 0.726478 21.5422 -0.106225 2.0765 4.93158 -0.0170975 
3.52454 22.4228 -0.1391 3.71028 22.614 -0.141939 1.72329 5.88701 -0.0280863 
-1.7208 28.5339 -0.110135 -1.91229 28.3542 -0.107219 -2.30889 26.8694 -0.0971495 
4.2384 26.5656 -0.170792 4.26724 26.9319 -0.173168 3.61595 16.5593 -0.10056 
2.0131 27.738 -0.153551 4.19111 26.1112 -0.16771 4.29669 24.1268 -0.15674 
4.43475 23.9393 -0.156811 -3.40149 6.84438 -0.0167432 4.80874 26.6272 -0.176846 
-2.32303 26.1827 -0.0943652 -2.70843 27.7393 -0.0960259 0.194714 20.8393 -0.0945578 
0.271258 20.6459 -0.0946048 0.0829577 20.4999 -0.0906791 1.03031 14.8574 -0.0740109 
1.66655 9.94665 -0.0513554 -0.133709 19.856 -0.0852151 2.42392 30.4909 -0.170627 
-0.239962 18.6136 -0.0801943 -0.053604 18.5903 -0.0817905 4.61279 24.1895 -0.160028 
4.63031 24.6109 -0.162856 -0.155862 1.48813 -0.00699466 -0.221561 1.84171 -0.00766339 
-0.158205 1.85442 -0.00899125 0.121876 1.87313 -0.0122562 0.17831 2.24507 -0.0137184 
-2.30248 28.9953 -0.105245 3.03541 18.1298 -0.107332 1.86636 2.87264 0.0129318 
1.67492 2.47923 0.0167271 1.67794 2.69781 0.00866728 4.1225 28.4659 -0.180067 
4.35698 26.3166 -0.170529 4.53141 26.5766 -0.173778 -1.98619 16.2598 -0.0558838 
-1.79115 16.0989 -0.0575126 -1.89371 15.8031 -0.0539017 -1.68595 15.6426 -0.0554466 
-1.60341 15.1806 -0.05404 -3.09818 15.0725 -0.0526266 -1.15886 22.8275 -0.0934125 
-0.959281 23.8036 -0.101111 -0.396883 25.7234 -0.115163 5.18421 31.0532 -0.20515 
2.25638 31.6193 -0.173366 1.06404 23.8276 -0.126282 4.35267 31.6053 -0.198571 
0.441072 15.6618 -0.0734824 5.34925 32.7227 -0.215513 1.48749 31.1263 -0.161369 
3.22535 26.3708 -0.159662 -2.10744 27.1841 -0.100509 -2.10664 28.0768 -0.103952 
-2.30507 27.6086 -0.0999703 1.52885 3.40682 -0.00921581 1.42507 3.53736 -0.0123407 
1.57191 5.97325 -0.029364 1.52633 5.52933 -0.0266562 2.06008 30.7824 -0.167328 
0.660205 0.82448 0.0264392 1.01333 1.30488 0.0299789 -2.38446 6.08221 -0.016402 
-2.67948 6.48256 -0.0171008 2.19832 29.5731 -0.163826 0.0186244 2.67146 -0.0144591 
1.20714 3.07142 -0.0107843 1.02799 2.68914 -0.00932009 4.1298 18.0075 -0.114091 
4.1721 22.5331 -0.145436 4.20818 22.8923 -0.148082 4.02547 20.864 -0.133134 
3.16304 9.1833 -0.0453297 2.01278 16.1455 -0.0878163 3.17923 22.3496 -0.135592 
2.89572 15.165 -0.0870496 -0.419954 16.9629 -0.0722431 2.27471 12.1429 -0.0654087 
2.40056 11.8929 -0.0642298 2.52768 15.147 -0.0849532 2.33407 14.9537 -0.0826897 
-2.69832 4.54884 -0.0123824 1.25035 4.05946 -0.0185184 1.06532 5.64711 -0.028681 
1.9705 3.61445 -0.00152679 0.58841 21.1423 -0.101825 0.466737 20.7392 -0.0979415 
1.54164 25.3075 -0.137439 1.17355 28.2254 -0.145318 3.5586 22.7703 -0.141592 
2.49485 26.4909 -0.152897 -1.80153 20.0089 -0.0711769 4.36993 21.3463 -0.139195 
4.38088 21.7575 -0.142065 2.48815 8.97192 -0.0456493 2.50719 9.31665 -0.0479392 
3.14669 31.4805 -0.183849 3.29657 31.5152 -0.185815 3.48353 31.5724 -0.188323 
-0.903574 15.0893 -0.0601178 1.26176 8.12452 -0.0412077 1.47898 8.04521 -0.0409465 
1.20397 8.77164 -0.0442299 1.42615 8.68924 -0.0443091 0.213194 3.66611 -0.0191758 
1.47971 1.82615 0.0431511 1.70245 2.21122 0.0352633 1.91599 2.78627 0.019543 
0.84379 2.27757 -0.00738215 0.927683 2.26012 -0.00629196 1.39037 12.9807 -0.0664406 
2.11501 14.691 -0.0798848 4.05043 16.3924 -0.101939 3.90606 16.1882 -0.0996161 
4.4029 23.5804 -0.154239 4.24771 23.3587 -0.151433 3.32505 19.938 -0.121381 
3.30219 19.5778 -0.118843 3.47887 19.7778 -0.12154 4.05351 15.9946 -0.0990369 
4.72482 25.3829 -0.168542 4.69164 25.0224 -0.166005 2.1089 5.28697 -0.0202554 
0.616587 1.89751 -0.00599504 1.66964 5.46521 -0.0255599 4.96006 28.2647 -0.187783 
4.81131 28.0511 -0.185025 4.84536 28.4057 -0.187355 -0.767438 20.107 -0.0779532 
-0.885063 19.8561 -0.077173 -0.731601 19.8075 -0.0785848 -2.03867 20.2761 -0.070635 
0.154855 12.6629 -0.0576069 -0.239646 0.206494 -0.00600504 5.01354 28.7 -0.190766 
-2.41346 4.19347 -0.0121291 -2.46765 3.88057 -0.0124395 2.52003 9.76117 -0.0508539 
0.657808 1.12833 0.00100616 0.464522 0.807527 0.00135571 2.85517 5.56419 -0.0114728 
-0.305429 20.0656 -0.0835609 -0.280364 19.8155 -0.0830185 -2.34339 12.4023 -0.0411566 
0.531594 0.612352 0.0432788 3.52225 8.35784 -0.0360611 3.40461 8.4878 -0.0380608 
1.49757 2.9293 -0.00354611 1.61177 2.96724 -0.000497479 -2.19814 17.9696 -0.0608036 
-1.95052 17.6664 -0.065594 -2.06098 17.593 -0.118053 0.3855 20.9491 -0.0978504 
-1.54349 17.6913 -0.0647795 -2.0011 31.6518 -0.119018 -2.17028 31.647 -0.116996 
1.30616 30.2414 -0.155355 1.10548 30.2051 -0.152595 2.24764 32.0443 -0.175028 
-2.32376 31.6161 -0.115072 1.33307 31.085 -0.159197 3.29785 5.99421 -0.0089465 
3.89563 11.5709 -0.0641755 3.27892 7.35713 -0.0276236 3.48765 8.00812 -0.0326966 
3.15111 7.49581 -0.0303038 0.974016 17.7257 -0.0881634 3.7674 16.3614 -0.100052 
4.14583 23.9092 -0.153996 0.250694 3.17977 -0.0173341 -0.783895 3.05413 -0.00873594 
-2.73185 22.1436 -0.0725439 4.87507 28.7506 -0.189562 1.44836 22.9116 -0.123251 
2.63029 30.0486 -0.171175 2.56803 30.5102 -0.172482 -1.63298 17.7595 -0.000527681 
3.29703 11.4637 -0.0627785 3.31432 11.9175 -0.0661667 -2.19725 22.1442 -0.0776071 
-2.44937 21.8112 -0.0738237 -0.436551 2.23827 -0.00651064 2.92018 27.7627 -0.163734 
-0.629117 21.564 -0.0905739 1.63903 17.4307 -0.092357 2.01199 16.9915 -0.0927712 
3.21418 6.96304 -0.0238551 2.76068 30.5583 -0.175037 3.06775 30.6292 -0.179023 
0.977222 29.7177 -0.1489 0.884616 29.2744 -0.145883 2.15213 31.25 -0.170477 
1.81038 3.2004 0.00135654 1.60003 2.78438 0.00286674 3.01122 4.85205 0.00654274 
0.561318 4.77402 -0.0245979 2.75129 5.70282 -0.0153219 0.716546 4.7865 -0.0247034 
-1.36131 20.1882 -0.0752461 -3.25986 15.0822 -0.0579431 2.64778 12.9477 -0.071615 
2.82025 12.8046 -0.0712203 3.78451 21.6061 -0.136078 3.81977 22.0727 -0.139418 
3.01083 27.3555 -0.162624 3.98478 29.784 -0.185386 -2.84643 6.13171 -0.0155222 
0.282481 0.493276 -0.00276952 0.150228 0.208349 -0.00115608 0.302761 0.488439 -0.00152225 
2.22045 22.2092 -0.126139 -0.498812 2.21372 -0.00555665 1.28006 20.768 -0.107901 
4.55075 28.3757 -0.184084 4.42388 28.5371 -0.18362 -0.227144 16.8656 -0.0734819 
-0.312241 17.2572 -0.0743663 -0.350691 18.3259 -0.0780509 -0.519331 18.3725 -0.076734 
1.42989 21.1957 -0.112101 1.23569 9.85203 -0.0497859 0.943511 9.39942 -0.0466061 
-0.658661 22.7381 -0.103914 -0.485981 29.1067 -0.127277 1.4162 2.35373 0.00598618 
1.65772 14.1741 -0.0743671 -1.6597 25.4482 -0.0988781 -2.22663 18.2523 -0.0614386 
4.19045 31.4695 -0.196055 -1.77635 19.2177 -0.0685372 -2.96256 6.81781 -0.017635 
-0.432716 22.6242 -0.108412 2.54486 29.0981 -0.165867 1.73337 21.216 -0.115325 
1.5192 20.7657 -0.110403 1.88681 20.8591 -0.114637 -0.197166 0.800289 0.00614362 
1.86311 21.8866 -0.120728 1.61741 21.7657 -0.117591 -0.00791312 0.22523 -0.00214636 
1.62785 4.91613 -0.0219219 0.156525 0.86479 -0.00851094 0.261255 21.3758 -0.0982494 
0.392825 21.7315 -0.102668 0.432257 21.5308 -0.101854 -3.00825 11.3148 -0.035589 
-2.85434 11.7197 -0.0374036 3.2223 22.7924 -0.138742 1.19951 30.6196 -0.155513 
0.131168 0.189672 1.04349e-05 3.72971 8.94565 -0.0408386 1.07181 12.8155 -0.0639121 
-0.854229 24.3183 -0.105121 3.77718 28.056 -0.174283 3.80451 28.4921 -0.176845 
3.93501 28.275 -0.177082 -0.652084 24.9415 -0.109196 1.47913 9.64753 -0.0493849 
1.24404 9.19798 -0.0465184 -1.87407 10.6937 -0.0370591 1.41241 3.01671 -0.00673926 
1.63864 3.39362 -0.0068144 0.957077 3.66909 -0.0178549 -0.604993 20.0176 -0.079713 
-0.826522 20.4141 -0.0785818 1.42179 10.1469 -0.0518255 -1.07335 9.04844 -0.0346214 
-1.90802 14.228 -0.0481099 0.0829204 5.31598 -0.0253139 -1.33671 8.58488 -0.0312036 
3.46823 12.1303 -0.0679863 4.03496 27.6669 -0.174875 4.16973 27.4651 -0.175153 
-1.6657 2.72959 -0.0105449 1.49259 4.97946 -0.0233755 -0.748068 1.5012 -0.00446469 
-0.767366 1.42541 -0.0051966 -0.302568 0.520114 -0.00595253 -0.342972 16.5683 -0.0712796 
-0.137255 16.3907 -0.0721746 -1.22713 17.7908 -0.0675069 -0.680829 18.4426 -0.0757272 
-0.723896 18.773 -0.0764984 2.65966 7.0685 -0.0305771 3.55569 8.69464 -0.0392101 
-0.748296 2.50321 -0.00566943 0.130964 30.9472 -0.14274 4.08535 16.8037 -0.105146 
2.41454 16.6124 -0.0933443 2.41714 17.0016 -0.0957589 1.8037 25.6841 -0.141803 
3.53391 24.1434 -0.149832 3.57967 24.6194 -0.153104 3.86883 29.7893 -0.184134 
-0.503518 1.80537 -0.00225792 -0.41745 1.13436 0.00162563 -1.04446 12.637 -0.0492242 
0.715109 15.5323 -0.0750766 0.544178 15.0423 -0.0713956 0.794515 23.3578 -0.121307 
0.270438 15.2233 -0.0702278 -0.0840123 12.2366 -0.0541752 0.980394 19.8733 -0.0994928 
0.350211 1.16324 -0.00146841 0.267546 0.830302 0.00480912 0.178328 2.69816 -0.0153574 
-0.0206606 16.7698 -0.0747902 2.75189 4.69448 0.00137118 -1.50225 12.268 -0.0448896 
2.95338 5.47067 -0.00787181 2.32392 14.5134 -0.0799557 1.33451 19.4406 -0.100831 
-1.82965 18.6713 -0.0667301 4.54299 23.3969 -0.154305 4.28374 23.7212 -0.154069 
3.69781 8.61177 -0.0375932 1.07647 29.3051 -0.148501 3.65749 8.22188 -0.0336885 
3.87592 11.2133 -0.0611605 0.785876 16.0887 -0.0783694 4.79779 29.3721 -0.192085 
-2.68474 28.2931 -0.0983504 1.6832 10.9325 -0.0567419 1.69024 10.4902 -0.0543387 
-0.467718 1.13453 -0.000797141 -2.73724 10.9832 -0.0348872 -0.15378 0.836404 -0.00225539 
2.54298 15.5082 -0.0872988 2.56004 15.9608 -0.0902385 -1.14932 20.2935 -0.0768627 
0.847715 11.1024 -0.0543764 0.874731 10.5969 -0.0520822 1.43918 9.06818 -0.0463047 
1.79566 6.81554 -0.0337066 1.7671 6.26999 -0.03033 2.00393 12.2409 -0.0650746 
-0.370282 0.830979 -0.00202063 1.18111 31.0644 -0.157086 1.98513 2.50838 0.0448328 
1.73567 2.1588 0.0444046 1.75887 2.11668 0.0549362 4.80968 29.77 -0.194323 
-1.90334 3.31134 -0.0105565 -0.555065 1.7807 -0.00192689 -0.396887 0.818247 -0.00218583 
-0.0436331 0.19126 -0.000467968 1.75995 3.4336 -0.00446698 0.944474 28.807 -0.144741 
4.1892 21.0844 -0.135952 -0.306532 20.2687 -0.0833109 0.027567 20.6958 -0.090806 
-3.72111 14.6981 -0.0519717 0.52143 29.2757 -0.141088 1.9051 29.1583 -0.15839 
1.95815 28.2689 -0.155177 -0.847972 0.956197 -0.0211167 -0.920363 0.98632 -0.0313807 
2.4438 5.51853 -0.0180824 2.79228 20.0556 -0.117789 0.194748 24.1585 -0.116424 
2.52469 29.6072 -0.167926 3.36729 31.1052 -0.184759 0.323599 21.1967 -0.0981537 
3.52002 31.1599 -0.186819 -2.10153 15.9841 -0.0516514 -2.32914 15.3876 -0.0442713 
3.21806 31.0703 -0.182835 4.91892 32.2529 -0.208249 1.5357 23.4469 -0.127624 
1.75241 23.3558 -0.128795 1.56876 25.8707 -0.14021 3.17899 13.2857 -0.0755881 
3.01079 13.0831 -0.0736697 2.95851 28.7863 -0.169135 3.02186 28.3048 -0.167499 
2.84789 28.2119 -0.165147 2.20645 4.40881 -0.00838918 1.76237 17.1791 -0.0919368 
3.54206 14.5451 -0.0859036 4.55579 23.8061 -0.157061 1.88053 7.70592 -0.038851 
1.90723 8.10687 -0.0411787 3.05813 14.6148 -0.0841962 -2.79637 20.4972 -0.0659001 
3.62551 25.3547 -0.157854 0.044562 0.827848 -0.00538292 0.0126278 0.513689 0.000593739 
-0.000381328 0.199251 -0.00361293 3.72641 24.4092 -0.153216 -0.921186 16.8815 -0.0677727 
-0.796969 17.1708 -0.0698979 0.9456 30.192 -0.150423 -1.40694 17.9418 -0.062573 
-1.97298 25.0806 -0.0938704 -2.75648 26.3084 -0.0900066 2.97934 30.1375 -0.175716 
0.252954 2.26014 -0.0136642 0.176086 1.87805 -0.0123167 -0.451711 0.848823 -0.00561402 
3.30412 23.6093 -0.144496 -0.633002 18.1032 -0.0748643 -0.50398 17.375 -0.0732455 
-1.09964 18.0336 -0.0699265 -3.39524 14.0686 -0.0485175 1.33921 23.2554 -0.124679 
1.02288 1.45362 0.0164491 0.129876 6.20136 -0.0293862 -0.612147 1.1462 -0.00528216 
0.576119 21.9383 -0.10735 -1.15116 2.70882 -0.00681688 1.22906 1.93681 0.00908004 
-1.10876 17.0231 -0.0668402 3.45112 11.6776 -0.0645415 3.87081 28.9237 -0.17978 
1.60173 6.51881 -0.0324649 1.04694 17.1236 -0.0857412 1.09425 28.8038 -0.146664 
1.84367 3.75007 -0.00721898 3.18877 13.6479 -0.0781472 0.397528 27.3684 -0.131774 
0.346667 27.8075 -0.132893 1.2222 27.7122 -0.143762 -0.389119 11.3707 -0.048429 
1.71661 8.21415 -0.0418974 1.67211 8.63375 -0.0442381 3.88793 22.8681 -0.145116 
2.30708 25.8725 -0.14794 -2.70253 21.4192 -0.0699323 3.19069 29.8097 -0.17663 
1.70621 7.82417 -0.0397404 -0.684983 17.4435 -0.0719229 2.44674 22.5221 -0.130099 
0.774475 12.6862 -0.0615704 0.977981 12.2751 -0.0607055 0.927123 11.7728 -0.0579688 
3.86569 24.2645 -0.153623 2.19398 16.7319 -0.0925533 -2.69022 30.4682 -0.106408 
2.57765 16.3325 -0.0926832 -0.610624 2.10737 -0.00385466 1.3205 1.52445 0.0577728 
3.36736 22.5255 -0.138367 4.30414 27.3218 -0.175729 -1.38502 3.0592 -0.00825916 
-1.76445 17.523 -0.13114 -0.0230601 27.4005 -0.126423 0.0632513 23.6643 -0.11333 
0.200669 27.4141 -0.12938 0.00420366 26.888 -0.124678 -0.638339 21.2338 -0.0847573 
2.44005 17.3619 -0.0981355 4.72116 28.5539 -0.186854 0.124129 1.49543 -0.0107144 
1.4403 4.52696 -0.0206056 1.57563 19.4932 -0.103505 1.56615 4.47604 -0.0190256 
4.68208 28.1935 -0.184467 1.90928 10.6786 -0.0559028 -0.501631 0.546645 -0.0106 
4.31236 20.9152 -0.135793 0.146016 0.182053 -0.00159602 1.47704 2.26192 0.0127116 
1.12739 18.09 -0.0914683 2.76992 11.5422 -0.0627352 1.4657 14.4968 -0.074966 
0.842707 1.14219 0.0190261 -0.387425 19.543 -0.0816274 2.974 19.9484 -0.118613 
3.94426 13.5609 -0.0801926 1.78347 28.6477 -0.15467 -1.90595 2.73761 -0.0131218 
-1.65333 18.1606 -0.0688303 0.14971 3.1526 -0.0169795 -1.43656 18.3151 -0.0689055 
-1.5828 18.0861 -0.0697813 2.6244 20.3133 -0.11798 -2.05237 7.44203 -0.0230821 
-0.328384 1.12595 0.00278997 0.295395 23.6542 -0.117231 -1.84076 30.9279 -0.118069 
-3.50581 7.5682 -0.0191015 -0.190725 31.6153 -0.141267 2.83623 4.62817 0.00572108 
3.84813 14.8961 -0.0898666 -0.132263 0.189234 -0.00190423 0.0562436 18.9362 -0.0842864 
-1.29212 3.15752 -0.00827292 -2.92822 10.6613 -0.0331905 -0.295118 2.21538 -0.00861926 
0.377991 24.6934 -0.120961 -1.90976 27.5502 -0.104129 -0.167627 0.23005 -0.00226581 
-0.681866 2.08237 -0.00363336 0.301151 19.6644 -0.0902762 3.91419 12.0235 -0.0679328 
4.75876 29.0168 -0.189761 -1.28783 19.4534 -0.0729043 3.39884 18.5659 -0.112863 
3.11845 11.2822 -0.0613218 0.0435591 25.2605 -0.11867 
Displacement%20Magnitude 1 9350 double
0 0 0 0 32.085611469 32.081618356 33.582734457 33.577498234 16.380896781 
16.372988486 15.973425635 15.969938144 20.807073865 20.780611378 21.079964809 21.060757432 0 0 
0 0 0 0 0 0 0 0 0 
0 0 0 0 0 0 0 0 0 
0 0 0 0 0 0 0 0 0 
0 0 0 0 0 0 0 0 0 
0 0 0 0 0 0 0 0 0 
0 33.461417443 33.357183586 33.251478988 33.144370526 33.04723765 32.951384764 32.851504459 32.753766939 
32.661043554 32.573793767 32.490083849 32.399522219 32.328559105 32.256248703 32.194568262 32.143689867 32.099324088 
32.070141519 32.047319256 32.03361236 32.029340704 32.030937353 32.036848528 32.045521145 32.054800032 32.064734516 
32.075219014 1.636989129 2.7035221857 3.5637230144 4.2996278035 5.0508615617 5.7352359941 6.4289050126 7.0504004746 
7.6371634934 8.3101160528 8.9552505459 9.5744124549 10.198418155 10.828103232 11.464088025 12.106801882 12.818399162 
13.475198033 14.138620733 14.840381527 15.548617546 16.230102469 16.982180016 17.673333498 18.368025147 19.165390332 
19.898721959 20.700304458 21.368892842 22.104353799 22.839223248 23.639821203 24.339226587 25.037625636 25.735095537 
26.531449212 27.194657466 27.891010628 28.620817666 29.318038508 29.98278661 30.714872456 31.447765703 32.18138646 
32.848664121 31.322848234 30.263032282 29.143194898 27.838576755 26.324070558 24.662635484 22.961449674 21.436553725 
19.851269421 18.411939018 17.148405941 16.085207536 15.234611335 14.24249337 13.266286545 12.126195735 10.641157235 
9.0760940322 7.6112846719 6.2808868992 5.0197573937 3.9849041756 2.9031673929 1.6611233044 20.450101989 20.111407469 
19.723433219 19.284140036 18.84900393 18.428923853 17.966624258 17.545434027 17.113746232 16.705871052 16.338616093 
20.762936466 20.464113155 20.144217704 19.753186163 19.382135384 18.959244484 18.521845898 18.115718691 17.677795494 
17.216231773 16.800880304 33.468179943 33.343150626 33.211449148 33.076234534 32.951969429 32.824644874 32.700902179 
32.589271185 32.490258756 32.386082299 32.293738554 32.206344012 32.139343602 32.085318535 32.052905669 32.03250001 
32.025341034 32.027807946 32.036630803 32.04833746 32.06033627 32.070993319 1.6094873807 2.8627502037 3.8735538499 
4.7837682398 5.6645163056 6.5390702394 7.277387763 8.0392136602 8.9186903263 9.6564708649 10.430992917 11.244958283 
12.069681505 12.936846747 13.784219508 14.642192864 15.574847474 16.485041688 17.370536795 18.229348404 19.126036919 
19.992723358 20.961659329 21.931100257 22.899975227 23.833809676 24.699342809 25.629705951 26.592072892 27.454321336 
28.482677627 29.412367033 30.310082837 31.175875143 32.076093589 32.876852777 31.352068885 30.589982383 29.599464767 
28.452564778 27.187932191 25.808503113 24.274730664 22.472637056 20.84752587 19.401938022 18.138100917 16.951077624 
16.005799338 15.15738655 14.184835264 12.973416208 11.529087084 10.134048844 8.5458411328 7.1400083298 6.0098027032 
4.9547625469 3.8905889597 2.8320831317 1.6432390353 20.465253185 20.137470672 19.753259182 19.362493982 18.913200098 
18.467599467 18.030584644 17.572957446 17.089872881 16.671381989 16.311178842 20.745532319 20.422092033 20.058554544 
19.708654534 19.332320486 18.928036508 18.534964801 18.106337503 17.678837002 17.267319221 16.813138533 32.823700853 
32.732698757 32.620005815 32.473657059 32.346257498 32.248151403 32.133451225 32.022622121 31.919032946 31.842843568 
31.757597393 31.675335093 31.598925104 31.53287872 31.483030037 31.437990893 31.405036039 31.391890046 31.384948044 
31.385007157 31.389485422 31.401787697 31.422548097 31.430234335 31.383382783 31.313479051 1.54977603 2.686724354 
3.5225403646 4.3361362712 5.0534305893 5.7689149811 6.4692223035 7.1214907182 7.749863382 8.4161341915 9.0841264771 
9.7310326045 10.358270947 11.01790602 11.658164877 12.351819031 13.0221396 13.698811103 14.405221564 15.108432675 
15.78594055 16.517155143 17.217649943 17.948764741 18.687629757 19.433715991 20.17819614 20.910526406 21.6500585 
22.376192632 23.091027224 23.837047698 24.554436551 25.289633379 26.010810471 26.74401332 27.475210235 28.148587809 
28.858992717 29.54909476 30.271662766 31.004711026 31.690660657 32.344518121 29.607933842 28.386404415 26.909340865 
25.253018786 23.624928084 22.157946388 20.531151283 19.164091111 17.793583548 16.661155663 15.682102675 14.732822743 
13.671763363 12.533822029 11.134017196 9.6756748453 8.1358997372 6.7020177911 5.3602465606 3.9513020837 2.9117432517 
1.9676431899 0.9232208222 0.76136016077 0.67203580434 0.60676572893 0.58532138606 0.56679755432 0.53397546645 0.53153327678 
0.51986810795 0.52871947048 0.52937893851 0.52575695254 0.5355903062 0.535744201 0.53928847295 0.53904396334 0.54212087581 
0.54495552422 0.5636041951 0.57058278177 0.57821203058 0.58464061911 0.50247720057 0.62200399682 0.81359743883 22.0726639 
21.494730134 20.84607222 20.32627107 19.840380583 19.398378658 18.942057681 18.466124967 18.002888521 17.569821547 
17.110850457 16.61492457 15.352129801 21.20279512 20.593022249 20.102858112 19.609917254 19.1653111 18.698757952 
18.21364763 17.765882684 17.295302319 16.815787986 16.332598176 15.785341569 30.584284248 22.434297472 22.236217794 
16.20652638 15.272189401 21.963835889 15.125882945 32.138674267 31.91285312 31.752970175 31.613709114 31.470872818 
31.370582488 31.268063931 31.164150587 31.090788477 31.022822926 30.952413172 30.853269644 30.801514084 30.744453448 
30.726351859 30.697277874 30.668211178 30.648305185 30.684311172 30.716390196 30.758164907 30.774514824 30.799998224 
29.042184498 2.7385613593 3.5908395145 4.3705090794 5.0801508911 5.8260353544 6.5405483754 7.2086397224 7.8542746498 
8.5358131654 9.2376576 9.8711495685 10.519021701 11.176741796 11.874715114 12.583504541 13.233832575 13.935224573 
14.645109115 15.348821921 16.040466209 16.79050701 17.489206665 18.218857997 18.978793617 19.696068229 20.446344317 
21.155407455 21.911800759 22.626347909 23.34561314 24.071568133 24.802881052 25.540446122 26.270425681 26.998813415 
27.717867602 28.386522758 29.110455588 29.824246815 30.549733859 31.282872649 32.066595247 1.7462508681 1.850289782 
27.505497681 25.987462301 24.285956039 22.75951804 21.222526778 19.785381507 18.345134274 14.166554868 13.057898961 
11.686396587 10.258863001 8.7127550506 7.1878335899 5.7811137775 4.4831216657 3.3141017006 22.403159866 23.253836876 
1.5140191482 1.3279864524 1.2170596313 1.2023114747 1.1665656933 1.1164354996 1.1121529242 1.1154339848 1.112558659 
1.1091025809 1.1024130938 1.1121306496 1.0992493594 1.1127804857 1.1235886106 1.1448886965 1.1782810872 1.2078857247 
1.2436623133 1.2845427432 1.2169829773 1.2996200795 14.588759218 21.674706686 20.070434027 19.563795429 19.006539089 
18.50107442 18.147789551 17.63986634 17.149090777 19.022686285 15.955294537 17.951397292 20.220383722 16.465563221 
30.401553667 17.45022249 23.300735522 20.970900704 20.431477814 20.889930611 19.593636907 18.482723298 16.948449479 
15.400198988 23.339019754 14.374882827 23.469305547 21.557962194 14.773220211 22.722935512 31.168008233 30.973238088 
30.815908719 30.648086098 30.516646858 30.448617925 30.386806147 30.323524943 30.271607412 30.131382141 30.016706837 
29.980474087 29.97905388 29.957257964 29.879890836 29.836712825 29.857131271 29.942739769 30.040012176 30.133493437 
26.690113885 31.40039932 3.6778515423 4.4412688971 5.1247048434 5.8976184707 6.6211270549 7.2870519879 7.9789721989 
8.6702281982 9.3753043462 10.02535471 10.695890257 11.37427243 12.088673158 12.795984056 13.465950276 14.174428013 
14.903236302 15.594536869 16.301980454 17.041325596 17.755285895 18.498740691 19.257290709 19.978714629 20.702476127 
21.435259778 22.169471261 22.85938665 23.597663815 24.328649333 25.051680026 25.796152659 26.540391162 27.27272572 
27.959045385 28.666025324 29.390096601 30.125125469 30.807913521 28.027172638 21.810648382 25.07552203 13.664560682 
2.6332090535 2.025908791 7.6853425572 6.2395299129 4.8773797375 3.73272119 18.365575954 20.490115183 21.587353557 
24.38877317 2.2261211782 1.8657614648 1.9693207007 1.881909737 1.7381396958 1.7574312423 1.8162821812 1.8215498028 
1.7900645636 1.7749130441 1.7634046399 1.7596578099 1.7788711845 1.8092886607 1.8494337523 1.8675099052 1.9238843143 
1.9733444754 2.0296919706 2.0274133449 10.907907377 2.8261962649 22.396776913 19.580710913 20.440178285 19.007532607 
12.390988863 16.090883072 23.383905994 17.756625818 15.597575736 24.344367891 19.723641797 16.600373939 15.038567077 
9.3126269808 17.169509046 30.012182599 14.057041481 18.903092504 21.300184958 23.203269046 24.424668988 14.445395844 
22.26270478 24.386698882 23.392049647 27.321993811 30.133521264 29.907736461 29.738001791 29.608856376 29.550904475 
29.541105396 29.477632825 29.443588878 29.12935883 29.123588673 29.178690712 29.180302756 29.105614993 28.976036443 
28.957680822 29.075853155 29.30274517 29.246873957 25.956995472 13.24364032 6.6715411219 4.471474472 5.1909686222 
5.9491851763 6.6969136659 7.3922852833 8.104261543 8.8359001745 9.5121763933 10.181518492 10.87188113 11.587625079 
12.309719744 12.992695997 13.699540833 14.422381837 15.141515457 15.840888684 16.577915356 17.297887414 18.038722103 
18.782859527 19.525087276 20.243239935 20.976407562 21.7232204 22.423632846 23.120437395 23.865017732 24.572133793 
25.315612976 26.041241326 26.796578332 27.536268273 28.231398104 29.022388115 29.810939028 24.407923413 25.428950226 
15.719462464 19.067914497 16.269492051 2.7036548911 5.2555956605 4.0415574649 25.494530999 8.3149060059 2.8921560964 
2.486919686 2.3974304421 2.5969673108 2.6134703241 2.5503310038 2.5116289531 2.5263516096 2.5297913238 2.5105543324 
2.5388169809 2.6234240363 2.6616377374 2.6941856203 2.740638724 2.7928603526 2.9164811521 20.866060926 19.930409544 
16.931425664 30.360996928 17.599327694 15.204733965 30.606648439 10.01521012 14.691646275 18.311488317 25.524271703 
3.8321409307 13.705620707 20.813810257 25.626917357 25.6221337 11.760852336 14.079607127 28.44074844 26.958418034 
28.90920909 28.688302355 28.599275915 28.662379972 28.768873712 28.305804846 27.94707869 28.365266617 28.329109003 
28.430970147 28.107740024 28.071930488 12.967915319 16.729116977 4.424545929 5.2371631738 6.0400641372 6.772905144 
7.514394855 8.2519136049 8.9904579893 9.6684075123 10.364975246 11.113670453 11.812914036 12.527508135 13.200714726 
13.930061789 14.679799696 15.386590267 16.103900859 16.84331633 17.587899301 18.320599069 19.084937906 19.804191155 
20.530745339 21.27360774 22.015843666 22.718046785 23.450271213 24.16311003 24.842621075 25.492424622 26.253735738 
27.066756592 27.819700725 28.626544621 29.499760712 26.857937544 3.6468511026 26.517844485 15.306307367 24.522317333 
5.6291282914 4.3553684612 26.610281487 8.9781128227 3.2633752934 3.4775569111 3.4870604946 3.2775483371 3.3870169736 
3.4605152096 3.4977595192 3.297412216 3.4971663538 3.5414451307 3.5591564249 3.5659140325 3.5941378496 15.969701453 
29.172861137 14.753866452 19.198623379 14.262990468 21.782826084 7.2320017243 27.957257481 17.504087736 26.837642447 
18.312914492 13.440919183 10.774784666 20.135777422 13.771472895 23.916167186 22.838978893 12.342899654 27.557761654 
27.972260674 27.457072189 25.28615866 26.867231729 5.2782826085 6.1172377511 6.8768374581 7.6546954158 8.4455696309 
9.1499172334 9.8624060922 10.611263737 11.388426679 12.063924233 12.674567951 13.401637642 14.177379786 14.942536193 
15.646036162 16.380587823 17.152195823 17.872515645 18.621506195 19.357468918 20.099235019 20.851562109 21.62073323 
22.381382247 23.085739747 23.834338127 24.694800169 25.593984521 26.532178887 27.368872776 28.237458138 4.4052057349 
9.8355078398 26.516443084 4.3733075042 4.3160972454 4.6466467661 4.4462936434 4.5107746257 4.4706026506 4.4306805253 
21.127596861 13.686960567 14.097734481 27.622548573 27.542360818 14.810496376 19.273681662 27.808760336 18.376546924 
12.90660662 4.5299975629 8.0012053669 11.639821371 22.290582853 25.363406023 15.628978464 16.537409753 6.0428924907 
20.278887095 23.768691082 5.3253498062 6.2058256301 7.0108246532 7.8066675385 8.576185266 9.3259125625 10.160440167 
11.033530054 11.935792081 12.800165292 13.649662016 14.515652834 15.252440269 15.942067723 16.658042052 17.470935704 
18.189862727 18.901874398 19.624056919 20.315584434 21.212499503 22.121133926 23.115498838 24.365278907 26.627511092 
10.826100856 12.97828238 17.444378442 9.0227013702 7.1972317664 18.253758646 5.4333559659 5.5718592168 6.3078344564 
5.6306030991 14.390953507 12.494786385 15.388227796 13.335601701 6.8549913117 11.29884553 12.310382674 13.242910392 
15.938986405 19.414224885 17.515542868 8.2681859238 10.186013339 16.51082256 6.3477280052 7.1805266028 7.8661690984 
8.6633303382 9.5189324347 10.299975078 14.073867557 14.948942148 17.025085012 11.836708085 13.09710714 14.142250965 
7.8571160841 9.1424272929 32.521544173 32.572698926 32.456135777 32.234254046 32.058918419 31.905747128 31.781597714 
31.657267384 31.559215455 31.459615323 31.375049797 31.304322849 31.238157821 31.198303537 31.18574907 31.142977366 
31.174140287 31.185038 31.166905171 31.185621803 31.339530573 1.3382696585 2.8621610531 3.9512452092 4.9071581124 
5.800992799 6.6324422174 7.4521297547 8.2554485911 9.0579526964 9.8472350221 10.668326012 11.517656591 12.359401554 
13.206726637 14.108139806 14.987350209 15.897473774 16.790373751 17.668340456 18.58404449 19.45840377 20.374835874 
21.344697764 22.287331336 23.208481941 24.140499097 25.050957897 25.976227213 26.923839831 27.851883433 28.774824551 
29.700666223 30.633340663 31.520695664 30.784550037 30.031354102 29.130818094 27.902840205 26.581403999 23.321524449 
21.740494268 20.272262745 19.038045761 17.880207011 16.813595805 14.521589527 13.372034024 12.016676333 10.626795555 
9.2258906187 7.6892568779 6.4138754792 5.2217556968 4.0445334265 2.9122053294 1.8195149701 0.79845489173 0.85186184829 
0.77302151701 0.69809624191 0.66362910641 0.61828228277 0.60878313643 0.59641375767 0.58593377189 0.57914583262 0.59320147161 
0.60206156293 0.61954150638 0.63964150295 0.62636301983 0.61586699027 0.64320275474 0.63880220317 0.68386774759 0.8563691374 
21.995874352 21.410093266 20.874731052 20.412440526 19.914186906 19.419952303 18.957901908 18.477112016 18.018072006 
17.547665605 17.081607203 16.547215953 15.412756449 21.180636679 20.539358381 20.028716683 19.534215293 19.0944162 
18.647198793 18.214491184 17.747076032 17.289263816 16.8129464 16.29161157 15.723685262 25.23145073 15.586834904 
22.119199075 22.285121708 15.069134976 16.087408742 15.469789545 21.896467991 31.896221638 31.745452124 31.310011045 
31.10465612 30.919145593 30.78922351 30.682662292 30.573903757 30.525481548 30.435235767 30.365280677 30.31313946 
30.271988048 30.254944901 30.258648069 30.319316141 30.29245673 30.183163971 30.256773804 19.739000467 4.1606005592 
3.1766780388 2.0320005927 5.0702407941 5.9678029464 6.797989522 7.5951805785 8.4122541395 9.2328631815 10.049368689 
10.911388278 11.772370234 12.651455158 13.516902498 14.438207466 15.29846409 16.216020266 17.110454614 18.002926288 
18.943880065 19.813595075 20.742539842 21.702496163 22.634574912 23.535416383 24.462062273 25.394948548 26.352580439 
27.265282627 28.169029077 29.092013562 30.042931204 30.903891967 28.809098113 23.941956979 27.027554511 20.977647634 
22.387835771 18.632671674 12.542434064 13.921026092 9.7522896324 8.2672532215 6.8435324283 5.5960390767 4.3252963312 
3.087089379 1.8677148655 17.937547908 23.057851339 1.429251977 1.4005625042 1.3098566033 1.2697662313 1.2530928844 
1.2340242515 1.223140222 1.2130436869 1.2293602738 1.2609212434 1.2832225982 1.3000353615 1.3059803546 1.3274807099 
1.3394826957 1.3470168986 1.5575243656 23.027391207 20.126460142 21.20977667 20.585515914 19.970192802 19.591004749 
19.024789436 17.667414371 22.233237832 20.794737888 18.932797478 19.508457999 16.959598556 17.454720763 15.876841084 
16.436889422 31.583610654 11.204961838 21.641589656 14.800365754 18.426968588 15.280577261 23.217260307 14.670185201 
25.931227038 14.867666569 21.516810571 23.148006724 14.329754246 18.060537249 18.462558961 22.763975942 22.516711716 
29.880467373 30.277365689 29.770053354 29.673790107 29.608862532 29.528054673 29.453644553 29.384331853 29.346055569 
29.267392441 29.246384764 29.350941757 29.502711096 29.14631451 21.386855792 31.148839115 24.042837591 4.4074669601 
2.5852374806 6.9258881251 7.7161566987 8.5765655477 9.4350420048 10.277308147 11.148567453 12.040779159 12.949139444 
13.858236957 14.724224041 15.615054983 16.522738781 17.433675054 18.388799401 19.252241397 20.185796017 21.099807406 
22.077572961 22.975101707 23.866438592 24.81405867 25.759239429 26.711101834 27.602332373 28.505491356 29.41935496 
24.568447668 6.1307833163 27.728305462 30.054300847 11.733895971 7.2968205595 8.7919924903 4.7539697715 3.5212642037 
2.3285912818 1.9953181191 2.0045528814 1.9612526038 1.9340436685 1.9455067722 1.9656631052 2.0080541312 2.050370891 
2.0862418956 2.1132508732 2.1393999895 2.1546990861 2.1446368657 19.544883096 10.29306455 20.39342412 2.0925598897 
14.857346591 24.259547392 5.9245285518 24.000379465 13.153456932 3.5258117441 20.273733508 17.741484967 5.2842471244 
17.209144524 18.293171722 18.866945581 16.670695898 30.581674117 23.766683016 21.003794704 27.018562749 30.333154437 
13.76302028 22.337891936 14.26679483 16.096938721 2.10092267 15.48986406 28.811618262 28.553880457 28.522213662 
28.426649718 28.341685718 28.403768248 27.8977893 28.348591379 28.472545753 23.268265084 25.937801647 7.8473766331 
6.9543743577 9.6318596964 10.494358316 11.430878927 12.360853812 13.233110885 14.152986197 15.038763913 15.920262629 
16.825434397 17.796115534 18.727676828 19.595067253 20.535639085 21.451270316 22.433040053 23.322756588 24.231089641 
25.185985599 26.162979736 27.064855846 27.962589456 28.865455478 17.005348574 7.7759460916 19.610519633 3.0027523303 
3.9437702196 2.6890294063 2.8113904562 2.8380667769 2.7038997908 2.7961335574 2.8277559375 2.8914724311 2.9620960224 
3.0103633068 3.0254743497 3.0239662568 3.0316072635 28.639029595 28.702467138 25.025432227 24.957695661 6.1518237143 
8.7424057496 25.014901999 12.279521618 16.430757547 17.587460262 2.9342577457 24.318922214 20.383339436 6.2797704937 
14.456477758 21.811993264 13.759206724 29.739667235 9.3742777408 29.158197876 18.871835108 28.968784922 29.328333741 
10.947131819 4.8711372262 13.75397573 5.4781783925 2.711980653 15.849785793 3.8953504211 4.7494498908 18.208256842 
27.397926766 27.263763717 22.702712383 26.235721643 7.0302371178 26.088913419 10.749836429 9.8236364768 12.645744087 
13.555461811 14.456799545 15.328739474 16.228150638 17.195029067 18.154215531 19.048699031 19.96909753 20.867444357 
21.84799873 22.754494272 23.700147315 24.623146655 25.62373586 26.604383139 27.527872341 28.388999894 8.401250517 
11.739230035 3.528243072 3.5981833919 3.7209567058 15.184824277 3.4368375514 4.0054460777 10.083311215 3.7944333382 
3.8533615533 3.9444731769 3.9969535453 4.0307592367 4.0690372228 4.0375542077 27.538654335 6.0769386158 27.553156113 
27.289062392 11.735255682 16.211125774 16.81171462 23.7515726 27.652692134 19.66092273 8.0022734556 13.267215767 
14.232736144 8.9391573098 6.7765543591 28.024447142 5.0403515178 13.12838291 18.862072622 21.175384115 12.88251586 
27.822095244 28.23348768 5.3522505256 25.423272978 27.608481215 15.595334942 17.460252872 23.077118313 26.550484936 
12.386709033 24.863692072 13.804004681 12.980456213 15.672011945 16.6005167 17.564785973 18.524301793 19.402070759 
20.331108858 21.224786832 22.19354961 23.141831134 24.0757602 25.125717097 26.165045559 27.234385524 4.7970263885 
4.4715467578 4.7469471988 15.038090536 22.08053201 10.855697616 9.16956073 5.0859622623 5.1763614213 5.153002674 
5.1314378799 5.0823073298 20.488796256 15.950484325 6.1545070789 26.212314289 14.74527695 10.01267117 18.148177124 
24.17485888 7.224111831 13.185259924 9.0144382496 12.13568073 7.3651232713 26.590247507 16.651886738 19.701344572 
15.372291684 26.266147422 18.825534877 5.8455482745 11.091742161 11.935103849 22.335614269 17.070827765 16.105364551 
18.877083955 20.677630837 22.519957298 23.42797586 24.611623259 25.747519518 26.910217282 8.213752493 6.5626332188 
6.3367822979 21.362292075 15.068643883 6.53439678 17.993526799 12.870716394 25.339664107 6.1160497362 17.991512988 
9.046413739 14.470611841 19.80082061 21.640033338 8.1347304791 15.712542082 17.415752074 10.320717648 10.341389617 
14.030185147 14.821853664 7.7875826463 17.876329918 15.643565535 11.665622999 11.99096144 14.570672703 10.978583026 
13.480558193 13.412123491 7.9254778006 12.323833897 9.3951811924 16.797498832 17.927299287 17.42793413 0 
0 0 0 0 0 0 0 0 0 
0 0 0 0 0 0 0 0 0 
0 0 0 0 0 0 0 0 0 
0 0 0 0 0 0 0 0 0 
0 0 0 0 0 0 0 0 0 
0 0 0 0 0 0 33.521727885 33.40908526 33.3041507 
33.197730217 33.095606297 32.999063418 32.901213015 32.802352179 32.707032778 32.616954419 32.531465926 32.444027818 
32.363358959 32.291383391 32.224341785 32.168069426 32.120174781 32.083754643 32.057472135 32.039202168 32.030705118 
32.029474903 32.033482384 32.040918696 32.050084472 32.059724496 32.069940019 32.080141026 0.85055970512 2.2027383588 
3.1468223833 3.9384500171 4.6805981467 5.3962119068 6.0842234102 6.740583169 7.3441651236 7.9736666642 8.6323765306 
9.2643563035 9.8857792099 10.512518244 11.145292486 11.78464559 12.461619531 13.145983166 13.80617806 14.488643053 
15.193686036 15.888720566 16.605459474 17.327329805 18.02031392 18.766296071 19.531802729 20.299348651 21.03456968 
21.736687356 22.471875674 23.239669939 23.989663582 24.688581111 25.386528869 26.133347767 26.863039384 27.542771895 
28.255851252 28.969313617 29.650296353 30.348707121 31.08119295 31.814499016 32.515006076 33.215686146 31.704193699 
30.792524349 29.702139814 28.489078004 27.07906493 25.492374442 23.814021541 22.200388942 20.640397897 19.122805607 
17.769348928 16.607425235 15.656919784 14.745664672 13.761851458 12.700524115 11.384256679 9.8566964398 8.343510413 
6.9498758175 5.6590442337 4.5130788498 3.461447492 2.3188867836 0.95865177327 20.857570439 20.626445307 20.284192287 
19.920499843 19.506681997 19.068522162 18.640017078 18.199027568 17.75594693 17.328187206 16.909026246 16.51658759 
16.155961878 16.185212416 20.885815396 20.622968226 20.309127722 19.952950766 19.569912806 19.172910544 18.742100377 
18.319048027 17.897421442 17.443921739 17.006688118 16.585534302 33.522606182 33.405330828 33.276962585 33.143566728 
33.013785611 32.887899346 32.762208485 32.644418774 32.539037996 32.437020307 32.338604169 32.248251979 32.171053277 
32.110090223 32.067481727 32.040981285 32.027576804 32.025512891 32.031612079 32.042218188 32.054264517 32.065562378 
32.076114158 0.93075248593 2.2705426204 3.3823478035 4.3376279013 5.2298514821 6.1050454635 6.9093685413 7.658633998 
8.4785271352 9.2869259005 10.042707706 10.836702412 11.655985004 12.501821772 13.359216494 14.211917872 15.107160206 
16.028817363 16.926903296 17.799256895 18.677105941 19.559047195 20.47703366 21.446377124 22.415690691 23.367058947 
24.266746678 25.164712961 26.111049848 27.023176425 27.968425696 28.947298032 29.861093216 30.7428447 31.625893365 
32.476445616 33.227165143 31.716815558 30.970919506 30.094069372 29.024705559 27.818541677 26.496566891 25.041382697 
23.376113802 21.660210035 20.120008992 18.762287244 17.534619941 16.471821523 15.57978582 14.678895246 13.589279803 
12.25530622 10.830808538 9.3379684638 7.8437122769 6.5783636341 5.4892383082 4.4337079626 3.3791706772 2.2707351802 
0.84279843749 20.869232318 20.627788673 20.304925749 19.948523212 19.560652555 19.140629517 18.692506536 18.251282835 
17.802855185 17.330407855 16.877602495 16.484434123 16.148132887 16.184041079 20.891435495 20.590150711 20.244871361 
19.885712806 19.522479762 19.131428402 18.732346629 18.32058079 17.892503027 17.47256518 17.038034104 16.588930646 
32.083337253 33.579901742 21.059982295 16.386933496 15.978354281 20.785045426 0 0 0 
0 0 0 0 0 0 0 0 0 
0 0 0 0 0 0 0 0 0 
0 0 0 0 0 0 0 0 0 
0 0 0 0 0 0 0 0 0 
0 0 0 0 0 0 0 0 0 
0 33.154549073 33.142552295 33.090292506 33.044970002 32.991963518 32.777984443 32.93579855 32.882034654 
32.676171696 32.809068697 32.760242355 32.54667668 32.696678683 32.648582394 32.409825512 32.599681627 32.549632385 
32.29703356 32.492415117 32.443329118 32.190493937 32.388121511 32.341557025 32.077753916 32.289888508 32.246008299 
31.970470673 32.208153052 32.166173987 31.880450759 32.123552477 32.078056761 31.799611362 32.037178746 32.001471345 
31.715648365 31.963319092 31.927010964 31.636246739 31.894048804 31.863213243 31.564672358 31.83829953 31.812856995 
31.506796236 31.790222712 31.768147543 31.45910555 31.751618493 31.737136154 31.420263763 31.730261967 31.71929267 
31.397063134 31.715430033 31.708931698 31.387118865 31.708801911 31.707035138 31.383968466 31.708861901 31.710120742 
31.38641854 31.715959151 31.719289575 31.395042947 31.729382298 31.734160991 31.411851311 31.737613832 31.742661378 
31.426288003 31.718897796 31.724166967 31.406802646 31.68887789 31.69431411 31.34842882 31.698751205 20.855367111 
31.318010289 0.61711986946 1.5607252095 2.1267341046 2.6779612822 3.1256777738 2.1448577457 3.5317092886 3.9139452992 
3.1162780884 4.3104737956 4.6977257682 3.9374237064 5.0473431476 5.3990842841 4.6993129682 5.7481245083 6.1034873223 
5.4143631195 6.4459052668 6.7635633177 6.1210420842 7.0833101617 7.3825326898 6.7962745382 7.691408431 8.0335237693 
7.4363705488 8.3616864331 8.6889038296 8.0831711135 9.0184719221 9.3320575818 8.7498547254 9.6517217675 9.9670823836 
9.4072602048 10.277584987 10.595301025 10.044202482 10.922370405 11.242803482 10.687551007 11.560635923 11.883982264 
11.337467517 12.228802274 12.586412571 12.004277389 12.920153732 13.249732991 12.6862613 13.586940129 13.919511102 
13.359802003 14.271771784 14.623331161 14.051309222 14.974268697 15.328882697 14.756166219 15.667305603 16.00822209 
15.446605175 16.373569133 16.749590886 16.150997646 17.099924166 17.445197799 16.866959907 17.810925517 18.158021567 
17.582757873 18.527609132 18.925863906 18.317820811 19.299296404 19.665435461 19.060367129 20.038187663 20.43844474 
19.805766119 20.804974055 21.13879145 20.54429299 21.50895714 21.876321056 21.280262411 22.239704996 22.60684025 
22.013116396 22.964462953 23.364694615 22.733677623 23.737774994 24.087501724 23.464070841 24.446239218 24.795449876 
24.195849158 25.16312655 25.511950287 24.922164187 25.872423669 26.27088916 25.650357928 26.637207939 26.969062101 
26.377399111 27.334548931 27.68292632 27.109656883 28.01954245 28.38463727 27.811947602 28.739679636 29.088413778 
28.503737161 29.433400006 29.765785525 29.203983054 30.127016678 30.493074959 29.910214619 30.859690363 31.226148783 
30.638063784 31.56907264 31.935840225 31.347611756 32.262759926 32.596388006 32.017523335 29.935752934 29.376150573 
28.765954601 28.112971754 28.996150023 27.375988267 26.616561981 27.646203835 25.790271476 24.956436694 26.079427417 
24.14223364 23.292728508 24.43812918 22.554750982 21.79949251 22.891012261 20.976321776 20.197591619 21.341272029 
19.503722794 18.797802721 19.841938915 18.102552972 17.478680642 18.46986542 16.909906296 16.374917858 17.22144549 
15.891338896 15.453938394 16.169252645 14.992082917 14.474315656 15.21261109 13.961697794 13.456911768 14.210142843 
12.902873989 12.320993968 13.106939325 11.634722538 10.879867711 11.835865273 10.164310281 9.366589334 10.404726246 
8.6137296231 7.8624777179 8.9061352784 7.1643853233 6.4779943117 7.4219683834 5.8261732632 5.1722495254 6.0382420481 
4.4833459276 3.9442213609 4.6709059845 3.4525889958 2.884760391 3.4433510484 2.4330638864 1.7937792858 2.4596711507 
0.73380352144 0.50459010983 0.44244200274 0.37232340922 0.34164510643 0.81890681677 0.32330315453 0.31797102557 0.71128539305 
0.29917039892 0.29233624237 0.61944123474 0.29261429996 0.28659424759 0.57740253675 0.28640875435 0.2792369808 0.55695826172 
0.27396115251 0.25766800967 0.53305965413 0.25476423602 0.24473347323 0.53209351419 0.2494652789 0.25608918179 0.52367046824 
0.25941951407 0.26076773633 0.50615454136 0.26259774397 0.26105048064 0.50886004416 0.26140859658 0.25690238907 0.50741363858 
0.26404884933 0.25243141739 0.51078516525 0.25378350276 0.26480262046 0.53429891538 0.26347805145 0.26783534289 0.52000891352 
0.26409610491 0.2659425964 0.52010675561 0.26327949109 0.26426697127 0.52168356038 0.26435130502 0.25911731129 0.52602389091 
0.2627893873 0.26214873528 0.55327743084 0.27374623054 0.29097697265 0.56625190917 0.2830048578 0.29312495599 0.56158805152 
0.28485931562 0.29145138026 0.56695477161 0.24475405779 0.25589638675 0.53517088715 0.29020004873 0.30646363571 0.55728006142 
0.37400121027 0.39590798787 0.7100716278 21.450334681 21.536192068 20.970282336 21.244106295 20.461061819 20.679424292 
21.162834614 20.011126012 20.229808614 20.583786666 19.549163718 19.785778754 20.084433944 19.110055678 19.339389191 
19.620137194 18.672245755 18.889754483 19.169750019 18.204468611 18.441172003 18.703404252 17.761134588 17.976253373 
18.232937058 17.33752798 17.551037918 17.78707269 16.896935616 17.104817589 17.339092678 16.473492092 16.656581972 
16.862198544 16.286056184 15.842725466 15.718268447 21.230869551 20.966460577 20.72172746 20.502428184 20.876199447 
20.297757577 20.104408698 19.885995758 19.667839032 19.858810271 19.46322129 19.264456691 19.044570362 18.822819529 
18.937803381 18.589411061 18.365849151 18.463397753 18.146935847 17.934778135 17.70128139 17.479460321 17.533340137 
17.243416804 17.011130397 17.058574023 16.76688826 16.561522636 16.290090483 16.062117231 16.061016819 32.835681454 
0.69286068674 30.953307397 30.423886255 22.227290577 21.814134844 21.621031708 22.085474679 1.1649138035 21.855574996 
16.066937406 16.418457131 15.309949926 15.616354835 21.658609085 21.593721619 22.198715989 15.721445433 15.274384262 
15.458125531 17.99327915 20.34271599 19.392059877 16.580774182 30.095545026 1.4153834006 15.742649926 1.1341663455 
32.435689595 32.37918319 32.266433741 32.19305871 32.025635742 32.113304826 32.049457033 31.832741509 31.979862359 
31.930632698 31.683200987 31.859407972 31.801820912 31.542020993 31.751851 31.696334484 31.420460803 31.645148938 
31.593144834 31.31899459 31.541346859 31.503103815 31.215703183 31.466609671 31.423757453 31.126913017 31.38995802 
31.348600393 31.056144367 31.31353021 31.275143552 30.986802116 31.225744617 31.192548142 30.901732055 31.166814711 
31.141853971 30.826231955 31.11329051 31.090758612 30.771529041 31.08174418 31.065441772 30.734028662 31.050724928 
31.044313514 30.710555522 31.029436163 31.026371585 30.681246736 31.016122463 31.01659318 30.657189773 31.034150398 
31.036818584 30.665408262 31.052404671 31.059024475 30.699601274 31.079500946 31.090392434 30.73685881 31.098165547 
31.102409017 30.76614957 31.114831759 31.091766039 30.787256272 29.325870184 28.713838556 32.583906734 2.7002110216 
3.1230867681 3.5479911857 3.9611193227 3.1723539208 4.3460721633 4.7120565396 3.9861720687 5.0611018867 5.4263493247 
4.7289237804 5.7923950134 6.1496316542 5.4560259878 6.5008980847 6.8330239605 6.1850576296 7.1620223555 7.4812462958 
6.8755881658 7.7993580392 8.1375878235 7.5319438196 8.4737455669 8.8122273164 8.195276215 9.1590697448 9.4862620732 
8.8868167555 9.7997072308 10.116446263 9.5541748182 10.437454491 10.770137081 10.194759756 11.096506327 11.418861285 
10.847485784 11.76560588 12.114574848 11.525284492 12.466929619 12.803787549 12.228524333 13.127493432 13.46721527 
12.908171808 13.816603613 14.170901577 13.583951166 14.524849015 14.87712982 14.289612266 15.228264195 15.567560786 
14.996432237 15.9129737 16.278840386 15.69418251 16.653500523 17.003903389 16.415039913 17.353099939 17.718681408 
17.139493899 18.08346687 18.452794925 17.853724161 18.832914162 19.205663947 18.598573184 19.564466378 19.936479979 
19.337200358 20.311768347 20.677693515 20.071038104 21.03238491 21.401836513 20.800799478 21.780300449 22.143157133 
21.533539714 22.500707623 22.857922361 22.269099255 23.217759624 23.59060795 22.986024848 23.953857372 24.312403922 
23.708701127 24.678231596 25.04574825 24.437347803 25.414601692 25.775211779 25.171796878 26.140102382 26.506801769 
25.905523396 26.870975188 27.236687075 26.634667209 27.59617802 27.932937743 27.358343023 28.267301656 28.622569306 
28.052145951 28.984503084 29.329620711 28.748438459 29.686447711 30.04778081 29.467246372 30.410557886 30.777080024 
30.186877516 31.143576326 31.486603387 30.916223018 31.878363875 32.205320161 31.674644287 1.836105255 1.3428395121 
1.2293537828 1.7007990505 2.2534019092 2.30455123 27.947087134 27.207095658 26.449852734 25.620266266 26.744778537 
24.770058295 23.957696886 23.19233665 22.462926151 23.520876024 21.689766973 20.882079971 21.989010617 20.157522924 
19.481152332 20.498557089 18.750952081 18.074865904 16.429968629 15.939406699 14.458830444 13.909387111 13.372725818 
12.78739279 12.117711592 11.402230637 12.374198744 10.701509706 9.9579447685 9.1987164892 8.4128390907 9.4861515755 
7.6644813601 6.9313015344 7.9521905309 6.2402372763 5.5546280587 6.4885589239 4.9106877382 4.2024757654 5.1381512233 
3.2948134831 3.6065913171 2.976659775 3.9038066531 2.3207808086 21.970386561 22.333315278 22.718796871 22.677591455 
1.1427455674 1.0762301026 1.6149636307 0.99702970009 0.94821930958 1.4135422307 0.90629627727 0.88664257401 1.2688918781 
0.88645276584 0.87072119916 1.2085097737 0.85817082924 0.8386108653 1.1836957351 0.82201875457 0.81334466471 1.1397484044 
0.81503178285 0.80799102069 1.112435765 0.80843324899 0.81041121545 1.1131318112 0.81072603261 0.80955613287 1.1140482374 
0.80861961207 0.80689899201 1.1108500401 0.80294783826 0.80890767365 1.1060265244 0.81302671946 0.81631362073 1.1062616092 
0.80701772856 0.81157940252 1.1045135708 0.81364958156 0.81593955832 1.1046485783 0.81802458116 0.82322275958 1.1178573384 
0.82938536975 0.83667984425 1.1338501449 0.85213311111 0.86436588957 1.1611428891 0.87239290244 0.88630331289 1.1910530548 
0.89423656498 0.90533888364 1.2235700975 0.91159999902 0.92626430151 1.2608195725 0.8779102825 0.8484637359 1.2482048439 
0.9235543443 0.94808655407 1.0659254347 1.2501436374 14.958121013 14.957410353 21.271029902 21.600941263 22.03830607 
19.727256734 19.960715194 19.246760912 19.484065344 19.817793551 18.73128363 18.975780438 19.284970824 18.248960211 
18.483329507 18.753321226 17.855002497 18.074103058 18.325814134 17.372623641 17.604783536 17.893544416 16.875891039 
17.131836009 17.396694828 1.330816276 19.319862166 19.079540684 16.37828001 16.13770582 18.323646056 18.071541336 
20.426554303 20.148106797 16.876869927 16.633770669 16.213017485 30.4932005 30.004237217 17.829021929 17.598565733 
17.702560026 16.677597117 22.713049044 22.842369467 23.247706187 20.6492301 20.926462882 21.319604666 20.131173632 
20.390043789 20.699027391 20.254024894 21.068623061 20.742597151 20.546898169 19.859259864 19.58519035 19.900929789 
18.824461126 18.578195617 18.218400247 17.352977541 17.114159605 17.201609002 15.855947005 15.591411256 15.680201041 
32.445110713 32.399467064 32.102430831 28.272327457 29.721405447 30.891915599 30.857414947 30.948546632 22.86226066 
22.806381654 23.279342049 18.752898534 14.752122833 14.867226554 14.493068319 15.469733068 25.133824064 19.056948943 
17.467632024 16.90806802 13.616898094 14.990452164 10.972987156 1.5549671306 23.376472064 22.962491351 19.305618563 
21.768794424 21.404194034 21.221960128 15.270404179 14.951120292 15.088104264 17.739520331 23.089326712 22.597143914 
22.345957697 14.729068107 16.709261163 31.540389787 31.460312577 31.363041298 31.293265568 31.070505854 31.214624989 
31.143089194 30.894396083 31.059271088 31.008954488 30.731786525 30.943384882 30.891932733 30.582075434 30.858047917 
30.805944957 30.482225321 30.775283021 30.738415896 30.417299028 30.70696971 30.67269169 30.354619361 30.647032705 
30.611484422 30.296803874 30.541693281 30.49185418 30.200537996 30.434859131 30.408631251 30.073115712 30.390741474 
30.36214615 29.997076551 30.361484111 30.352382537 29.978407074 30.341463548 30.327220366 29.966592357 30.288096226 
30.27404412 29.917048912 30.251931047 30.242614305 29.856880601 30.252127773 30.270723446 29.845906049 30.312839219 
30.329611996 29.899137666 30.377624208 30.399097295 29.990850513 30.445350245 30.454058191 30.086550575 27.099276891 
26.337887287 31.73328065 31.769464609 31.341316993 3.6279849909 4.0194415029 4.4001319018 4.7588187209 4.0631515012 
5.0965005899 5.4746970738 4.7854128395 5.8567514526 6.2192581689 5.5134498072 6.5766386841 6.9153862002 6.2607570948 
7.2443466224 7.5715866479 6.9548517133 7.9134897355 8.2585537693 7.6335116596 8.6004111606 8.9553514652 8.3248690419 
9.304258327 9.6243593442 9.0228961595 9.9464126546 10.273328763 9.7002593919 10.605950461 10.937373314 10.360489178 
11.274134586 11.62548903 11.034737019 11.980489069 12.336926899 11.731086519 12.688731874 13.015570953 12.441837536 
13.34904358 13.701149573 13.130630087 14.054081662 14.410136687 13.819792017 14.773461893 15.126194004 14.538425467 
15.471088779 15.817529483 15.248509754 16.170715692 16.546093135 15.947963928 16.915476302 17.265064736 16.67134465 
17.621756927 17.986724643 17.398068523 18.35831771 18.738245874 18.126815845 19.117489829 19.476078885 18.877788337 
19.836889621 20.211888419 19.617900386 20.573929822 20.928209745 20.340518399 21.294838992 21.672765065 21.068859773 
22.040069432 22.397167725 21.802425293 22.742330364 23.101763947 22.514474126 23.471119274 23.833843287 23.228585776 
24.199640943 24.565045532 23.963232281 24.92687497 25.295501526 24.69025398 25.667915675 26.032713398 25.423965426 
26.405050527 26.769165349 26.168272338 27.135434056 27.494895494 26.906514951 27.838167794 28.17245321 27.615892284 
28.526078047 28.887967707 28.312441381 29.250090178 29.606952072 29.028008767 29.97444233 30.337248181 29.757504238 
30.678718153 31.045339243 31.10410568 30.466457172 28.535662743 27.765588882 22.288838031 21.522347305 25.533996715 
24.681435884 25.880849453 13.927401299 13.354835414 2.7493773981 2.2017710586 1.6654796339 1.9334705082 2.3677550771 
8.1992736698 7.4253551794 6.7098173737 5.9980042165 6.9637760413 5.319899935 4.6697063598 5.5607118284 4.0939342238 
3.5179893964 4.3071748002 18.697281703 18.413212068 20.697954266 20.352748901 21.285672978 21.638772023 23.855625205 
23.9182243 1.8760823714 1.7691496648 1.5992470907 1.5351002831 2.0374218339 1.5934743761 1.5780967013 1.916059749 
1.541549057 1.517789692 1.922847538 1.4520432507 1.421973702 1.8070557449 1.4354255617 1.4293911227 1.7466735876 
1.4613318885 1.4612825395 1.7860112867 1.4655311729 1.4620814483 1.8179405746 1.4480665035 1.4451012212 1.8046935321 
1.4384474476 1.4347267736 1.781487451 1.4292908828 1.4342206728 1.7682753811 1.4317637151 1.425987845 1.7607770216 
1.4341574291 1.4426054225 1.7682860765 1.4553927658 1.4635266667 1.7928917669 1.4804685793 1.4945060963 1.8279551788 
1.5000691219 1.5208004478 1.857125207 1.5432294217 1.5643682043 1.8939591643 1.5810839369 1.6079070641 1.9461560154 
1.6254731298 1.6562811264 1.9979288696 1.6422520345 1.6234096811 2.0245015473 1.6027635473 11.302133569 10.57622725 
2.7740539852 3.1979096335 3.2559209127 2.4304600807 22.046826309 22.411790081 21.992387583 31.656296381 19.290790307 
19.576566448 19.998175165 20.262129095 20.007231848 2.0620726968 19.306657119 19.004214014 18.684200351 12.733383592 
12.032317945 11.64943167 13.028639953 16.516008261 16.270614307 23.838912556 23.07746898 22.595665413 18.120312356 
17.843395842 18.060666491 16.02701805 15.770971604 15.845331236 14.370843671 14.130457386 23.799198682 23.81993832 
24.351708669 19.980286392 19.649997381 19.361349365 17.022707532 16.765902464 16.346551717 15.491641294 15.21633476 
15.319325973 9.7884117383 9.0031665846 8.4995087931 17.559158927 17.299753277 16.885830195 2.4130991992 30.392764196 
30.40594532 30.072647894 27.357700414 17.463616876 14.583122855 14.223302656 14.415978262 21.121015508 20.834302805 
30.207143704 29.526116719 19.339778414 18.627946161 21.098874016 20.89299629 21.437481465 24.225264445 20.119742042 
10.11020275 22.798201476 22.811079052 23.272349876 20.102100515 31.283942466 24.402491721 23.951569477 2.0201796978 
14.742653618 14.917633566 14.607344561 18.521531528 18.248336392 17.987745091 22.137273346 21.914105222 22.501483998 
2.7690035569 29.144236923 29.629763628 23.853251582 23.831656651 23.436898453 23.064285938 23.900908888 24.347383219 
14.012867626 18.700513126 18.958631809 19.241190313 27.675555229 27.004041319 30.553168322 30.474445908 30.361479933 
30.277461561 30.020391067 30.19273474 30.126851435 29.822583083 30.062404616 30.028187385 29.673071852 29.999470166 
29.968222712 29.579436539 29.963753529 29.931753534 29.545370303 29.900422894 29.874107011 29.50876578 29.857413023 
29.786953851 29.459824306 29.630411483 29.572389861 29.285764119 29.570275779 29.551476248 29.125102427 29.579539044 
29.578720564 29.149223819 29.579531244 29.56876412 29.178033058 29.531212415 29.492848779 29.141207013 29.427464464 
29.406628731 29.039125699 29.396475357 29.407723656 28.965423597 29.465435837 29.509417286 29.015707696 29.621918861 
29.671346919 29.18884501 29.642346163 29.689824636 29.274303565 26.3263039 25.512797042 30.600511804 13.80592192 
13.462520871 13.649027224 7.173467464 6.4459844157 4.4507709934 4.7948021023 5.1524815345 5.542177249 4.8328220883 
5.9183263977 6.283798134 5.5714772375 6.654503232 6.9911235973 6.3240837933 7.3356349693 7.6853613804 7.0452203852 
8.0381011153 8.387306736 7.7486858203 8.7498528409 9.105864709 8.4703239821 9.4410695224 9.7691052509 9.1741384684 
10.101081484 10.439176544 9.8468188808 10.781705348 11.123517714 10.526605545 11.478948171 11.838555369 11.229599336 
12.197369428 12.553172542 11.948448063 12.892999055 13.22952753 12.650984883 13.581548135 13.937128689 13.345804757 
14.297335385 14.662815924 14.060650502 15.021433655 15.367950629 14.781727938 15.716911244 16.071275981 15.490947438 
16.43918629 16.809276344 16.209127435 17.168873521 17.526154123 16.937684243 17.896309342 18.268191853 17.668122501 
18.640073455 19.019485872 18.410628991 19.390533949 19.751258126 19.153820289 20.110306942 20.47215104 19.884134857 
20.838759432 21.204947481 20.609758602 21.578663177 21.945512488 21.349822388 22.295964576 22.640639468 22.073524493 
22.989347429 23.358185916 22.772098121 23.730872015 24.096070853 23.492760923 24.450026949 24.81121738 24.218576533 
25.183327832 25.555279854 24.943924539 25.918295515 26.290207225 25.678470974 26.668134659 27.034100344 26.418825726 
27.404281599 27.747221902 27.166340566 28.095010177 28.448353304 27.883695027 28.843937338 29.205974269 28.626699036 
29.600270492 29.967798497 29.416457233 23.886301343 24.393953712 23.801878825 24.889582718 24.904770261 16.157597184 
15.897627112 19.400611315 19.031682884 16.718594684 16.426324882 15.994287277 3.2194289766 2.9940300268 5.7403340481 
5.058284778 5.9630509657 4.4491369583 3.8808900095 4.6483256398 24.947121356 24.954266832 25.454264755 8.8112731056 
7.990467124 7.4924822192 2.4316448362 2.3797052858 2.1846426805 2.1070772475 2.6834423416 2.0668770222 2.0728637059 
2.4400821077 2.1741838795 2.2004761203 2.4964343711 2.2118350697 2.2121191702 2.60361909 2.1831719434 2.1654741974 
2.5802530643 2.1477664345 2.1391251372 2.5293298878 2.1468839621 2.1408027983 2.5176961452 2.1422682179 2.1409735734 
2.5267643942 2.1305384151 2.1416636654 2.5189026334 2.1539774117 2.1713900885 2.5232262709 2.2106537955 2.2339194637 
2.5793536231 2.2493783124 2.2624361564 2.6406037288 2.273704316 2.3077777931 2.6755995699 2.3245739283 2.3569703266 
2.7146432195 2.3741996049 2.4125453416 2.7625007733 2.4613083993 2.4745406693 2.8471095169 20.654064716 20.929531046 
20.658436281 20.464000042 20.215024353 19.82393352 19.495542257 17.344271016 17.041668069 16.600299941 21.225603876 
30.76435054 30.666944013 30.247081307 2.4658871333 17.984249356 17.669231519 17.264656451 15.645120878 15.394994002 
15.462012667 31.003395429 30.887077356 30.483620594 30.707096514 10.462053487 9.6566690467 15.141583308 14.860882305 
14.948462035 18.663209614 18.330421409 17.953817368 18.686946654 24.948380244 24.938173577 25.466018404 3.7518887146 
4.1329415267 4.1535115936 25.183593068 24.750235911 26.63968512 23.894008417 2.864248774 2.4117214953 19.686855888 
21.707314699 22.110056963 30.365682235 14.23391093 13.882186127 14.076412162 9.164363689 21.06212836 20.652545548 
20.370197144 25.004729396 25.014057281 25.566510733 3.2999422283 2.793522483 25.556961612 25.026208759 12.081212459 
11.328950312 10.886279863 12.812949793 14.555915708 14.259408656 14.386078106 2.2842388608 2.3268684224 21.782463497 
22.824516694 16.894831694 17.10143667 22.894585475 28.636062174 21.342090243 3.4666385158 23.300966214 30.208622811 
28.844267446 28.232808649 27.881296989 28.871444657 27.139442057 26.45177187 29.408047827 29.323101811 29.212629345 
29.147917423 28.798425378 29.103599711 29.07433556 28.643455545 29.106357816 29.101098722 28.630359439 29.15483536 
29.122808056 28.715035119 28.8915873 28.874366636 28.536608137 28.715571264 17.314855725 28.538749885 28.534859973 
28.124481828 28.744321114 28.771769623 28.153616548 28.754098885 28.75490752 28.345609727 28.805485458 28.768213766 
28.378430775 28.606836284 28.542252267 28.267532146 28.513142214 28.574222652 28.756455328 13.508700948 13.109454039 
13.336923426 17.16511383 16.823220159 4.442430701 4.803778621 5.2090309701 5.5901424051 4.8319159124 5.9897652951 
6.3661549956 5.6393706066 6.730422566 7.0806774537 6.4069977722 7.4491217506 7.8079600109 7.1440471693 8.1742248164 
8.5430049311 7.883413719 8.9096316757 9.2505073241 8.6213267954 9.5870473245 9.9243356231 9.3294665041 10.270291255 
10.618013387 10.016703312 10.990106684 11.350215923 10.739384699 11.697996869 12.061122371 11.463284402 12.41672565 
12.759763508 12.170107394 13.094897452 13.449834158 12.863985104 13.813219147 14.175869029 13.565259836 14.549698712 
14.910231808 14.304752077 15.262844431 15.613340837 15.03307481 15.971286246 16.340384746 15.7450623 16.709627064 
17.07009218 16.473413093 17.441893225 17.812677969 17.21543386 18.178801069 18.551053585 17.95415389 18.93310834 
19.304395757 18.702668403 19.663862988 20.022978241 19.444532841 20.386154752 20.752721258 20.167499471 21.124229114 
21.497539591 20.902317302 21.868942786 22.218815987 21.644866947 22.570379595 22.918374717 22.366972983 23.285099772 
23.656786905 23.084294097 24.013792409 24.366849243 23.806793032 24.707233073 25.078578977 24.502828654 25.403718188 
25.766150358 25.167653532 26.147285509 26.52448979 25.873151739 26.931508485 27.300999922 26.660077939 27.677795621 
28.025120733 27.443048219 28.428699641 28.824084197 28.22293144 29.260786115 29.6551256 29.062844553 26.179370202 
26.236404571 3.733734581 4.0546550709 4.0373152262 30.085805209 26.019086518 25.973829061 15.787192571 15.505818097 
25.069303176 24.475055511 23.955693677 6.1413366757 5.4330672649 4.7964688076 4.1925388238 4.9901306004 26.022205046 
26.049577378 26.557628049 9.490924668 8.6386122901 29.930197583 29.816423296 2.8256694222 2.9217765983 3.0344932684 
3.0389251836 3.3670218818 3.0473181331 3.0127093307 3.4795043171 2.9114729754 2.8902989287 3.3796429564 2.9454227423 
2.9520855149 3.3305332725 2.9886180931 2.9904858007 3.4217477293 3.008129869 2.9994873259 3.4771047041 2.8997096193 
2.9155935783 3.3959376965 3.0122054318 3.0576040368 3.3950357797 3.0767810899 3.0994981787 3.516944521 3.1042443741 
3.125426537 3.5474241171 3.124093643 3.1531974265 3.5595754587 3.1608295559 3.1947296205 3.575901045 3.2140983186 
3.2843449829 12.502319632 16.450846564 16.112461843 15.637251701 16.348439471 29.652837922 29.539955173 29.040798363 
15.235450256 14.973080488 15.029172955 19.567298289 19.129834545 14.732627341 14.47255931 14.50755095 22.032151992 
21.543803354 7.7656933653 6.9412544521 6.4279340695 8.1033050284 3.2826769006 3.3728882333 25.791112892 28.255796465 
28.466041311 28.458288217 28.013077298 26.295640306 17.545386704 17.11549112 17.90970783 3.6423618129 3.0741972892 
26.845421651 26.230674803 27.694093842 26.730614776 18.753497737 18.693119509 18.30701202 13.93976228 13.571827563 
13.760723877 21.297987798 3.8074012049 11.264099386 10.389778925 9.8751177827 20.477616245 20.032078559 19.665306319 
14.230255841 13.922613025 14.016721885 29.336002534 3.6155574538 2.8746221253 16.499950201 16.687788201 24.219734034 
23.65918863 22.555612861 22.31099532 23.122739843 27.516291235 28.029982953 13.019455259 12.653812313 12.891559007 
28.122296898 28.077578544 28.317155544 28.37015881 27.911778425 27.893175573 27.987364144 27.823443715 27.45577597 
27.582554998 27.56748225 26.057974961 25.453768005 27.488480954 27.413742959 26.907913522 27.200294087 5.252789351 
5.6550722249 6.0739675032 6.4418673729 5.697952959 6.8204491405 7.1929516569 6.4971806371 7.5803039321 7.9511340971 
7.2658899403 8.344585676 8.7161335194 8.0502148538 9.0661353028 9.4073385414 8.7977474032 9.7615429629 10.112065436 
9.5061664372 10.484085409 10.860746133 10.236730803 11.247440013 11.598880779 10.99992401 11.936194903 12.295007063 
11.726360847 12.598289424 12.936515074 12.368821658 13.298528428 13.66455461 13.038086273 14.051540769 14.427468161 
13.789542076 14.80940613 15.16358988 14.559928613 15.514900395 15.874141524 15.294159487 16.240837935 16.611015704 
16.013174879 16.996232725 17.369050989 16.76621535 17.728973256 18.095643188 17.512197738 18.470045217 18.852413464 
18.246888588 19.220294763 19.580061673 18.989465444 19.950821124 20.314099784 19.728410318 20.690136372 21.061451191 
20.475561527 21.446441995 21.817094592 21.236328037 22.198261296 22.548693986 22.001127576 22.901785933 23.26736281 
22.73354074 23.642198911 23.997930688 23.460306952 24.429151623 24.768241924 24.26439293 25.092972089 17.557593495 
17.767745436 25.542954932 25.922859139 25.144768922 26.392956742 26.798937856 26.062614598 27.217727296 27.593854138 
26.950310686 28.028433015 28.431682647 27.802867424 28.899503174 4.0043427812 4.0002954566 4.4100710304 3.9085987772 
12.050298975 11.556846825 10.294361048 9.3987306946 26.987229631 27.03256732 26.675942435 25.900351608 3.9266642706 
3.8204841428 3.8732026509 17.996849918 18.229080695 3.8479934546 3.8842872725 4.3402364867 4.0475261218 4.0671647972 
4.4775515514 3.9660737892 3.8668224117 4.5420758398 3.9680820789 18.446965168 18.65798864 3.9996373187 4.0238052621 
4.4742500462 4.0010349931 4.0135571724 4.4864946389 3.9901648906 3.9979564288 4.4471624178 3.980311603 26.240697431 
26.199785564 21.458918485 20.970933867 20.630841572 14.220727403 13.970762612 14.702093081 14.419930887 13.889803586 
28.704794331 28.573030826 28.110484849 28.141518792 27.796614261 27.589710721 27.400134566 27.935024142 18.88009063 
19.099444558 17.906579287 15.390045336 15.051563078 14.452492917 27.280429897 19.706261019 19.234074775 28.358381429 
28.247967033 28.022827939 4.8166245123 26.686130666 18.789102195 18.341106451 18.823652612 13.490627263 13.170352487 
13.339506719 4.0027110365 4.4453642255 4.0010832912 27.230033896 27.06824149 8.4797760204 7.6075166798 11.201694479 
10.737100435 23.376522014 22.56977079 22.037297698 21.708699605 8.9167805618 25.939327158 25.326315025 12.361380112 
5.0715910196 4.4364163135 4.4138333961 16.179170171 15.791993271 15.218415456 27.682965064 11.980099483 16.627550238 
16.082784339 17.021544008 5.8251668631 5.281170618 4.8420468097 6.626590273 28.136966213 27.69875219 7.0176795655 
24.906227194 27.588746942 20.206239645 19.775423752 24.563847296 24.527769559 5.2973803933 5.7166816723 27.036394955 
6.1568762857 6.5373777644 5.765232581 6.9395633216 7.3296393032 6.6080899565 7.7260162672 8.1231174791 7.4085542999 
8.5058905378 8.8600570621 8.1912525882 9.2333803318 9.5914464166 8.9509974267 10.005967108 10.38278193 9.7429184476 
10.81671161 11.207003293 10.596856743 11.658284825 11.995966083 11.484899054 12.303716436 19.322727346 19.544062684 
12.733907948 13.098830365 12.367897829 13.523130138 13.911606779 13.225034839 14.344351217 14.727328636 14.0827511 
15.095292101 15.44728054 14.884066364 15.792410023 16.160221322 15.597248089 16.516999625 16.903418533 16.299770199 
17.309721423 17.669928969 17.064411317 18.030224981 18.404764945 17.830241757 18.760463337 19.128547528 18.545911131 
19.489958456 19.860886887 19.262977892 20.206170785 20.582528648 19.96985239 21.031196105 21.414812278 20.764648811 
21.871033131 22.250403657 21.666621667 22.749088126 23.100084541 22.618619925 23.473710088 19.737762741 19.935305693 
24.100393144 24.52926087 23.740646006 24.598897813 23.845241747 24.865280531 24.06613853 27.092171573 26.572022482 
25.994195266 27.217370538 27.404485665 11.217051683 10.321178215 23.303208291 23.030174722 26.997461379 13.331892427 
13.620617611 13.371052712 4.8497986737 17.879894681 17.469803542 16.99022074 20.123889787 20.296640322 4.8934308208 
4.8775812191 9.4178434376 8.5026410628 20.704835281 7.5888220959 6.6091450155 12.62321256 12.269712435 27.49601422 
20.456028085 20.625742142 26.110950678 25.478580766 24.97859361 26.579766538 18.764108836 18.311646472 17.9084295 
9.9243765843 4.9506520187 5.3749156084 4.966934353 4.9391429574 5.1020381264 5.4697380865 5.3680704967 16.328503796 
5.0327057986 5.067900953 5.5263150036 8.1074854404 21.169308516 21.754152379 15.010346036 14.594748507 13.298395855 
13.088598664 5.1989865543 27.031428556 15.961836919 15.501796121 14.887416094 14.07404045 13.710943845 12.910271816 
5.7959170583 6.3798934332 5.9616987519 13.861562908 6.5729811527 6.2406650026 23.444510469 5.8146148711 11.158352599 
11.608741619 12.115290342 12.54991716 11.804914365 13.017652733 13.442405359 12.776754481 15.59320632 15.937270826 
19.864325682 19.517917521 19.342222586 18.833843344 17.94660133 17.476354632 17.882148665 12.937607601 12.309823664 
12.056972807 11.661448011 5.9283904021 8.6370690356 7.7248653244 10.493477339 9.592900664 16.977225324 16.519025516 
15.949536891 17.013035122 5.8895913371 6.2722102308 6.6746284513 5.9829039779 4.9657043149 7.0765854752 7.2830916011 
8.0554886775 7.0920209472 7.491083465 6.7636375993 7.8306107171 8.2170153833 7.5224735878 8.6136256541 8.9899284682 
8.2643703004 9.4177712299 9.8373150777 9.0911437708 10.222948637 10.662201128 10.799272411 9.9083124961 13.658319066 
13.859476953 14.292542448 14.728829652 15.097466583 14.511363681 20.74470292 20.295840115 16.839662119 17.245984909 
17.861165002 18.219465214 18.57570937 19.157425775 15.444028402 19.847060515 12.728011151 9.2259822446 6.5970273767 
12.151204446 11.321312912 11.012047936 13.743405927 13.208397737 12.699641399 13.163675082 17.639537713 16.296529392 
16.482197151 14.261235769 13.619041052 13.690670533 14.765556591 12.061893047 12.465786482 22.206227304 22.701145429 
12.585279164 11.557847166 6.739696144 7.012844531 7.357887734 7.8549087608 8.2551005203 8.8975206259 9.3251387878 
9.7196408884 8.4990666825 14.104200935 14.543091512 17.268885733 7.3539369545 10.231553134 10.734695578 16.763974012 
16.221425021 15.656755424 9.6600397305 15.163346192 8.6986298697 33.172160092 32.932035862 32.994851383 32.891866925 
32.957863041 32.546609598 32.765961587 32.833807603 32.514160887 32.592767238 32.655256817 32.344893592 32.441449545 
32.505354186 32.146247367 32.302794617 32.365120969 31.981956193 32.184859812 32.241089356 31.843109772 32.073174205 
32.123040456 31.718800161 31.972024084 32.024294349 31.607359187 31.875974412 31.922359389 31.508207444 31.789781709 
31.833656431 31.415748852 31.721091959 31.754542988 31.337627621 31.660992271 31.687783749 31.268925938 31.625117118 
31.641029665 31.216317205 31.608713835 31.61829804 31.190023288 31.583978647 31.586885726 31.162769059 31.600840228 
31.598889007 31.157223234 31.610859579 31.605701192 31.178795029 31.607760202 31.601233677 31.175585094 31.623095804 
31.616560261 31.176220791 31.705383923 31.699681969 31.262753355 31.711237992 0.71186355483 2.0610565527 1.4121597911 
3.3689119905 2.8373988164 2.127683572 4.3711068674 3.8997143902 3.4234997604 5.2910120617 4.837468529 4.4383853956 
6.1757999196 5.7271524167 5.3593438895 6.9595134447 6.5820862442 6.2193975411 7.7496460307 7.3613083711 7.0435828933 
8.5915764014 8.1442284056 7.8539697423 9.3608779363 8.9865840604 8.6563950216 10.142278048 9.7504601194 9.452280579 
10.959239494 10.548465119 10.257054885 11.79581976 11.380363222 11.091935304 12.649839034 12.213843408 11.93744049 
13.49668399 13.071456312 12.782119635 14.376052681 13.945881794 13.65626758 15.281568643 14.814545714 14.546730792 
16.191332849 15.736079144 15.441420286 17.080248003 16.637670504 16.343066209 17.948292718 17.519390772 17.22871398 
18.854289879 18.406558404 18.125594089 19.72464216 19.291875424 19.020814212 20.667001583 20.183293851 19.916338534 
21.636711362 21.152511872 20.859603332 22.592506762 22.108460807 21.815979215 23.520175922 23.05338057 22.748025931 
24.418993796 23.986248882 23.674596997 25.33968534 24.874346394 24.595884124 26.283729039 25.802269265 25.51367178 
27.18873208 26.757282231 26.450021429 28.167117835 27.652653184 27.387861318 29.09350672 28.628380446 28.313300204 
30.00527233 29.556248819 29.237621197 30.904469843 30.471512986 30.166862448 31.798086745 31.348054789 31.076871378 
0.71922497057 30.687310948 31.068142843 29.815592746 30.310501743 30.407635408 28.791939948 29.365778093 29.580637539 
27.545305673 28.179146646 28.515679441 26.193797047 26.886206225 27.240639137 22.8971796 23.794257658 21.299863276 
22.100173058 22.530477687 19.848846591 20.55660994 21.002753247 18.60126212 19.223264942 19.64962983 17.425488508 
18.016531598 18.45243279 16.412869186 16.892349941 17.339833412 14.341756809 14.850185264 13.159112399 13.787465363 
13.957707636 11.76302019 12.500192306 12.697575404 10.372700314 11.082240322 11.321538005 8.8747232449 9.6861266216 
9.9257777491 7.4021857049 8.1243366489 8.457889322 6.1979962794 6.7809976898 7.0541942773 5.0723527472 5.6181184429 
5.8242177731 3.9435650729 4.500532564 4.6451524189 2.8385536727 3.3874081694 3.4946151614 1.6836505805 2.2891923866 
2.3829571788 0.63734521946 0.36052860191 0.39684184786 0.42740372828 0.45678807005 0.81599413573 0.37023598952 0.38837466873 
0.8011702866 0.33681381192 0.35082177322 0.71073898604 0.32238213447 0.32796912873 0.65684722956 0.30357474746 0.30536889536 
0.61679658943 0.32952293313 0.33417658056 0.60229007553 0.29062358652 0.29851427412 0.59172027431 0.28700469896 0.28996669937 
0.56675190016 0.28440610391 0.28465515392 0.55776785242 0.29250139075 0.28769187067 0.56232161609 0.29199069148 0.29349521193 
0.58114348526 0.30173943193 0.30141345203 0.59117754036 0.31301946568 0.30893744057 0.60547011151 0.3115338264 0.30314362588 
0.60901162958 0.33634063325 0.33220230527 0.61070006865 0.31642215022 0.31384490407 0.61909600523 0.31947418804 0.31183780554 
0.62458240306 0.34599047916 0.33152594535 0.63867796047 0.46279583098 0.43149747928 0.75509862681 21.392528868 21.336562989 
21.219406721 20.920973245 20.704816315 20.493974398 21.138928841 20.291396687 20.071687476 20.642730535 19.841859607 
19.62856556 20.163162763 19.395953148 19.158512733 19.667676728 18.936905485 18.705028932 19.189932014 18.472039706 
18.247640008 18.717824253 18.022510522 17.789821332 18.247354932 17.558758549 17.314453511 17.783047503 17.085188156 
16.874226941 17.314606987 16.606700863 16.419071749 16.812277214 16.245089947 15.797949298 15.907654381 20.9263187 
21.202434907 20.446562544 20.67148841 20.83891696 20.018740793 20.232224665 19.60429154 19.796814566 19.784253329 
19.200491191 19.400500852 19.318856383 18.777134858 18.987285965 18.876520969 18.364621859 18.565100486 17.919856718 
18.135359299 17.984509706 17.487618115 17.703268747 17.042877674 17.253279448 17.054479125 16.548017161 16.783891994 
16.559185007 16.025045801 16.252119648 32.698811235 31.345686459 32.298348515 24.27449381 24.751652081 25.521256422 
15.059893414 15.363853323 15.802678979 16.196423347 1.1064478433 1.3109544606 22.012564823 21.562542722 21.696371613 
22.081717928 0.63874381468 15.266314909 15.677698916 15.403192987 16.323815091 16.001566892 20.279863826 15.726461579 
15.462303209 21.540539807 21.614156852 22.080545793 18.436108718 17.522262927 16.012626467 15.781043495 21.765122346 
32.020987075 1.0607489271 32.176012416 32.234461106 32.158889764 32.133355544 31.632728051 31.820603382 31.68409344 
31.771979027 31.504676766 31.581545044 31.206984078 31.349773967 31.412096714 31.011385525 31.222609275 31.285086013 
30.853443221 31.120259526 31.169572515 30.735124783 31.016041829 31.066209963 30.627232032 30.949547051 30.992180473 
30.548358581 30.869186095 30.904530212 30.478374003 30.801217924 30.834200792 30.398094733 30.755443479 30.7749841 
30.336944549 30.728668091 30.734531079 30.290504999 30.698937029 30.719490407 30.261418605 30.716330195 30.699958606 
30.255433653 30.752162109 30.745921525 30.288026792 30.729683309 30.737965627 30.305341192 30.68424751 30.674274607 
30.237568992 30.797912 30.720502078 30.220182563 19.398514736 20.010046461 4.5317101465 4.0477824223 3.55696438 
3.0123819079 3.677055728 2.4228746274 1.6952375655 1.4230805353 2.6114620773 5.4368719645 4.9813916312 4.6213307193 
6.3026713591 5.8794497537 5.5231626875 7.1278152848 6.71060925 6.3846547949 7.9282631061 7.5196596146 7.1972591669 
8.7378082882 8.3308704543 8.0042177091 9.5425531162 9.1430285955 8.8225037361 10.361289819 9.9462692767 9.6407616211 
11.216517416 10.788147327 10.479932264 12.067380804 11.643703638 11.341426438 12.930296423 12.504393962 12.211182342 
13.813413853 13.360988947 13.083296496 14.71329549 14.272432439 13.9766345 15.598139733 15.142389455 14.86757177 
16.503089057 16.056342882 15.756544434 17.389102677 16.950055416 16.66264332 18.292946425 17.835214794 17.556176065 
19.20045865 18.76346557 18.472925728 20.093348345 19.635502316 19.378487982 21.042664663 20.558136284 20.277922346 
21.993986712 21.523026662 21.222479882 22.920530269 22.460242092 22.168581208 23.837011201 23.371248273 23.085048044 
24.755800992 24.300609248 23.998800027 25.684888693 25.222408566 24.928587056 26.637693159 26.163937667 25.873816307 
27.55819518 27.094194072 26.808943716 28.471643207 28.010177786 27.717114535 29.396121802 28.933131008 28.630365588 
30.337966005 29.871442111 29.567290931 31.212103996 30.768352423 30.473267836 31.324569633 28.354966975 28.970743247 
23.637917534 24.589477132 26.804647933 27.466483773 27.916187147 20.631959277 21.361097344 20.352744012 22.071633215 
22.856353976 23.163475301 18.264651484 18.838138666 19.180849825 12.27065929 12.968131462 13.634949982 14.23432542 
13.23415222 9.4793911382 10.193956053 7.9646259158 8.7504014125 9.0103776561 6.6127872798 7.2664599139 7.5572029377 
5.3921153384 6.0015677951 6.222933394 4.1686485892 4.7667869991 4.9680296669 2.9817929377 3.5453862643 3.7153337631 
1.8227300416 2.3481334537 2.4837679984 18.066183925 18.290243036 22.550038342 22.572672257 1.0452348643 1.1000378029 
1.2899603401 1.0142029971 1.0447506725 1.4119286906 0.94760045496 0.98146681629 1.3523744564 0.92543725695 0.93666714311 
1.2886036804 0.9121598585 0.92338336089 1.2597393822 0.89754251051 0.9055168003 1.2431992844 0.88884980353 0.89410063998 
1.2279152428 0.89229111214 0.88547624341 1.2177287147 0.90479472877 0.90003493041 1.2210078193 0.93067944941 0.91654537177 
1.2444770546 0.95323077809 0.9386637305 1.2713102605 0.95437894303 0.95806366716 1.290868584 0.95165426531 0.95315334169 
1.3022996755 0.97678348664 0.95694713797 1.3148362623 0.98329477164 0.97468563089 1.3316658786 1.0141679033 0.97518165813 
1.3413642571 1.2113056831 1.0979118276 1.4433887574 1.7750858064 22.620733948 22.531675414 23.010976808 20.061719255 
20.347311065 21.066717564 20.813729029 20.515158839 20.248009699 20.89613764 19.949618737 19.69110128 20.275433347 
19.509758635 19.268828135 19.78344456 18.994362677 18.746461196 19.308334792 17.607953953 17.370248615 22.189091349 
21.841415283 20.66171802 21.005047504 20.451416144 19.000075855 19.235958038 19.504470447 19.776038584 19.218702892 
17.117624871 17.350088467 17.592591576 17.832017651 17.209905916 16.079858689 16.338794284 16.619421815 16.858989425 
16.70069434 16.158482252 31.908651614 32.019749884 31.739750276 31.446570776 10.90691128 11.616734269 10.477981155 
21.545644463 21.263459796 21.427671852 21.937688621 15.160555781 15.092593702 18.525228101 18.76052463 18.68019804 
15.500401016 15.778301902 15.57992759 1.3668680463 29.53236294 29.692651597 22.705274084 22.723099032 21.680974583 
14.870672629 15.190339489 14.977172443 24.930665743 25.582715111 31.061888517 30.14422455 30.520962451 14.687995161 
15.232972096 25.90624275 17.776031027 18.145588041 11.872811902 17.245186063 21.364913435 21.722673762 21.151828406 
14.409354836 18.183547557 17.698590045 23.133874872 1.2929966673 22.720924109 23.073938114 19.812681289 16.95687246 
14.869516265 14.698923517 14.577531156 16.675183302 16.445658347 17.801181356 17.865663446 18.343249256 18.039362978 
18.470694869 18.237428737 18.262238956 26.126071165 22.544735118 22.948559114 22.328764099 26.481119128 18.742084116 
15.830561779 15.516784928 22.869224737 22.394642362 30.334031267 30.39935016 30.690470339 30.793355902 30.225618124 
30.279301279 29.824656687 30.123128595 30.177857381 29.721040824 30.066460491 30.091135226 29.640193621 29.980988254 
30.02650099 29.566647832 29.909113352 29.944203931 29.488696456 29.84855952 29.874500661 29.416433798 29.809101304 
29.829119609 29.362977324 29.761393956 29.76889045 29.304325742 29.752704153 29.749787356 29.255105275 29.835255363 
29.803773328 29.297463644 29.897672654 29.910282966 29.42631395 29.664765523 29.718339471 29.323802202 22.467556539 
23.240155285 21.190641863 21.892310022 31.522502074 31.446991935 31.026069786 23.537030683 23.545889361 4.735073799 
4.2786983905 2.8679669432 2.3128256566 2.0674578892 7.2617672354 6.8572342097 8.0657986118 7.6520148399 7.3216297739 
8.9062129699 8.4909780275 8.1466865104 9.743597768 9.3310768871 9.0058526298 10.595764099 10.16094198 9.8559992239 
11.461749655 11.027998099 10.712613067 12.34711036 11.904737929 11.594289067 13.233679859 12.79878104 12.494445843 
14.148618489 13.686281115 13.403098404 15.011605583 14.580201551 14.290702214 15.915478925 15.45586826 15.169094328 
16.816352502 16.368564867 16.068352244 17.717881228 17.271438115 16.977732376 18.665717636 18.195177245 17.910871275 
19.532276337 19.097446092 18.820246896 20.463409403 19.999079599 19.71884139 21.400267054 20.920576905 20.642759704 
22.355213788 21.889480143 21.588727077 23.254373993 22.804269795 22.5264432 24.163376002 23.700434269 23.420866788 
25.103678675 24.637599587 24.340380132 26.055323999 25.576752059 25.286710503 26.987661178 26.531568747 26.235143971 
27.885240599 27.433488748 27.156637241 28.798444267 28.336966523 28.053773493 29.730869151 29.255389496 28.962265277 
24.258429386 25.259026555 6.4652446492 6.0440923314 6.5292943943 27.376868415 28.269943585 30.486139263 30.579034418 
30.165420769 29.96686041 11.463885371 12.14513448 21.311890442 20.990697314 7.056644325 7.7799883369 8.5183450877 
9.2732032205 8.0448364814 4.5289643141 5.1677935451 3.2990931558 3.9102762794 4.1419945682 2.0967462623 2.6821701603 
2.9241332466 1.6299570589 1.6260941412 1.6525154908 1.8505004477 1.8795889385 1.6221946209 1.6354447329 1.997892042 
1.592073247 1.6047222812 1.9808369412 1.5738104716 1.5811136924 1.9460861525 1.5746743577 1.5808326354 1.9383037843 
1.5934160718 1.5848459998 1.9540474311 1.6307760705 1.6135040565 1.985320057 1.6633688935 1.6498608663 2.0275791903 
1.6899279608 1.6784777842 2.0664579169 1.7073698403 1.6994273334 2.0979299419 1.731759537 1.7143756562 2.1236848931 
1.7466440118 1.7317446782 2.1440483515 1.747394116 1.7327141527 2.1466116927 19.517835799 19.843822224 15.168369725 
14.833788744 10.014459117 10.753165892 11.012859804 9.5426118872 20.1848615 19.987484764 26.827686517 1.6931033233 
1.7477191222 2.200917759 2.0397765613 15.064797378 15.360967366 23.677716463 23.726659796 5.7450797228 6.3783237976 
6.6116996132 5.3410776453 23.569160236 23.524148087 24.004049832 12.841984391 13.553388786 12.440814073 3.8350660571 
3.3469531262 3.0599851713 3.970353551 20.196668005 20.543042626 19.904118589 17.829835245 18.084540239 5.6258045635 
5.1724928723 4.8493592799 5.7099385299 17.323126016 17.572183615 17.475829393 18.349675813 18.61473873 18.016843852 
18.888905774 19.193154946 19.201963777 18.577804756 16.807496375 17.06009651 16.941089296 30.429111148 30.94539517 
31.082389065 23.529593398 21.952727853 23.261958381 23.463876517 20.636048042 20.904297616 21.26901482 25.792052427 
26.469906509 30.618323738 30.187659842 29.876012524 30.740850644 14.40562273 14.21786279 14.056888245 24.137432085 
18.834517595 19.378907107 31.365871586 20.071401786 20.690226195 21.926299248 22.136895819 22.555959005 14.466056849 
14.768724033 14.562837259 21.868710264 27.375184954 23.873940029 19.672145788 29.494384315 28.977334378 20.886702329 
16.523750016 16.385507697 16.259890862 1.8326879887 1.7160405113 2.1199743462 2.3316965508 14.354652719 28.436507624 
14.122591726 18.549262669 15.17437345 15.677815128 15.957651762 29.289969916 29.345602529 29.040112559 29.081357224 
28.987481725 29.025185349 28.535899304 28.905454551 28.940223356 28.471781516 28.844215452 28.862895772 28.381436499 
28.835836815 28.874465075 28.370400998 28.573204014 28.581527582 28.147214625 28.85003375 28.795929695 28.12242975 
28.987492012 28.910049307 28.40984004 23.026729459 23.514698166 22.800071813 13.737100416 25.23703145 26.481642333 
8.2122174278 7.777336916 7.3352232647 6.9355681747 7.4013504642 9.9550219059 9.5299956052 10.822001762 10.382635326 
10.062895735 11.736088621 11.286790917 10.962502484 12.655218851 12.198367054 11.89570646 13.545805705 13.089205911 
12.796756054 14.43858262 14.004061043 13.692731743 15.326687512 14.880092861 14.595413141 16.221121924 15.76651083 
15.479171976 17.129052154 16.673007995 16.372573421 18.091876366 17.613942157 17.310444509 18.989228588 18.557388199 
18.261657998 19.889649334 19.422877416 19.161273409 20.816919787 20.359942596 20.065361135 21.763505922 21.274840328 
20.99355849 22.703218118 22.254727367 21.942290453 23.593774861 23.148482629 22.878000256 24.521743772 24.048451199 
23.777052602 25.471849393 24.999752505 24.708601981 26.436299861 25.960894092 25.674371068 27.332984635 26.887796216 
26.613751943 28.233604429 27.782288416 27.513498922 29.142049049 28.685246094 28.413830159 27.746745024 28.098884278 
30.864992805 17.09917958 17.373360593 7.5261480027 8.2801012927 19.574313076 19.947058648 20.498837541 16.154428971 
2.6677556969 3.2507448882 2.5424863407 3.7289688522 4.3422803885 3.4727954646 2.3065617119 2.3228018499 2.38006993 
2.4060239926 2.7476005441 2.4151211948 2.415619716 2.8220881245 2.3201376944 2.3157973784 2.694233914 2.3760056488 
2.3665011973 2.748201855 2.4138065201 2.391831123 2.8097136224 2.4673135031 2.4442533836 2.8573591417 2.520989325 
2.4998857755 2.9242165264 2.5592685478 2.5417115203 2.9837456346 2.581177744 2.5618604001 3.0148547503 2.58921213 
2.5736750804 3.0207708872 2.588955633 2.5843970015 3.0232723566 29.123044891 29.156258812 28.594915203 29.187058123 
29.235955377 28.756471773 28.669822436 24.539064779 24.632050539 24.358868147 24.48496735 6.5385434123 6.1358501165 
6.5537425434 9.0891629401 8.6556803695 8.2952119281 9.1871268846 24.506022905 24.529607983 25.008422826 23.9059173 
24.416733459 25.104817854 12.004387501 12.722409919 16.543439815 16.818824353 16.717873388 22.095246269 17.656347406 
17.941716536 17.295631075 13.458996025 3.2202896668 2.757901005 2.5185643931 23.790916322 24.048259305 24.631566819 
20.329422381 20.698532477 19.994623637 6.7806583354 7.0272129609 6.0891535001 14.651585777 14.968549478 21.407257222 
21.671972567 22.081955909 13.76494583 14.211144771 14.014208074 13.015822636 29.579237319 29.302405943 30.036214573 
8.5745454863 9.0753424614 29.605780112 29.717223116 19.212589212 19.237635779 18.862660103 9.8323399759 29.423931953 
29.511052279 29.063083599 28.889741008 26.921526887 27.451504085 15.794713996 29.802391652 29.95445625 29.242856403 
10.614771262 11.342672572 10.159788211 4.7974351514 5.3870559142 5.5747448955 14.005736358 14.301735122 14.105690774 
24.975322062 5.815288779 5.8039037576 5.3774711089 28.80988602 2.3484240392 2.4029847322 2.8512938892 2.7729301683 
16.258039871 16.140635728 15.967534839 11.611842133 2.5292694341 4.1403148743 3.7054224202 3.4176133919 5.0135264515 
4.5757752395 4.3215978521 5.1154252956 18.242835648 18.540158629 18.536998562 17.896325284 2.9785660081 30.456921411 
27.959339117 27.976602434 27.835066895 27.801400955 22.525758097 22.989228649 22.256679619 25.591133648 25.629123127 
7.4376404168 6.9874578778 25.550790002 25.557489083 11.089301384 10.617641813 10.158105002 9.72307285 10.286500536 
12.938832285 12.500686642 13.853684433 13.392071575 13.100578211 14.747091473 14.302699354 14.005902599 15.62373727 
15.181958393 14.892523705 16.525815581 16.072606266 15.778246558 17.494674234 17.008765868 16.711329583 18.440129501 
17.974087522 17.67448098 19.321117041 18.887212282 18.601373915 20.251489899 19.781222883 19.508811273 21.158359944 
20.700748834 20.418366432 22.139564344 21.649096695 21.357954253 23.03761852 22.593360814 22.30148614 23.964703688 
23.511132593 23.227550244 24.903724366 24.42704199 24.1617703 25.892554315 25.40482583 25.123396738 26.834011185 
26.383559691 26.11386383 27.744774014 27.296274719 27.065913001 28.626916342 28.175622198 27.95819354 8.0783595598 
8.8795783289 27.681799023 3.4551230612 12.049119621 11.581248396 11.244582867 12.192669002 3.1039080879 3.1682271243 
3.2995382604 3.7642968084 3.1535148285 3.252874049 3.2077600583 15.331977105 15.637690945 15.51813961 14.821265406 
3.0659844572 3.0606304926 3.4803643661 3.4005190233 3.4190750035 3.7612629238 9.7223089307 10.509872513 9.2409944344 
3.3056449314 3.2905248315 3.7550424828 3.3679836581 3.3351306937 3.8205981898 3.4496319278 3.411905589 3.8956043659 
3.5009259582 3.4734371628 3.9673305028 3.5263332898 3.514177548 4.0103027853 3.5460953005 3.5397057816 4.0447639942 
3.5358241603 3.523099009 4.0478556168 25.482357115 28.045087127 28.089002681 27.466582263 6.5142052911 6.1095093786 
6.553917878 27.98956067 28.037956869 27.472666547 27.815961196 27.858408029 27.417931042 27.271444832 11.338266936 
12.005813039 16.314353291 16.608086641 16.9018005 17.200368547 16.510304039 3.9601830957 26.000526 23.514932285 
24.036005685 28.176294925 28.23162871 23.22533357 19.634582553 20.024865581 26.15248622 7.9205415513 7.516592479 
8.3715259286 13.50379285 13.857730653 10.90727316 26.59514548 26.678018534 13.750763239 14.338394697 14.704319962 
9.3810980673 9.2846764452 8.8362654529 29.09656309 28.858417999 7.2661447602 7.5870854306 6.5172670853 3.5767909352 
28.496069751 28.590683009 5.559486953 5.5957564788 5.2542942238 13.44116557 13.694905694 13.441407251 29.533679558 
4.4067813325 18.863410818 19.239012346 19.259481969 20.778521069 21.092420834 21.498415572 12.580770196 13.322656683 
28.315892114 28.394741336 27.92301528 27.737100882 28.695502121 28.780309491 28.310991255 28.128697133 30.160420213 
5.1007057988 5.8054232307 6.0619379054 24.870289085 25.192130032 28.122325798 28.155314526 27.630079078 27.572428549 
16.012164117 15.902711606 15.716538496 17.134804664 17.517821057 17.835944885 25.615184146 25.839945147 4.2315683601 
12.306420198 3.7970680898 4.4237734117 4.6755348225 22.892314323 23.417432015 27.578951488 27.042721063 27.079562177 
26.758429649 26.690508629 3.210415889 13.067861345 12.826582211 12.751819907 24.306041595 24.595414037 25.142629004 
14.12899022 13.676771243 13.267017286 12.810774719 13.391940093 15.948552124 15.498009743 16.896321854 16.412450126 
16.136172678 17.858205338 17.378471024 17.082544183 18.785251907 18.337928643 18.044463321 19.684411832 19.224204383 
18.963271917 20.598209392 20.149100655 19.866731588 21.53507018 21.045334388 20.7782077 22.472981607 22.020372088 
21.709407694 23.420048081 22.948110896 22.668075613 24.348500434 23.888044919 23.60911391 25.373875679 24.874714512 
24.600721441 26.384161443 25.894566037 25.645004854 27.380776223 26.919400276 26.699216474 27.880537377 4.2896327398 
4.255083435 4.0881593511 3.9492158552 4.6286552648 4.2958356483 4.2672471821 4.7675314799 15.10706321 15.442164556 
15.316576187 14.636202779 21.949069413 22.395892121 21.627688092 10.464067243 11.28385299 8.7757793896 9.6127167629 
4.5101383072 4.4642786016 4.9124157974 4.5829723135 4.554740608 5.1260084108 4.5895490429 4.5695257235 5.1600429887 
4.5993514205 4.5754065521 5.137205062 4.5605345836 4.5704768827 5.1006549671 20.073694289 20.43631245 20.834732936 
16.074962929 16.381495021 6.5895046175 6.1102280264 26.907860183 26.9315648 26.380401865 4.4705334735 4.5352101173 
15.035504695 14.598436939 15.208582487 10.378433434 9.9116248677 18.172644196 18.512202448 18.502564008 17.802018651 
5.0556552176 26.896145521 22.578292748 11.619142286 12.057957272 5.5769154165 8.4706695924 23.96537546 24.520336146 
23.625039895 26.818104355 14.274574875 7.6101829666 7.1215324775 6.6890125654 13.319584531 4.2320852253 4.9025102701 
13.216212344 13.702491838 9.4166026265 8.9705093914 9.5131306878 12.558224922 12.38834841 11.933761555 27.733419159 
7.060280223 7.8715102632 8.2653562798 13.005691642 27.12031409 27.205259121 26.401646353 16.299419713 16.725927176 
17.056542211 12.430843919 10.010575344 19.679893568 20.09632405 15.791839205 15.659519918 15.479030032 5.6182051131 
26.830748379 26.903620526 26.407396523 19.24467303 19.262341729 18.841555591 5.5901880481 6.3020646059 5.1541843816 
10.915560651 10.552413521 11.412663393 27.629171834 12.596381501 12.56053174 12.149315659 22.208563025 22.70870484 
17.315009936 16.833198335 16.350121671 15.885836213 16.588118675 19.137271972 18.69862716 20.949390974 20.503172909 
22.8300376 22.356821948 23.750534951 23.28534397 22.975120229 24.867994311 24.344607336 24.019420136 25.955936918 
25.437161688 25.178823897 27.072013837 26.537667058 26.328058833 27.466679427 5.3139107214 8.5749728511 8.1034280991 
7.7191022994 8.6130012522 5.8635895294 5.8195634777 27.365644549 20.188464508 20.581797581 5.6385339526 26.245606085 
26.750140226 6.2391074471 5.7326334218 5.7403348753 25.536410817 25.819690086 21.269437262 21.724460714 21.848866567 
20.925093084 15.367261861 14.903234817 15.587084836 5.8404119697 5.8508200067 6.5399357691 3.9972598897 18.257492826 
17.777865923 17.531793684 18.435342745 13.33516246 12.921117096 25.103022467 25.77531311 25.963787942 24.756124541 
5.4260595372 5.4510581863 11.392494478 18.428290214 18.406624787 18.066608843 18.848479798 19.28941582 9.526031011 
9.023278285 13.829370022 14.345420518 12.499430349 25.98636447 20.064861485 19.600670969 21.915453199 21.432211782 
26.168797561 6.6019181361 7.7351391394 8.6352213603 5.9689379316 4.8905317959 15.825455542 16.182305575 17.433814138 
17.783036903 17.70115094 17.033337708 6.7761199727 9.7366770633 10.569345695 10.170084597 9.6935408106 10.711786373 
5.590963078 6.3282194961 14.549639887 14.384745139 13.913012124 15.092408283 15.387096242 15.264759083 19.338753206 
11.614055448 9.2255025668 11.122514786 13.450620012 22.080042751 21.159012406 6.4290994999 7.0607964873 7.1561954798 
7.4987912462 18.351504775 18.374808586 17.932328693 17.931207101 8.4151351681 8.399231451 23.252953564 23.803864387 
22.880971367 15.870831975 15.352990816 20.239710899 11.895332184 11.373142895 11.00394586 12.268444819 25.543673465 
6.7290792964 7.1198039691 14.748108395 15.031893454 11.95078527 12.582284197 14.812280615 14.292949432 15.106667804 
11.155935784 10.635348693 11.477161496 19.749656896 12.736470356 13.321495643 13.964979972 21.021144103 13.717226086 
13.13568852 13.991458557 24.393525963 24.976534896 7.2266798388 7.2395194592 21.500336795 7.8457210018 12.867932954 
12.588035902 16.19282599 11.65168963 12.146307536 14.152491718 14.638050716 17.472765661 14.922121148 8.0124189994 
7.3398069451 9.860979998 9.2096346577 21.989135536 14.019801255 14.687558562 8.6579686837 8.7555220436 8.4813026346 
13.435564513 22.427291941 16.928110843 16.446758688 16.22102988 17.334992379 9.840769486 10.187054016 16.251802394 
16.716466169 12.896485733 15.673172207 17.395695383 10.650565718 11.312929335 17.103973671 7.9949334752 15.140942987 
11.988137816 31.718529334 0.87075723353 1.6486774866 31.337179055 30.95593371 30.426065231 29.930517817 29.370670022 
28.796995239 28.144694604 27.512328155 26.754822873 26.065707011 18.901857834 18.273630423 16.510649921 16.044607434 
15.617379728 15.195260834 6.7106651426 6.1437084624 5.5182948035 4.9848894116 4.4779726955 3.9347701731 3.4080103898 
2.8638226832 2.2816358333 17.048207109 13.731663713 14.213377251 12.551418042 13.120047314 7.3742933412 17.63535107 
25.234738728 24.468425357 21.954765927 21.141544103 20.347156793 19.625533315 14.705404904 22.717027087 11.827434802 
11.084354448 10.386468362 9.6032201611 8.8095263876 8.0774005541 23.619192758 0.87581528516 33.229466302 32.86243947 
1.6164536747 2.1827493573 2.7790386002 3.2156059927 3.7167700599 4.0859415468 4.5413971148 4.9156209054 5.3580012959 
6.0475610182 6.482233254 6.7937343982 7.1623146912 7.4558913383 7.8366920574 8.1732618896 8.6127351875 9.2448315661 
9.6141894262 9.9258242731 10.31346792 10.628186338 11.035120279 11.353456077 11.765151146 12.442031802 12.876680049 
13.204661429 13.628726738 13.960435586 14.389184883 14.740490176 15.206074277 15.901273675 16.356877842 16.7327373 
17.175650356 17.521268873 17.950538221 18.298174045 18.746148983 19.511727162 19.945350174 20.346037989 20.830608748 
22.017431654 22.501902542 23.269740324 23.736543581 24.086324353 24.518963318 24.868170923 25.333490121 26.163316027 
25.682152046 26.893120493 27.324161378 28.551386621 29.016118996 29.697217112 30.146089934 30.512134373 30.945030708 
31.311488274 31.76163433 32.128514659 32.528780124 21.164882175 21.649721975 26.561426412 27.672387511 28.186421104 
5.6979269663 8.9356681148 12.08730801 15.561037083 19.145226804 22.869272702 29.364851708 33.524912924 32.07786633 
32.072830138 33.464530049 33.401756155 33.296814141 33.231168196 33.177513022 33.10993632 33.06139377 32.999071891 
32.901166852 32.837852038 32.788727625 32.726955445 32.680603449 32.624647597 32.581363056 32.531380995 32.443875322 
32.392745324 32.356650535 32.310936514 32.274658132 32.230754201 32.200473942 32.165944809 32.118044526 32.092285933 
32.077313022 32.061259871 32.049907961 32.039274609 32.032805772 32.028683958 32.027272625 32.029198332 32.03186696 
32.03640462 32.040672741 32.046462827 32.051230857 32.057134669 32.062112177 32.067472561 33.349802011 32.951366523 
32.490067619 32.141562433 32.027180011 20.736563115 20.599475036 20.444217259 20.289264241 20.119861288 19.938580571 
19.732135635 19.52471814 19.33208855 19.123140174 18.9042582 18.70094239 18.475729682 18.250584619 18.043766267 
17.83635843 17.614293571 17.399201909 17.167388197 16.960750115 16.756021474 16.563566485 16.366830586 20.738849259 
20.598333416 20.279196966 20.430597976 19.907595437 20.088687817 19.538651426 19.725026079 19.126968859 19.341744197 
18.702269434 18.917246915 18.287234927 18.499464525 17.843422503 18.068181759 17.386550408 17.626540736 16.969747565 
17.181805555 16.557121108 16.746847228 16.35582891 20.885953952 20.75415351 16.592117058 16.81092743 20.443832213 
20.611860376 20.102373455 20.287220408 19.731072165 19.908441198 19.357850048 19.548063826 18.943943229 19.148010447 
18.528523383 18.725831812 18.31574818 17.893125334 18.111570515 17.474073603 17.679897627 17.015488614 17.243478951 
18.281210014 18.481146444 18.682804618 18.886486158 26.122692068 26.359796238 26.596497799 26.833583492 18.037034733 
17.829801441 19.095901345 19.953488806 19.746972801 20.733068381 20.301862269 20.132397262 19.30501846 2.2912547975 
1.9325944895 1.9799742396 20.607853262 20.451529866 16.944238932 17.155564935 16.741725981 17.614107039 17.400112027 
16.552865348 16.365173692 18.659129608 19.100462894 17.968079743 18.409934637 19.501639151 19.561259806 2.1985851954 
1.5378303503 0.71647741469 0.63217803003 1.422922764 17.194859818 18.691906248 27.082985246 27.244846368 26.364134869 
26.523766358 20.068928065 19.284751423 19.715227704 17.452846933 17.697012336 17.322329804 17.944933353 17.58046479 
13.362612379 13.363369076 12.924555688 32.361443314 32.329247617 31.963784972 21.037771522 20.76913058 20.590889354 
20.322315526 2.2948760843 2.7104461452 2.700176939 7.3807028602 7.6812444941 8.1940390864 14.080975351 13.776948385 
13.635779651 13.325382193 8.6812976204 9.0422563276 9.0795901639 18.071295101 17.593966512 18.213062396 17.735107251 
6.8761980771 6.5829550561 6.9573403154 6.6676025405 6.9187909329 17.546186031 17.061039788 17.365048199 11.330235613 
11.574251102 10.87974227 31.453686868 31.869284508 31.815244512 0.88063887845 0.90109922647 0.55470014859 0.56900196432 
14.080162706 14.81437705 14.60478868 30.926852496 31.288183763 31.285130716 23.122223826 23.166021657 22.56982817 
18.675771022 18.901519283 19.018586232 0.22670154414 31.788085714 31.338047056 31.369291862 26.744863248 27.049878003 
27.404987922 31.524531354 31.472414737 31.028173258 30.976387383 26.486667949 25.944589076 26.852721358 26.30975291 
31.410394552 29.681712511 29.670012262 30.14502971 30.135085823 23.618082077 23.722127289 23.311449206 18.898154968 
7.1975500105 7.5430717181 7.2852538462 20.597723473 20.155463438 20.260201845 18.948615988 20.698634075 20.5324178 
20.990205065 29.614710887 29.774961883 30.071625004 13.307813052 1.585879212 1.5162398415 1.8596430079 31.941690397 
32.017115576 32.355406231 31.417655988 31.393606346 31.052558989 31.023704897 30.554838228 30.990651717 16.737498775 
16.332627156 16.810759953 26.930327413 26.699581671 27.065241237 26.835134857 30.950358802 30.517545234 30.971187563 
30.5384712 28.802946855 28.395261974 29.315669739 28.910011809 15.679763223 29.52606934 29.542506202 29.939976026 
29.933204082 29.716028865 30.08363811 13.216666193 12.801105575 13.486297421 15.893476466 15.422904035 16.1463774 
15.686617194 14.077191109 14.284082251 14.606941528 0.30987546899 0.27772771243 0.7762784026 0.72406988946 25.63258684 
25.757665619 25.993170323 11.563045188 11.759558384 11.900657407 12.097159907 4.421850586 4.2968670622 4.0437261257 
3.9141155741 10.203697154 9.9588144156 10.101757193 9.8576304292 19.232013349 9.303335914 8.9632372571 8.5929911541 
8.6912015456 28.771864386 29.213209009 28.886890856 29.32633453 15.371397324 15.068872157 0.20855438816 0.21593727238 
18.088307915 15.66854439 16.127537465 15.445458687 15.904701637 17.670178782 17.807961462 19.132419353 8.7435367172 
9.2316506466 8.4890873663 30.057661623 30.471243684 30.100010091 15.404423751 15.633757761 15.849577229 29.402422911 
29.374135179 28.859882265 20.917693627 21.199924043 21.446131834 28.315176959 27.870741007 27.99992028 30.533242432 
30.52471482 30.212682243 0.19942208027 0.23984658279 0.53960734491 0.87143772905 0.54510938464 33.037595296 32.652358253 
32.911738623 32.253724269 31.850009561 31.787671914 33.08287176 31.610561672 29.772165669 29.82934113 29.328436147 
29.770990273 30.179228611 30.165913244 0.84253613612 0.83406753802 0.53765323037 26.768532226 27.358733708 27.233421774 
31.326176057 31.048447861 30.870209778 30.593066295 30.307276568 30.146950518 29.819223235 5.3870672068 4.8277901918 
5.291066399 9.693864588 10.479859946 10.042110684 1.1760389553 1.1862599718 6.496087642 6.8239408918 6.8606395654 
2.240044528 2.2622920816 1.8578367428 1.8778589679 6.0127028901 5.5908828818 5.9277934757 0.21416535034 19.439835892 
10.629915401 10.150048009 14.626994486 14.794683094 14.347747143 14.522421118 29.63884134 30.15790181 9.5301046576 
9.0515922622 30.097282646 30.491172915 30.478048296 4.7534898671 5.0919553941 4.7664450449 20.057694958 20.496111087 
13.106019354 12.768682876 12.467309776 0.33319896321 8.8820263042 9.2340137723 8.9517705724 29.100920132 29.240590259 
29.457726877 27.170152193 26.987114363 17.207188802 17.526078426 17.593234095 21.70542918 22.143354007 21.425585438 
22.028301551 7.846545307 8.2756472049 8.1950973391 30.855577143 30.570126299 30.97793859 18.754732626 19.016834548 
18.584934929 3.3950509643 3.4929744756 2.9079276001 19.125731562 18.90545921 2.0438634597 2.2416187586 1.6830136324 
18.469536181 18.737808464 18.489456021 19.066262474 19.339315743 17.836814915 0.19648671397 0.55149705163 0.20170383141 
0.54010142659 0.53144410503 0.53678017127 26.693855475 27.222504414 27.185219758 4.6102117696 4.4017664839 3.9930137958 
19.559541588 1.1594562837 1.4840001113 1.1529900733 22.688837907 22.994543176 22.331422321 22.636901863 29.578918298 
14.043971454 13.758614445 19.698856024 19.918654294 20.593990871 20.825167289 20.409752462 20.642121575 16.258228564 
17.442277039 17.163258449 17.578050363 17.299214723 17.825408058 18.230086177 18.226894741 13.45181541 13.341154974 
13.11349447 23.663059389 22.953716648 22.88694482 20.214616002 19.750040278 20.033282369 1.4934024343 1.1811601573 
1.5049819229 21.316045836 20.993526696 20.910795641 30.91573582 0.2269679373 3.0631234788 2.6471190324 2.7066666266 
3.7153335567 3.6165491851 4.192425006 16.502478428 23.593278018 24.047719353 23.865081466 24.761921889 23.947689527 
25.262486432 25.832366094 26.311191221 0.59380598701 0.5559327756 0.27576484251 0.92281648123 1.0221769457 0.63464584401 
32.535804555 32.599746421 16.07712812 15.788545053 16.30278489 16.02170103 17.269610726 17.325975143 17.488181338 
17.499496993 17.558106408 21.042486814 21.125701248 21.400102445 21.488462823 23.492615665 23.73162661 29.447523197 
29.532489477 29.03338984 24.097095506 24.219072591 17.3564463 17.117345362 17.093621771 24.029094624 24.394688296 
23.565955637 23.285878666 31.26391459 31.70488772 31.707666847 27.464112517 27.199157632 27.663162194 30.130743544 
28.705136724 28.125310252 28.736469277 28.156359137 13.908907183 13.908503741 22.168571765 21.598542912 22.099551863 
14.459759124 14.629742929 13.989764461 14.15872696 19.178300094 19.407948402 19.143134697 32.095641755 32.478718082 
32.019302084 30.798153608 30.762416464 30.422592157 2.7097662371 2.7453185384 3.0896374535 3.1255724466 18.799068859 
18.436394028 18.572856709 18.218009822 17.602552344 17.204320765 6.2688918591 5.8817773507 6.3398967821 0.58488236451 
0.57492695202 0.26812897245 10.428519883 10.554728312 10.093499279 24.732303609 24.658605088 25.057241416 19.414402296 
19.201039521 18.687924633 18.490030921 22.358223566 22.609382722 21.926203593 22.155903723 21.046620856 20.864995655 
21.189052866 20.703786222 20.949493559 7.5998801323 21.607560194 22.360552689 24.693873398 24.420808361 24.970342165 
9.7438779341 9.4861380047 9.8415374237 29.575449712 29.971543497 21.395510136 9.3361677134 9.8014722545 10.151172071 
21.099564534 21.804857802 30.738629077 31.205813012 30.886541129 30.50275719 30.534392471 1.2574019293 1.259995667 
29.985768035 30.290480261 29.841231349 24.195949759 24.675132392 24.067445778 29.551709218 30.05502397 30.486862545 
30.792820663 30.292307088 30.328867929 20.709489009 20.911646204 0.91338615471 0.57151522308 7.7237203132 7.4396139701 
7.7828489713 7.4997425432 8.1258514477 8.2208461226 15.377786852 15.727068185 15.604149665 6.0917216768 6.423624375 
27.44781536 26.986326594 27.301241566 7.1963829105 6.5563504466 21.871145374 21.796016504 14.25591421 14.021242162 
14.374927297 14.540997634 14.815842079 18.720533873 18.580639089 18.249897637 18.110412116 27.300188765 27.531455127 
27.296944225 30.895540961 30.451482108 27.754332987 28.304336594 27.790040492 30.46977777 30.48422232 30.939980529 
15.956723876 16.090002604 15.671276997 20.948543624 21.428566206 21.088340409 21.568145665 31.722228541 31.294695434 
17.265491789 17.482613174 27.208347579 12.751890728 12.27555741 12.065652322 31.151656893 31.572631196 31.093063257 
31.513701899 18.256067998 18.281192976 18.481509948 27.882289945 28.235208563 27.800521732 0.24908516335 8.0007369551 
8.280728105 8.3346079911 2.6564784191 2.2280826815 2.2389665819 13.292362563 12.610825921 12.533777957 12.112089872 
1.1552498814 1.4863432789 1.4834328184 1.4773438772 1.8632256349 11.91114833 12.076434026 12.65926269 2.4805982501 
2.1371088166 2.02562081 0.83146508511 0.51729374464 0.51905018533 27.890652409 27.749107321 27.673509304 28.428267683 
27.983850038 28.650901113 28.210029639 30.205084875 29.730412865 30.092177737 29.61728502 12.952430542 8.8271736578 
8.1992700989 9.7881461913 9.1558986996 10.271049097 10.599865951 28.761080722 28.334038854 28.386212484 31.361143934 
31.284118257 30.078020171 30.029521627 7.4096491977 6.8629686344 7.6620832785 12.400994234 11.797053996 12.034858824 
16.411631589 16.78132743 16.70551994 17.075230254 10.244810181 13.198068727 13.41076658 1.1547242125 1.1496285461 
0.81764096004 17.878406427 17.431728816 9.2675200127 9.842863766 7.2054561592 6.702076326 6.4337183684 1.8840993854 
2.2451010749 1.8714050619 6.6533472515 28.472102467 27.921983646 17.653035483 18.002200621 17.408826302 14.600627374 
14.3558364 14.072680749 13.501716021 14.350233429 13.786375489 2.9839309173 3.0461743932 2.5945218623 2.6584592499 
19.989613338 20.477204516 20.383439333 15.725569589 15.783246227 13.990818814 24.220297501 23.594518956 23.95474305 
14.1855236 14.305759282 4.2632824562 3.8761849224 4.155393104 3.7637691312 16.297013518 16.068677312 18.296668821 
18.553391641 18.191421778 25.781750213 26.399230839 26.45022613 11.852019013 11.445291532 11.164577538 19.07376317 
18.564801068 19.145322297 13.465786831 13.778157932 13.924993151 14.287005189 14.57270671 14.729250452 13.407109343 
13.935359847 0.51097557583 0.50913827845 10.004733581 10.442053704 10.730481266 22.803360677 23.212873859 23.277362202 
17.060456223 16.874209878 17.295905052 28.998560835 29.48410413 24.322998719 24.699290857 24.205719062 18.978333575 
18.708767091 18.649927406 4.9714676435 25.777310239 25.89979793 26.149393591 27.525434159 27.877420515 11.573057395 
11.822747887 11.472714532 15.340334431 15.6413337 15.842004563 24.685506712 24.680145846 24.194392618 17.865510801 
17.457606387 17.429340495 9.7078994545 29.714637867 30.171889076 29.717017737 30.172403298 16.007751317 16.381232478 
16.246331075 15.305970109 15.919589113 15.726521468 10.684689657 10.817991446 10.31949519 23.64921168 15.097090812 
15.433762307 15.157317758 14.947589637 14.859379483 14.651976276 29.572824944 29.184661702 29.121711696 18.572130415 
18.940139197 18.712421276 30.46069543 30.045732073 30.052542765 19.588658151 19.577031128 19.297390617 30.874487369 
31.158070546 30.593574714 30.877348492 29.101913456 29.160117759 28.711950946 29.540200226 3.6880988964 3.7363177647 
4.1152458191 12.689541708 12.978799904 1.8109483738 1.6417361422 1.3701045055 0.69018063799 0.31837802235 2.9855425954 
3.3531390283 3.4954420898 5.6868348012 5.4635967791 5.043082469 0.64935289484 10.802944861 11.043336525 10.713565964 
18.905784174 19.279201372 15.622641926 15.968234193 15.322954491 8.7975592013 8.4728805915 3.4251478474 16.063440944 
16.20628145 15.841033547 23.768893717 13.374343263 13.607581173 13.725365726 3.4994838428 3.5041194311 18.236777519 
18.683948212 18.523467226 19.985750928 20.416648014 19.973066117 1.5646601063 1.2001712988 1.2120000246 22.286961951 
22.761637154 22.56696838 1.9078622032 1.5094956707 1.5217163939 19.029770716 18.619295331 19.011429855 18.600063922 
11.347186604 6.4742344915 5.9465733903 6.7461249282 21.361562215 21.213380544 1.940790245 1.9231770184 1.5361608496 
0.20738944042 8.0865648697 7.8902364702 23.837752058 24.371000651 24.097388303 5.3332405449 5.6834896535 5.7126659678 
29.220312426 29.404354899 13.474434213 13.765134776 13.958536043 14.246834966 5.5800362275 6.0807045954 5.4009668598 
31.713093723 31.332253769 4.454590181 3.8153662812 3.9891017493 23.587558303 24.180874458 23.881683063 24.48773012 
14.448091588 14.813053834 8.8432491697 5.0614981787 4.8621335558 4.8134617509 19.255651331 6.0895367341 5.3485827239 
5.4013972604 15.461682315 15.676869142 15.806492397 16.021102971 1.1639178014 1.5126743497 1.5174404027 1.1733248594 
1.5252410915 19.886088156 19.66259291 24.135579593 17.593047023 1.90182386 1.8824711165 0.85849725767 0.54659094082 
18.129184544 17.849960607 25.522331527 24.926922361 27.637388938 16.577958535 7.8901199912 8.2901651568 25.455925738 
24.687684766 25.226314839 28.234017862 28.442980991 27.748438003 27.959580267 0.19747781463 0.52131522209 1.1130421881 
1.0370932536 0.24272341352 1.1686139566 13.986762834 13.414157746 13.731588559 14.113621228 13.51667236 14.357059256 
0.20600436915 0.52657823052 0.23009200644 12.761349431 0.52780603891 0.20055046321 13.596677804 13.851266977 13.915909118 
14.170853605 3.5983348033 20.388988861 20.755520521 28.735163495 28.682139798 29.121220499 26.42315706 26.433252316 
27.004311445 21.219623521 30.777065652 31.141275979 31.278059687 31.729226828 31.303503063 31.294317877 32.202118462 
32.648680005 32.289915297 6.3359731108 5.8910100896 30.198074653 29.744413594 29.808496851 0.38312362563 0.34238687993 
1.0480378118 30.546288786 17.236753467 14.887985187 14.637799522 10.682486055 10.336061593 29.651417814 29.612620356 
30.113296472 30.075846941 18.446444156 29.126099888 16.686930121 17.079013105 16.594163316 29.282235346 28.802552961 
27.942527705 28.377652646 29.817963763 6.0489175328 6.3809996902 5.2027996684 5.2319537319 32.030338486 31.567265481 
31.893679742 29.040004207 29.058038229 7.9063164882 8.3395846313 26.562184732 27.126343361 29.196253659 5.1371841257 
5.6559403225 5.1524355306 14.316278149 13.864684213 3.0390165125 3.5499049613 13.902369496 16.567597914 16.034100695 
15.759987469 16.09412397 16.273906336 15.848471975 25.755346421 25.833669788 25.222677476 21.037284939 20.900749125 
21.267050307 25.860613624 31.714293157 31.293089184 27.081948613 20.721861119 20.443580331 19.254224159 19.387912442 
29.771772603 32.15326546 30.514103415 30.228704263 30.928845683 31.281536164 31.278286619 31.287374132 30.944721031 
3.1073906025 3.4121329291 3.624281039 25.557783173 25.158386019 25.608309784 4.4052370189 9.7298657595 9.4038286031 
9.4715187969 15.047168704 15.167027938 2.2343633995 2.3812372999 2.3921950727 2.8376108899 2.8561667996 1.9844660281 
1.6822164911 1.6695520024 2.0571025138 2.059234961 23.101750397 22.919682896 23.574842139 23.392285646 8.9759971425 
8.6221827907 9.3017614829 20.129335514 2.3628665249 2.8116616096 2.8318748211 27.167868193 27.437193953 27.568725486 
0.82663988708 19.678444652 20.019358997 19.768738058 25.878997924 25.359367125 25.670538783 9.1271844622 9.5704773938 
4.2197708387 3.7164892801 4.2510066808 3.7431066862 8.8637548364 8.7878642943 31.749883618 12.011440333 11.782101502 
11.247085334 12.839940261 13.641884077 13.25335299 23.574321544 23.833505694 14.267270186 13.761314385 30.328338301 
30.688904869 6.771810846 6.8084840912 7.1055861473 12.734817264 12.018985902 11.352831634 11.746629656 22.630043142 
22.456157186 22.272817059 22.098583268 17.903730399 18.28192265 17.979540386 7.230326863 7.1724191108 13.283981823 
13.014384248 13.329188362 13.122153294 13.083828398 3.1953019623 6.4015108953 6.7002180345 16.700939092 17.005099464 
21.879808324 21.425823043 21.673214834 21.217295554 7.9717198462 7.490111604 7.7274314352 7.230401291 17.20541604 
17.691340306 5.7657400557 7.6789927895 8.0463682609 7.7563580787 7.3287729662 7.4000223977 7.0025458389 7.1543982944 
2.6962315452 8.4960612467 16.507831953 5.3601924541 0.2029982761 0.5246557411 16.833599236 14.694943665 20.726263547 
20.630234605 26.396115191 26.930126324 26.348175742 26.882766243 13.219478952 13.206974588 13.49061558 12.871625543 
13.156369905 26.943587733 24.6321435 24.756468959 25.098620248 25.222680992 25.01382122 25.338852622 22.735745567 
21.931389066 22.385035176 22.22360012 21.301525695 21.088168947 20.940195831 12.941780316 25.536705929 27.672373416 
2.7961984034 3.2427886239 6.0793056114 25.322261931 25.275509224 6.6931788632 7.3878685856 18.963786842 19.337095765 
18.969474641 17.749228163 17.666330052 18.025559942 0.22295288042 26.476785022 26.303094928 25.805988162 20.508240728 
20.201676719 20.169137972 26.37153664 4.0425193231 4.5820173109 4.0133426963 4.5523771318 3.4587532216 3.899506912 
2.6028090504 2.2367474968 2.6226168215 26.75324627 26.625436233 26.991591195 5.6922744616 15.784561334 15.652907161 
16.058341131 15.9323052 15.170137252 15.450561563 15.37768182 29.721265648 15.779531515 15.052985792 15.06269877 
14.693229495 19.40549991 31.810721154 17.081691769 16.800339913 16.638785528 16.350020766 28.277462976 28.063543677 
28.417086822 18.586186078 18.593312428 29.480229617 29.624524104 17.916875125 4.0235281091 25.942498613 17.018181266 
17.390765092 10.924214261 3.9735306167 4.4977868571 4.4182156942 9.6686472684 9.1687321293 9.9338057765 9.4371619586 
6.4376430151 6.8533202988 18.25958647 18.090698507 17.731691625 18.122673273 17.360400116 16.954400561 17.121073354 
16.981578624 27.609425416 28.178004187 27.927277834 25.241884642 24.758181232 25.608583957 27.504647687 16.236147555 
7.2747325038 3.0819995783 2.985818615 2.6144912724 5.6816593064 6.8997623421 6.5718160516 6.9507735388 2.5930511056 
2.0219455765 2.9569108098 2.3785025739 7.2712385338 3.3105964495 2.8773950514 2.9090836297 3.086451487 3.5867972505 
19.428551826 19.467244638 19.048999185 4.2479153462 4.8085389254 4.796670585 15.657554191 19.202298795 19.425906574 
21.906935065 21.733266496 22.114312278 8.5379381175 2.082184224 2.4691073078 2.4647080365 2.8546576811 0.83483019476 
31.616460111 31.658237079 32.071044751 13.601541569 13.72574302 22.57344886 24.384269672 24.744535281 24.910011056 
8.3918154223 7.2220434086 8.044429355 7.495923461 2.9220719254 2.5042052881 21.151781769 21.478686187 2.4615831548 
31.093123088 31.14450959 30.717602547 17.775810838 18.030177134 17.811383276 5.1812567514 5.1007689699 17.982794792 
18.007714883 18.240426675 26.904378742 2.0588467482 2.0494516927 17.88843524 15.788809961 15.494595952 13.284333546 
17.481721904 16.635715769 16.223773472 16.509816267 10.305776112 18.590285015 2.2878100128 2.3066968506 22.482868704 
22.761304621 23.048463243 23.32971268 19.837332926 4.222373188 4.7786746879 13.07426069 12.45323257 8.5747624674 
23.804473751 23.472607759 24.427071614 8.1867000019 9.0896977857 8.583575629 14.182582281 8.1922947976 8.6801215825 
8.9680096751 4.5281377469 4.693986462 4.0518189699 4.2135113894 8.5323306777 9.0868631029 3.1217436467 27.696094861 
28.130367437 19.316371825 18.768038853 18.966053204 7.8265042417 7.3390242817 7.4377989398 13.897167271 2.3483260672 
2.7881824584 15.305545609 29.165106939 28.702542613 28.570820403 9.905512533 9.449701583 9.1452328144 6.7564058073 
16.340509296 18.984462139 19.015452291 6.6713950666 21.070032992 21.24351703 21.560474265 28.393795988 27.83248398 
27.54271545 27.426787399 31.290752443 31.240346312 15.257791761 28.428880034 26.30087343 26.667295293 31.633966791 
31.30143239 31.531703809 31.375498159 22.03875234 21.798407443 22.244505735 14.979467229 14.477348438 16.380114875 
29.604013295 19.072284269 19.217673855 19.445617751 31.760714224 31.744888506 30.818735619 31.089934823 30.673658629 
11.149263033 10.801656258 11.271467449 23.113298034 23.487389127 23.128065707 6.0569236976 5.6738613653 26.375389844 
31.263077407 31.708541677 3.8342483266 8.5485084978 2.3750323721 1.8838115243 1.772434757 14.921014602 14.720679218 
15.243238431 31.707112283 18.888178254 19.151229256 10.748195941 10.394085442 10.511874509 1.616983469 1.6355085455 
2.0299900591 10.842087402 11.131625692 11.266141908 20.104669052 20.381028443 20.439483372 10.023715908 14.238635163 
14.604285933 25.07458031 24.729672615 24.388089473 24.046021588 1.122750308 0.62199817284 0.82459606374 0.36033173985 
5.2782846525 5.2621140183 5.8398304369 20.536270016 19.754402224 19.576554385 20.034409514 29.137470687 13.741283485 
18.96086268 23.766790671 24.227805412 4.1429060394 4.5560924796 27.101903012 18.057435995 17.870219484 6.5005998975 
6.135681921 6.5490856245 15.211582773 14.858563462 15.089482109 31.882955531 31.60533915 32.209873032 31.932212375 
30.957562815 31.401383777 12.117224883 12.006681827 12.354709335 15.341308132 31.793171752 5.4496995533 5.5508550073 
5.8952009335 31.647991815 31.274345267 12.47008238 12.895224295 17.508982546 11.067462657 10.679496956 10.930456977 
16.879763764 16.641780109 14.669160026 15.100337063 3.9953490584 4.1263365909 3.5022032096 31.053248763 18.834386146 
32.610264246 19.379047489 16.46404404 16.011213862 16.248424904 21.586810571 0.19549191685 0.21957741272 1.9616239336 
22.57578374 20.657540314 1.1466039075 0.8234036582 20.084696956 20.276064201 6.9772224926 6.2465518451 6.7675813551 
21.549323589 23.792006078 23.195536293 17.745383775 19.895425479 16.837945025 17.376598978 17.296490529 21.606143762 
21.930810002 22.185564662 23.156111749 23.422861459 1.1927031625 15.454101862 28.597329715 28.143945099 28.757846884 
5.1037250423 4.5303388589 16.012939642 16.451504864 4.9349946193 5.488734824 4.8500178207 4.6047481816 4.1767886921 
31.531128157 31.667956365 32.640381792 7.9112451971 31.835843979 31.923673597 31.46151639 30.9227539 30.962159631 
30.970420619 10.310050321 5.2410188228 3.9730452518 31.843868063 33.145651379 32.672337964 17.254067659 23.971500496 
30.504583717 31.320746328 23.149412547 23.522524614 30.581961531 3.224946844 22.685308104 22.857535801 22.312504231 
12.658808303 13.114553324 12.922663169 13.376805795 19.551517024 19.264777946 19.26175065 21.422169074 16.561280916 
16.759702198 16.3157879 14.138458385 18.635385962 18.780695565 18.400685255 1.1614536018 4.7618571136 4.8630967437 
4.1428590222 4.2456372808 21.80674364 21.627626445 23.440113666 23.80310325 28.255737653 27.686431149 3.2494328684 
19.589660869 19.63124339 19.350298666 11.489947249 11.586937376 21.968317053 28.689771968 20.105867474 20.317599108 
20.173208952 20.393620898 14.894579568 14.718022421 4.2423339987 2.6490340016 26.702065294 27.198487976 18.230735866 
18.018309937 18.235789406 18.023507817 17.845496766 30.452085506 30.216178708 28.435311083 6.1996210151 7.00279243 
21.169860323 20.695070895 29.368760181 2.8013853379 2.5125001062 31.901767428 28.209835096 27.604556332 27.689552556 
17.525409742 13.433385188 30.544564494 30.51962262 30.982067885 31.706671701 0.84054752731 0.86543384689 1.5738045782 
2.4864288244 2.0914444125 3.6238710362 20.071964546 21.552831807 17.094884994 22.460272975 22.770900846 3.7364291105 
3.1395934402 11.678039929 11.253610942 12.038165892 12.213545477 12.309823766 2.8438577408 1.5456195877 0.23403186781 
0.25908072168 12.645650484 17.488638692 17.707729327 16.714892344 4.6217859388 14.573434516 0.83402807374 25.181736803 
16.635953511 15.648006662 15.342328192 15.543711975 27.784294588 27.943066711 28.158175761 7.4828686319 11.694032344 
30.462029386 30.350809701 30.876041739 31.90569928 32.319011491 14.363950191 15.088613241 14.771773607 25.881660952 
22.78832548 22.689124104 30.726382388 30.295969027 28.254447269 30.357108596 28.78037854 28.312756267 28.248669768 
27.897172074 29.250319507 29.602298812 29.64652721 30.912902532 11.140221561 5.8082117389 5.7829610501 7.1973042977 
7.8247173204 11.009512872 10.92043185 11.260702682 17.047342539 16.564772136 16.863163986 10.035988019 10.149765125 
10.486057546 10.369130107 12.334257903 12.629244864 12.173495814 21.732984996 20.670645549 29.352838276 29.288210146 
20.311368099 19.81764978 16.02512073 16.303651136 16.489350687 19.711989054 18.114632691 8.2374528098 21.356089651 
17.085737052 20.935059545 21.127222969 18.387003243 18.012609396 18.197585269 26.186694439 2.3908982514 25.554995814 
16.844143107 19.65987205 19.76282467 1.170826615 1.4937045435 9.7878411618 9.543456152 4.2660488929 28.783422088 
28.828285545 1.509926899 1.1567803972 32.774621173 32.849464238 24.114640899 29.552028237 3.2716491458 3.7656981929 
1.6679384207 1.2715685737 1.3762389732 1.7889018709 7.8944471267 24.536645807 19.977035103 19.711653024 13.843396237 
11.346454166 11.480176536 16.434593325 26.859577018 26.506289799 25.960082211 30.684082515 29.225724895 23.139300116 
22.739942942 25.531105966 25.91585287 18.150732742 18.183429772 0.93922588943 30.469576356 30.17261168 27.06497249 
22.235449818 22.172945652 29.261754479 28.723433483 16.976969632 27.942494166 19.821693133 28.754232626 29.869400201 
12.722444711 31.993231431 12.834112518 12.466218851 9.551581088 29.042249177 18.538460592 21.410910538 32.220862826 
28.84118416 31.946076078 0.5506503751 14.553036422 1.2461521353 1.2896821455 1.6358502839 22.250050204 22.123091681 
22.468053948 4.6087810032 4.580648208 4.9691237374 15.158364821 14.997969962 14.789687619 13.477349433 13.742120632 
19.995147295 20.247266723 19.931124717 15.008165401 7.0629126545 17.119773067 17.716985657 22.050468869 24.767449323 
24.987058405 24.188578149 3.8150196205 3.2864959866 3.8081394879 3.2884304525 28.103942982 28.507462918 24.488260125 
24.505822822 16.120763397 14.950110465 14.371268941 3.7815920296 3.2790713333 12.337292227 17.497560007 13.93106067 
14.101072841 13.522189805 18.475933673 18.680698438 11.745577115 1.5695966404 5.6885372571 5.9427441747 9.1700467548 
9.5294690607 0.22054945942 0.24911389727 0.9191253328 1.2820808864 9.9509047881 10.428001949 23.214251656 5.1088897486 
19.351044576 6.3752991489 6.7064906955 4.7313201292 4.1584397986 25.169993591 24.802401791 24.926262849 4.4351051814 
22.454932736 6.11696283 4.2247417365 4.7161089247 4.2194409198 3.7936082597 4.2299668419 29.998344383 12.063854507 
11.813820939 12.0864141 12.442834614 30.624820428 22.059730414 27.07313867 26.553028958 12.969833751 12.676325339 
12.585296436 12.879965645 19.512464001 28.222399389 14.192037789 14.04069961 23.598546798 4.2632007433 22.746435328 
22.989688752 11.620132266 11.508333568 21.756073388 23.89507938 19.796506732 19.769720648 30.959776696 31.062611218 
3.1388303265 1.1753649043 25.244823901 28.096626042 26.479301641 14.051529273 19.910412218 22.469512119 22.317244078 
3.2918898542 2.8519463589 2.4114097966 22.817166286 23.271669522 20.858538158 6.4241043391 29.895896667 30.397376692 
22.742901142 22.998985631 22.531833989 16.818308708 17.255058412 13.259044838 13.837844423 13.312714675 11.512871376 
11.237824059 30.448072244 2.8489481953 22.723351794 30.61823574 31.528822584 31.486589029 28.94354927 29.380588601 
6.5098987972 5.6978217742 5.8418264884 5.1805535549 30.591160272 3.6523402123 8.3465958528 7.814583906 20.038980161 
5.1543339419 32.432633385 19.353469975 19.574494967 19.632544054 15.514364615 16.5195988 16.349881137 16.802924967 
32.104225793 10.827243879 10.344684464 15.294425653 6.088685999 15.5033822 22.156503667 0.51464261144 0.82320044222 
0.51431298929 32.353643593 1.5137606015 1.8533347027 25.405168616 24.932470528 25.064463769 13.19049824 12.826525041 
30.961404579 20.028670676 15.336438947 15.090610447 14.895875603 14.493433467 11.085681768 10.580873494 11.405604233 
11.405521183 17.450242662 16.907073226 9.6706736379 10.57225376 6.3137436504 28.456424453 11.986462641 12.587999524 
29.611139013 29.093899092 10.062664057 9.5009062889 8.7032496736 12.888249936 19.614859448 13.834233086 13.252622826 
28.925233402 27.49125828 27.369521739 27.131705644 22.16356213 30.992548217 19.309018291 29.648915866 10.283608546 
10.593025656 17.045477949 1.9360105418 0.84548724456 3.6307996181 28.976960609 29.413717898 1.3013591588 20.244076301 
20.474874149 20.367566341 20.625928839 25.250316991 18.265687655 21.481796474 20.750241303 17.975009042 32.166064232 
32.215639037 25.59504814 26.073665018 32.91544609 32.537740732 32.595901418 18.937311106 18.937636578 19.279135683 
19.038588597 14.466696086 17.611515311 32.257799878 32.799845489 1.2892844661 1.5909487309 19.319272745 29.619312159 
27.814866431 32.464563032 14.650703841 14.722765632 3.993451727 0.88879084181 0.8631812451 21.624965932 21.655637915 
22.104316221 17.516907637 17.357571143 17.717856913 31.708324074 19.918602534 16.628385808 16.653817185 16.661837578 
22.299852256 22.228213 18.35646293 18.446819943 20.479869809 1.3100651769 0.98400414692 0.93734230882 0.61509728623 
29.18062619 4.6355626141 4.9783377074 32.184146709 23.112540701 10.571464169 14.567444081 15.002790516 0.53649060015 
0.54787577177 11.365686486 10.806899444 9.9062440585 10.22809031 9.895043246 5.6662304482 5.226515807 12.417884623 
2.6742291673 7.7944639459 7.5126042984 7.3952768103 7.115403043 8.6690417271 24.392859817 24.196574845 15.486588412 
15.936479771 25.938247152 26.207851223 26.428719513 23.931015369 26.086100316 25.940710909 10.919303982 22.427886912 
22.077905221 21.899644707 1.9741324402 20.400985295 18.709569309 11.774442575 11.42366655 31.262368301 13.796150275 
29.931685866 1.2393034123 1.6007155841 1.2315244913 31.605744541 13.579585502 6.0930036412 16.181220476 15.879884451 
16.549539602 16.365944919 14.41479114 14.913269371 14.523606396 28.367934816 28.231892665 28.585491975 26.10168843 
25.826781702 24.827508571 23.040271586 23.35140644 25.085479897 20.857760227 20.691279497 15.028665385 14.555807302 
30.108903426 29.660210133 32.293724739 0.24548373532 1.7830416722 1.5775476815 1.6484575074 15.964751444 15.528071331 
2.7554576807 2.3272237146 1.7964625538 0.51683660526 0.83889062296 20.567866049 19.534565829 0.82586239412 0.51782143688 
19.273790924 19.564334659 19.633857248 25.313032193 25.926568611 25.351436103 17.87672267 31.575211736 29.606963779 
30.452216735 31.739033077 31.307517919 31.298355181 19.606898783 15.65279459 2.2706516759 1.2750268987 20.359822624 
19.099776389 8.4211124793 18.44321941 2.8592515108 2.644436444 7.974676738 0.24180397592 0.19283666678 30.471040523 
9.1352837033 7.6178246374 0.70282415207 0.26842455118 2.2214688654 15.957809487 2.3050384862 31.373616028 2.0261353633 
4.7212221528 4.9868022686 5.0730974247 21.952272233 20.778661879 16.239754802 16.125239931 17.838553903 25.295143021 
26.208693508 3.3305592659 14.938236641 15.19469457 17.69502466 18.063965061 17.003265401 21.134344314 25.467324169 
23.385953972 23.221187832 21.822122985 21.412698102 21.554707952 5.3509462594 22.698539399 22.916791232 6.1341180299 
28.585953396 28.418814307 26.968594094 26.902124597 27.268416932 16.949797144 27.81137885 26.445950448 24.506909039 
24.347108283 7.643032915 27.058511318 26.285721456 27.871375612 20.840424161 20.647898629 20.500268405 14.893265292 
10.085428722 19.856633041 30.587570753 18.61531944 18.590557204 24.625908121 25.043216478 1.4962863313 1.8550050481 
1.8611779069 1.8771307815 2.2521815991 29.086765251 18.382461262 3.4257156115 2.9920257678 3.1770641419 28.763429788 
26.675377981 26.96070368 16.38075608 16.198336558 15.916249953 15.733290708 15.265138726 15.387714097 22.857087274 
23.823136159 25.726719305 31.483636227 31.700180425 23.851680235 31.904234118 15.66818188 33.157744445 31.162240262 
26.567790033 27.265852237 28.155912991 27.704839572 3.7341518135 3.8136455744 6.1766883405 5.7361907282 30.851711104 
1.0565684756 1.6524068015 6.532931731 7.0145199167 29.655146154 2.6715640485 3.3001400117 2.878944988 18.475343598 
22.916547856 23.276342206 21.249203029 9.7128716512 16.270714959 22.574997425 15.439235634 16.968251437 12.354294973 
12.132925624 15.356692099 15.134988075 5.2889535347 4.2476974404 5.7467887254 4.1166881572 21.150731523 20.744682514 
25.354784551 28.250160036 23.047130935 26.608559465 20.089964054 21.789451281 22.194618679 9.3106564091 9.6482261108 
31.637909834 31.687690544 31.764553965 15.11644914 8.2220168817 8.1801260626 8.8539916611 8.8056095131 3.6723537309 
2.3507929564 2.7908911464 3.3815233434 2.4288600547 2.4431082153 13.055118367 14.842679336 16.885708528 16.653079215 
23.988426006 23.742258483 20.21372145 19.854693029 20.081799752 16.500544863 25.819448926 25.458977696 5.6920928728 
1.9951841191 5.7146190934 28.697225018 28.46132726 28.81659952 20.121791341 19.87596537 19.821162222 20.378454207 
12.663977852 0.31639538217 29.135235969 4.8384012781 4.5987253439 10.08134798 1.3060784686 0.93160205139 6.2539857459 
20.068098382 19.817657185 12.621815077 0.81205923877 9.0697869286 9.1452483136 3.2899129122 3.3767315555 18.103647166 
17.773871829 17.713701591 20.952875119 17.758621947 31.715217321 31.721544924 30.269992783 30.225708218 32.123506702 
31.701591148 31.113978278 6.8415238205 12.209249707 8.054777543 8.7346870307 8.1312717399 17.752659532 16.789839878 
24.26646793 3.1896841859 3.1531377617 22.311595371 29.161605608 22.957664342 30.163986612 30.618570054 17.834417967 
11.928569304 12.369959634 22.253078979 21.948423834 2.2804542874 27.916335206 21.573365241 17.507834008 17.110458279 
7.6691230385 30.683247724 30.782966588 29.734135725 29.288125967 31.324482852 3.6769603948 3.2113667189 5.7105059232 
4.8069688905 6.3318233849 4.8398998624 20.234185087 15.430580075 13.215854226 13.111699491 21.935464216 22.401209019 
27.521172288 30.04995001 6.7601976456 0.56844032033 0.2568639607 0.57466442128 22.320279431 2.2692290599 20.807691372 
28.738885903 28.878547522 16.867289567 17.260184722 18.329421347 18.379998614 21.244172155 9.9293455742 9.4467709548 
22.747875154 29.111035053 2.7469443364 14.270903156 25.502456043 18.387716311 31.747877709 19.29974378 7.4336805112 
22.628597436 29.209643063 21.287003721 20.821490195 20.944575585 0.82424186932 21.96608781 21.826028939 0.22537918544 
5.1786784385 0.87888239021 21.377622243 21.735292601 21.535379472 11.707926105 12.062339075 23.019469247 30.643480754 
0.23060900225 9.692113206 12.860400526 24.33352569 28.309655585 28.745527181 28.548052241 24.950261713 9.7603841895 
9.2818444053 10.856736684 3.3309888396 3.768533427 3.7919040876 20.026898923 20.430976299 10.246157929 9.1119451983 
14.355446314 5.3166869333 8.6883791298 12.616553395 27.960129454 27.780371575 3.1977068742 5.1984029484 1.6772677503 
1.6188487424 0.6017486188 16.57200276 16.391433574 17.833198531 18.455317865 18.787107452 7.5523783356 9.3936805107 
2.6126690089 30.947806289 17.293509592 16.787213894 17.172831395 25.747746204 24.401121554 24.878752672 30.040042367 
1.8742722085 1.2087347744 12.680184885 15.54893439 15.052309335 23.371623613 15.225863901 12.237008318 19.897716555 
1.2148157055 0.87235623512 2.7040902557 16.769979501 5.4416029736 12.359716588 6.2169723852 14.698495727 19.486611101 
18.760850613 23.834376388 24.105383114 9.3721819539 29.325240429 8.9987598451 11.864425538 16.108072838 29.761988239 
28.420362582 11.061461844 10.625636922 1.2271589481 11.319204132 0.85042637918 15.715553939 16.165057514 20.326165073 
11.134849046 10.633069006 9.1817902236 7.0481995192 6.5143178399 12.404015598 0.90974663556 31.087242467 3.1991751001 
2.7703681267 2.7526307209 30.156652386 3.8193961815 1.8652059825 0.90942411538 0.19617454985 3.8583743878 28.822842158 
21.496971948 20.27118897 20.696017571 15.161909652 29.280683147 29.220899238 28.337062984 1.2782077807 1.3493998453 
6.0354501716 20.249389947 24.159565468 29.715123264 31.287477445 21.199397193 31.358648092 16.121741501 15.562939531 
31.237043408 32.626503031 23.497484588 23.421804427 25.918599215 13.660948557 13.425266823 28.938425247 28.466144748 
28.35575872 4.9301214586 17.26950715 14.970420919 24.238611509 7.9321564235 8.3282989353 14.931564792 20.687175637 
25.613083624 0.82906396543 0.51384453153 0.19928411797 24.692481675 16.906750694 17.189427505 30.20717879 17.996988159 
25.158258248 26.452564975 30.28491785 2.2742922539 1.8863270615 0.96154814236 23.839822452 18.114418192 17.382462016 
18.067230745 14.472578021 23.294262329 1.7775165742 6.2027894671 1.2994330652 21.946125945 2.9432841534 2.2938840221 
17.059300981 12.177057798 29.182116315 6.7127845771 17.155789457 28.824950786 4.17877927 14.015688906 27.371604108 
27.809978332 27.739510976 11.377459183 8.39170814 8.7942906436 23.196703558 25.975580082 21.589133553 29.98049224 
8.0081438581 17.457092165 22.654987327 12.709967462 12.314146824 11.80939191 24.570981247 16.875384202 30.586922329 
16.53491536 2.1940567095 2.0176733504 22.776224644 27.65930688 3.3581324057 17.612098413 27.400801353 23.664655901 
27.415139723 26.888289389 21.243561917 17.532799154 28.942174614 1.5006111062 4.7506058058 19.557049098 4.7421642609 
28.580226442 10.848086154 0.74200187074 21.355572564 0.23338062119 2.7014978869 18.125326884 11.870078911 14.570899308 
1.41954749 19.547010261 20.169219311 14.123088423 28.703578232 3.3357646944 18.235833681 3.1561983695 18.371481721 
18.15536115 20.482469371 7.7198812116 1.1728628385 23.656334859 30.982855518 8.3407865255 31.616190891 5.4280927491 
15.385381884 0.23088229472 18.936471107 3.411682149 11.056169846 2.2349669953 24.696589083 27.61650858 0.28465232745 
2.1911684691 19.666913054 12.644763757 29.405041884 19.496117375 18.874784614 11.705405914 25.260816301 
Tresca%20Stress 1 9350 double
0.30786928398 0.28334110503 0.29113553938 0.31073551568 0.16669804384 0.16668741321 0.16666871713 0.16666762111 0.28195062666 
0.27304967558 0.14908191456 0.16229199147 0.35032540989 0.38528035474 0.24180103255 0.25507268562 0.16324287873 0.13088319027 
0.11787783589 0.1053190488 0.09907955762 0.095549243364 0.097226764577 0.098229392729 0.088938682145 0.087742474727 0.086250676732 
0.087135905466 0.086579526883 0.086594897435 0.088145728213 0.095201862523 0.10386377356 0.09938040672 0.10482316365 0.11382822319 
0.12604581938 0.1723178919 0.16386295813 0.12794786836 0.11517746313 0.10582492616 0.10376722579 0.1020617073 0.09992612533 
0.098359042757 0.092315150641 0.091768507378 0.091574328751 0.091131516392 0.089586579325 0.089329738998 0.090905475926 0.092191476846 
0.091869581158 0.091247694644 0.094702842337 0.09570216075 0.10225424227 0.10529051129 0.10971454069 0.12431795829 0.13083019602 
0.14930276755 0.16666468469 0.16666770666 0.16672798693 0.1668878944 0.16711692063 0.16741468064 0.16781000675 0.16833165069 
0.16891907321 0.16955063554 0.17025470845 0.17107793449 0.17175661005 0.17243311275 0.17297526027 0.17323050166 0.17331355079 
0.17303190155 0.17251365135 0.17170380507 0.17080219957 0.1697755036 0.16879880683 0.16789574182 0.16716678356 0.16675191889 
0.16666090332 0.32520003721 0.17234417441 0.16157375077 0.15512470248 0.15162637131 0.15017208957 0.14994685337 0.15041048467 
0.15120882227 0.15239650367 0.15369206458 0.1550078378 0.15640671472 0.1578002746 0.15916752922 0.1604716062 0.16183319361 
0.16299885226 0.16409600398 0.16514284092 0.16605133397 0.16680002471 0.16748530372 0.16797118734 0.16831581438 0.16852722125 
0.16857579368 0.16843991986 0.16822366517 0.16790046756 0.16753174812 0.16710466232 0.16674173177 0.16642699134 0.16616693462 
0.16600052008 0.16594151296 0.16595118583 0.16603780015 0.1661680086 0.16631839435 0.16648169173 0.16661241042 0.16669157318 
0.16668661108 0.16675650678 0.16636178089 0.16524459761 0.16350477708 0.16164480059 0.16097210144 0.16293030925 0.16508804087 
0.16447213538 0.15977192856 0.15216111004 0.14382641282 0.13912721932 0.14246105714 0.14916385399 0.15380001412 0.15488000918 
0.15324176673 0.15114387759 0.15040476653 0.15303474793 0.15868116568 0.17073927135 0.21567491466 0.2736123158 0.34974680192 
0.30406390815 0.37202298433 0.35954704086 0.34158993342 0.29388481136 0.29119727979 0.26206864417 0.23346147609 0.18108067518 
0.20520905706 0.304471323 0.32420962015 0.33595044449 0.28324928587 0.28432550345 0.30640776929 0.2496443118 0.26189611211 
0.28746065492 0.2962026278 0.16666200846 0.16666950076 0.16676387348 0.16701554533 0.16738392001 0.1679177011 0.16860703708 
0.16939292703 0.17020053918 0.17114833579 0.17203870605 0.17281020796 0.17323405097 0.17322300848 0.17282010887 0.17196495983 
0.17087868998 0.16959981094 0.16837524449 0.16739538163 0.16678801779 0.1666630184 0.21897787035 0.17680481691 0.15900683628 
0.15300572696 0.15056196543 0.15019014904 0.1508199135 0.15197888448 0.15370121347 0.15529046084 0.15699306196 0.15873562795 
0.16044078428 0.16206864255 0.16355033624 0.16486278482 0.16608706716 0.16706624543 0.16778166282 0.16825660882 0.16852111876 
0.16854772905 0.16836824465 0.16799742933 0.16750811309 0.16700842457 0.16658643585 0.16623340369 0.16601283705 0.16595470781 
0.16603453133 0.16620534428 0.16640720522 0.16658067092 0.1666828551 0.16669296392 0.16670124478 0.16656335803 0.16577322506 
0.16437211347 0.1626517118 0.16124331114 0.16131877836 0.16372738999 0.16533427889 0.16342723616 0.15813082325 0.15084129926 
0.14362117206 0.13862201432 0.14319932552 0.1509647912 0.15466664932 0.15442287711 0.15240320123 0.15061795276 0.15040403461 
0.15168273529 0.15862133331 0.17292341305 0.29234335721 0.40482529428 0.34412007851 0.38004386757 0.34753888293 0.29440772396 
0.2829242796 0.2998738268 0.22731241154 0.23018214899 0.20746634901 0.14418414432 0.21665293906 0.24616391257 0.26819347264 
0.31537451055 0.33902983604 0.33542656543 0.25999716467 0.31039359982 0.33855737755 0.28374698404 0.25697321952 0.16667682499 
0.16674322611 0.16687263994 0.16703994368 0.16727191485 0.16757279995 0.16794515429 0.16837905882 0.16888694925 0.16944397865 
0.17002427244 0.1706047851 0.17114248866 0.17162423662 0.17192690227 0.17208510778 0.17201581944 0.17172549072 0.17123263218 
0.17059108895 0.16981991614 0.16903630717 0.16829642838 0.16764163984 0.16713775295 0.16672309234 0.23564986707 0.18235425542 
0.17067626075 0.16321324986 0.15932476621 0.15730111464 0.15631577959 0.15619958704 0.15617899561 0.15663501409 0.15747001315 
0.15827642649 0.1591699091 0.16013814571 0.16108508065 0.1620473849 0.16300506136 0.16388390058 0.16474353512 0.16549163222 
0.16613769525 0.16671089505 0.16715362983 0.16749038894 0.16772124651 0.16781038286 0.16780913844 0.16767356116 0.16749337563 
0.16723849304 0.16696577263 0.16667695432 0.16643263115 0.16622275792 0.16608147352 0.16598518819 0.16597842177 0.16601719887 
0.16610153592 0.16621521334 0.1663506592 0.16648292077 0.16657978259 0.16664651634 0.16568790664 0.16457341422 0.1631157974 
0.16172795383 0.16086166179 0.16069566499 0.16007448513 0.15713505144 0.1522367859 0.14858923851 0.14672799961 0.14898375881 
0.15465297672 0.15803616353 0.15926021789 0.15906055226 0.15877040105 0.15958991144 0.16257715908 0.17023341358 0.17951583555 
0.2028621801 0.20326510542 0.22167461468 0.19670777692 0.18423819928 0.17942529737 0.17684870238 0.178243677 0.19150884332 
0.17602104772 0.17158657443 0.17104099438 0.17067995167 0.17608287928 0.17247169712 0.17288121067 0.17079098904 0.17211213511 
0.17824190714 0.19391851991 0.18091020949 0.18176435135 0.18427752814 0.1909375787 0.2160845916 0.2374085335 0.23881162977 
0.18036395817 0.1761972757 0.15995186914 0.15220900571 0.1482596422 0.14583031225 0.14483155854 0.14534275578 0.14450525351 
0.1521590445 0.14260526893 0.19438086539 0.15362687218 0.12133632882 0.12367927004 0.1355940924 0.15095460643 0.16593768614 
0.17824240965 0.190450072 0.19586038072 0.2001430674 0.20153875468 0.20017554561 0.16633623688 0.17565422908 0.18409910857 
0.14656562008 0.15228417742 0.15330837373 0.19684312115 0.16677278014 0.16688153965 0.16702872965 0.16721874258 0.1674691366 
0.16778908296 0.16819338281 0.1686244969 0.16912619849 0.16965480459 0.17017504345 0.17064505797 0.17105250899 0.17130337351 
0.17139725077 0.1712632415 0.17087801413 0.17036268863 0.16975236158 0.16902653794 0.16836090219 0.16775173703 0.16723722425 
0.16580175828 0.18051237133 0.17301314656 0.16773931014 0.16458239464 0.16226759587 0.16107236834 0.16046492764 0.16022978061 
0.16032184965 0.16053396935 0.16097714892 0.16151575787 0.16213998925 0.16281028068 0.16350166069 0.16415507919 0.16478417215 
0.16536825781 0.16588878509 0.16634567858 0.1667497099 0.16703931219 0.16725398324 0.16736422865 0.16737846912 0.16729804634 
0.16714923982 0.1669303787 0.16670051752 0.16648442803 0.16629509991 0.16612997395 0.16600523343 0.16592320859 0.16590153227 
0.16594004198 0.16600605667 0.16611433684 0.16623458056 0.16639576795 0.16654141894 0.16666467523 0.18928181861 0.19085649383 
0.16429565368 0.16285854868 0.16054945588 0.1584182074 0.15943701504 0.1572883472 0.15167215987 0.16215462704 0.16629788715 
0.1660864984 0.1648372724 0.16377873179 0.16473921297 0.16689123149 0.17023212979 0.17423415478 0.16136611865 0.19741718205 
0.18015267126 0.17425517083 0.16917388875 0.16608856041 0.1637980349 0.16166758797 0.16011570853 0.15919352151 0.15849519974 
0.15791715108 0.15756190681 0.15772516471 0.15708220666 0.15851224667 0.15940974331 0.16033449061 0.16211685251 0.1643742074 
0.16634921187 0.17055891834 0.17661314883 0.18589786109 0.17435962233 0.16439597693 0.15794623466 0.15434129306 0.15077028394 
0.14781301419 0.14787384683 0.14498680493 0.14573746574 0.14603666907 0.18902195746 0.16590179861 0.14150346226 0.18707831008 
0.16656117144 0.174863003 0.19141051438 0.16654265086 0.16113694065 0.14971774879 0.13983937181 0.15585461038 0.18169382052 
0.18666447678 0.17183416457 0.18864286416 0.17013122238 0.15250306543 0.18570190966 0.15978583389 0.1667406114 0.16682271741 
0.16694409611 0.16710887835 0.16736526527 0.16776266947 0.16821880581 0.1687239708 0.16929705488 0.16983096528 0.17033450471 
0.17081734414 0.17108899097 0.17110792886 0.17084791154 0.17035856033 0.16971278117 0.16895908961 0.1682247011 0.16765582281 
0.16455919276 0.1666548429 0.17289446558 0.16962014404 0.167395617 0.1655528099 0.16440436678 0.16369184333 0.16331180222 
0.16312423159 0.16307058572 0.16320854429 0.16343431603 0.16384852259 0.16427757148 0.16474812068 0.16518805484 0.16561207696 
0.16600429477 0.16632773605 0.16663013551 0.16688830347 0.16706527665 0.16716373963 0.16716647226 0.16708928684 0.16693322255 
0.16671107525 0.16643392283 0.16617355815 0.16601746908 0.16587961197 0.16578013063 0.16573049781 0.16572055838 0.16576572239 
0.16585294202 0.16597025926 0.16610635345 0.16629592678 0.16647876974 0.16580258839 0.15911355161 0.16267097855 0.17628251469 
0.18022500036 0.1815624794 0.16781792394 0.16880751766 0.17016347018 0.17152243113 0.15531372505 0.15647066462 0.16182116104 
0.17651076445 0.17620182913 0.17235660533 0.16974099662 0.16706725615 0.16430611207 0.16281157171 0.16205834188 0.1616241677 
0.16099744066 0.16062802042 0.16031456344 0.16051409644 0.16104895148 0.16183909576 0.16282256702 0.1637371826 0.16553511289 
0.16808911871 0.17147101018 0.17546677692 0.17061490461 0.17713421127 0.15667567683 0.15569806975 0.15944202454 0.15228482573 
0.17363475903 0.17623756593 0.15894535108 0.16054981224 0.17917563384 0.18590728908 0.15319750787 0.1721361915 0.17995848714 
0.16811490496 0.16649091601 0.16695428836 0.18487360802 0.15263803445 0.15602765665 0.16138980063 0.16790051118 0.17986251424 
0.15699673416 0.17834924965 0.16103185819 0.16677887952 0.1664198197 0.16639991799 0.1664811256 0.16671720952 0.16712345292 
0.16771899942 0.16832285611 0.16903180953 0.16959279332 0.17041530301 0.17102887347 0.17127527399 0.17119405977 0.17075326456 
0.16993966153 0.16891666301 0.16807430282 0.16700247753 0.16627685234 0.18057605104 0.16996272556 0.17036640478 0.16887922084 
0.16765190398 0.16671216673 0.16608237727 0.16560336564 0.16529382172 0.16510396239 0.16505202348 0.16507288522 0.16533585088 
0.16559044765 0.16582980187 0.16610265975 0.16635315204 0.16658523179 0.16678769932 0.16697181318 0.16710857542 0.16718432464 
0.16716519131 0.16706033502 0.16686191932 0.1665732312 0.16621345585 0.16585625264 0.16561708375 0.16551177856 0.1654553952 
0.16541313192 0.16540005968 0.16547819456 0.16561207413 0.16576529725 0.16595389825 0.16617658315 0.16526745282 0.17718348042 
0.17008508477 0.15971644053 0.16707309764 0.17247954104 0.17010943032 0.17007712364 0.17080047139 0.16981218718 0.16977769769 
0.16729916712 0.16574060682 0.16533189166 0.16456758211 0.16381944044 0.16332083489 0.16319859542 0.16323964141 0.16342317602 
0.16394725599 0.16481503783 0.16580168094 0.16709345855 0.16876646432 0.17100768656 0.17380045141 0.16200426061 0.16133408841 
0.16374077461 0.16644569207 0.16092393738 0.17269095118 0.16647510656 0.1714818915 0.17458169615 0.15940314248 0.1779313128 
0.17214637141 0.18019041558 0.16122289304 0.17179502831 0.16659314989 0.17562148439 0.17557866635 0.16742871872 0.16978809706 
0.16576123609 0.16573962019 0.16590235569 0.16647636776 0.16734134672 0.1681083821 0.16989928647 0.17104123642 0.17170465832 
0.1717751603 0.17174705984 0.1689943994 0.17953461235 0.16425629138 0.17048864814 0.16960059959 0.16885544375 0.16819657351 
0.16768210553 0.16724893903 0.16690485892 0.16665192773 0.16646648904 0.1662786674 0.16641157985 0.166562022 0.16672231745 
0.16686383373 0.16699111889 0.16710403855 0.16721777419 0.16730951845 0.16736727879 0.16733580654 0.16719486503 0.16695401237 
0.16658737944 0.16609088293 0.16555682919 0.1651574481 0.16504487904 0.1649804448 0.1650490844 0.16495240174 0.16505275511 
0.16527390925 0.16550064853 0.16575386826 0.16601706849 0.16826217655 0.1716230961 0.17491081425 0.16743622282 0.16406752393 
0.17015246455 0.16929843597 0.17205103344 0.17074284564 0.16808557108 0.16727596739 0.16661372544 0.16569103866 0.16572926739 
0.16583823825 0.16603085519 0.1658024812 0.16667744257 0.16733830926 0.16822446228 0.16921708967 0.17047407987 0.16572711054 
0.16587049356 0.16919845291 0.16428309207 0.17104045372 0.15967244598 0.1707050914 0.17072724223 0.16339914785 0.16610501715 
0.16357268503 0.17636538137 0.17269981163 0.1644106824 0.17266489582 0.16184710452 0.16020481948 0.1755388858 0.16525935187 
0.16641930035 0.17227048327 0.16382386059 0.17319909976 0.16979049562 0.16948866275 0.16910235361 0.16872295661 0.16836548996 
0.16805126773 0.16774857901 0.16749431265 0.16720085556 0.16713349559 0.16736247389 0.16743585532 0.16745639349 0.16748526179 
0.16751303302 0.16758041673 0.16762744424 0.16757806961 0.16743302426 0.16716346332 0.16672917639 0.16605674373 0.16524802947 
0.16454348318 0.16455706781 0.16436128422 0.16450941108 0.1643816145 0.1648565014 0.16516666871 0.16551948702 0.17011440931 
0.17055149114 0.16475952527 0.168108937 0.16773845761 0.16825668622 0.16813599106 0.16855667801 0.16903359614 0.16953846505 
0.16310658807 0.16929647181 0.16804192394 0.16570696542 0.17282713766 0.16700256205 0.16636622383 0.16529364754 0.16617494127 
0.17324372366 0.16879665504 0.17087162664 0.17126571933 0.16218977405 0.16375698492 0.16629753213 0.16581522046 0.1702442568 
0.16564674617 0.16236062298 0.16978408851 0.16978366142 0.16964838597 0.16941640309 0.1691732586 0.16881920031 0.16845494534 
0.16803523372 0.16779056949 0.16785549587 0.16781483374 0.16778505197 0.16779921641 0.16776017903 0.16781351728 0.16777846477 
0.1676291823 0.16740579831 0.1669743308 0.16626124295 0.16480499517 0.16382626043 0.16363861677 0.16369861255 0.1646549066 
0.16927810725 0.17064034272 0.16568267369 0.1704487389 0.1705679954 0.16750203191 0.16963086685 0.16957595707 0.17006810308 
0.16957260907 0.16739578579 0.16897104314 0.16729110463 0.16797622122 0.17015358641 0.16828322029 0.16810690119 0.16801190654 
0.16777980061 0.16694242513 0.16705015676 0.17042741863 0.16939821323 0.1671077012 0.16995293288 0.1699094824 0.16991447872 
0.16970436018 0.16923862961 0.16893260099 0.16790362399 0.1678305078 0.16768426085 0.16832311639 0.16800292712 0.16779770336 
0.17023400856 0.16981561 0.16666591485 0.16677296114 0.16694609158 0.16718557942 0.16753310849 0.16799305293 0.16857809544 
0.16918562816 0.16988726428 0.17057909382 0.17119805784 0.17168572706 0.17185215497 0.17169921733 0.1712516322 0.17053245219 
0.16964651435 0.16870828507 0.16786860024 0.1671947154 0.16676785238 0.2024958404 0.18109214846 0.16759440527 0.16098561252 
0.15788081545 0.15674681883 0.15661891903 0.15722627069 0.15804707184 0.15885970533 0.15994314462 0.16114584058 0.16231894679 
0.16337919305 0.16448708102 0.16541774138 0.16621576433 0.16686562488 0.16733734761 0.1676433043 0.16775580719 0.16769607601 
0.16749167614 0.16720072335 0.16686502114 0.16653890214 0.16627256784 0.16608049069 0.16599871613 0.16601219898 0.16610748665 
0.1662531834 0.1664230839 0.16656628771 0.16644658549 0.16597233855 0.16527900519 0.16408011217 0.16276120466 0.16018223305 
0.1602479095 0.15914465637 0.15617636362 0.15178414326 0.14705477637 0.15036447637 0.1572972283 0.15944940481 0.15939557026 
0.15894197665 0.15864620111 0.15941446767 0.16185665167 0.16851236467 0.1805219379 0.19731860747 0.23662712672 0.18816561324 
0.19307058477 0.18709064746 0.18308030662 0.17736931367 0.15929892052 0.17370739989 0.17427739136 0.17367230996 0.17189348674 
0.17285630708 0.17385111773 0.17704932345 0.17581050338 0.16041161793 0.17927190324 0.18298195716 0.19244695624 0.18734540334 
0.28110457453 0.19352783009 0.17560743579 0.16233389732 0.15275538829 0.14740836165 0.14515302703 0.14360274472 0.14360346881 
0.14411950157 0.14315641707 0.14464344808 0.22019983176 0.14391194341 0.12092241919 0.12505815818 0.13714909246 0.15146578025 
0.16622331188 0.18040901763 0.18874923813 0.19673724312 0.20217516785 0.20348297435 0.19418009967 0.16172693981 0.14737925191 
0.18922273094 0.19655338069 0.19488299032 0.14828103194 0.15387575679 0.15217672214 0.16680448824 0.16666021365 0.16705011351 
0.1673031379 0.16766148348 0.16816376949 0.16873303369 0.16938523062 0.17006759083 0.17069899992 0.17111325549 0.17119802014 
0.17095690679 0.17035146242 0.16960279364 0.16872743708 0.16782961351 0.16701309932 0.16642752006 0.15685581364 0.16972748153 
0.17669599269 0.18522190607 0.16523225848 0.162422099 0.16140874759 0.16116873288 0.16103899968 0.16131222884 0.16181007005 
0.16240196535 0.16306922478 0.16384386049 0.16460438997 0.16533243716 0.16592878072 0.16645621957 0.16687228578 0.16715237231 
0.16730432885 0.16728956166 0.16714436945 0.16690630521 0.16657933751 0.16630381201 0.16611915182 0.16596774519 0.1658984511 
0.16591646166 0.16599090588 0.16611577873 0.16628985245 0.16649118423 0.16557825818 0.15967210728 0.16385149189 0.15948066782 
0.15809760555 0.15206422287 0.16842186838 0.16763714771 0.16454425013 0.16396894385 0.16502453447 0.16664222237 0.17051381601 
0.17593485258 0.18124278867 0.16629863243 0.19645509442 0.17400852994 0.16909686415 0.16507954979 0.16243707644 0.16065891573 
0.15957157188 0.15915013555 0.15855436689 0.15868633454 0.15938184939 0.16014881306 0.1608200442 0.16245130538 0.16464525812 
0.16743118819 0.17183258592 0.17855471541 0.20169841943 0.14013724711 0.16564561202 0.16172529457 0.15656705744 0.15453115516 
0.15156933874 0.14659464621 0.16240039036 0.14946517187 0.1477801122 0.14038612413 0.18296348341 0.1755230806 0.18735151135 
0.18707596746 0.16690055885 0.16620285153 0.16709663971 0.17068518654 0.15708198364 0.18468596163 0.16852531172 0.18534916112 
0.16370310941 0.15534280405 0.15284128799 0.17900628611 0.18504018032 0.14726122288 0.14784645731 0.16420884062 0.15711264038 
0.16700458711 0.16659222233 0.16749375505 0.16819931282 0.16901393157 0.16994460861 0.17071234099 0.17116949488 0.17113772428 
0.17063874273 0.16972939012 0.1686910124 0.16782565716 0.16670959392 0.16065677665 0.16663410899 0.18897462113 0.17007857139 
0.17729763626 0.16471424754 0.16417250597 0.16389770553 0.16384144025 0.16396622251 0.16427259827 0.16471009588 0.16518806363 
0.16565318196 0.16607520657 0.16645892114 0.16677589186 0.16701033709 0.16713975566 0.16713520138 0.16698733052 0.16672363285 
0.16634584419 0.16598894228 0.16581705452 0.1656950829 0.16565699063 0.16570069302 0.16580308002 0.16594129911 0.16611100778 
0.16566537273 0.16547118152 0.1654711774 0.16672477959 0.17293661747 0.16816251202 0.16769774361 0.17015135693 0.17227311221 
0.17288590753 0.16563946965 0.16403060663 0.1626602506 0.16173444549 0.16134698779 0.16134196502 0.1616262939 0.16221267222 
0.163084982 0.16423188863 0.16607072289 0.16831702163 0.17104946434 0.15282166266 0.16992567762 0.15950251498 0.16846696495 
0.17822447816 0.17643685523 0.16896935432 0.17980026338 0.1782158456 0.17347541781 0.15635011759 0.16109753604 0.1672298136 
0.16712760596 0.15554269742 0.15258582241 0.17273709257 0.16656764187 0.16934780338 0.15734772866 0.16723851595 0.16637232218 
0.18420766013 0.15646912575 0.17896719189 0.17654259823 0.17432328036 0.17825384295 0.16609403604 0.16900927865 0.17038596426 
0.17142300853 0.17187470696 0.17141597482 0.1704578388 0.1687920908 0.16727632866 0.16135313839 0.17260993181 0.16644054128 
0.16701604723 0.16580428742 0.16574597939 0.16578857999 0.16603407946 0.16626234043 0.1665028395 0.16675919052 0.16697031724 
0.16712813011 0.16722274248 0.16719039864 0.16702305586 0.16668934444 0.16623757857 0.16568349712 0.16542697177 0.16530122611 
0.16526664148 0.16535314393 0.16550726182 0.16570453145 0.16590883109 0.16382698555 0.16995971467 0.16112368725 0.17038304852 
0.17049989139 0.16460105821 0.16577482933 0.16692285835 0.16407459329 0.1640968497 0.1641725773 0.16458907632 0.16529981974 
0.16617779371 0.16731890185 0.1689339219 0.17088177811 0.16773462442 0.16670230473 0.1801245067 0.17139103336 0.16774681069 
0.16601279798 0.17926034515 0.17736715638 0.16734620773 0.16084321229 0.17334895444 0.1649987782 0.16193778642 0.1700900899 
0.17325412563 0.15774168556 0.18060779487 0.16614878152 0.17032978248 0.16587158674 0.15937653143 0.16586920808 0.1659530034 
0.17357518932 0.17004524193 0.17432396955 0.16830051057 0.16817202873 0.17057953757 0.1714895821 0.16988307317 0.15892031323 
0.16968245207 0.17301405386 0.15932392336 0.17317495179 0.16846774925 0.17632638107 0.16706536572 0.1673291351 0.16696348538 
0.16705528014 0.16720812588 0.16732835513 0.16742904755 0.1674747217 0.16741263564 0.16722584673 0.1668467458 0.16628993398 
0.16552854568 0.16494232515 0.16477883625 0.16475345268 0.16487195265 0.16511671836 0.1654069057 0.16569035616 0.17083145169 
0.16693420201 0.16703074071 0.16922817446 0.16663607336 0.17249990487 0.16632782735 0.16856679307 0.171399486 0.16663072313 
0.16683773353 0.16726861085 0.16782697525 0.16849247927 0.16943252428 0.1703789661 0.16753502267 0.16901499896 0.17159290557 
0.17317754412 0.17455592525 0.16549968586 0.16392259792 0.16161488509 0.16571008539 0.16474934435 0.16789794049 0.17091402402 
0.16983879917 0.16754169484 0.1706097388 0.1654109235 0.16985469316 0.17614362819 0.16412239512 0.16088613753 0.17846051037 
0.16542695812 0.16554535148 0.16993690433 0.16614171063 0.16642753105 0.16745373239 0.16298895558 0.16138964582 0.16667890859 
0.17241296385 0.16365045486 0.16764282773 0.1675222566 0.16771984807 0.16773047967 0.16767757198 0.16749503557 0.16712064833 
0.16645451901 0.1655065962 0.16444949529 0.16415418878 0.16405622563 0.16422655954 0.16464699309 0.16510830448 0.16858401929 
0.16852605004 0.16837741832 0.16923494441 0.16056760151 0.17073692935 0.17062886967 0.16893054463 0.16923513089 0.16946047907 
0.16972405951 0.16992833221 0.16433908982 0.16573019228 0.16961139207 0.16504635346 0.16767910533 0.16838035837 0.16308463028 
0.16249594541 0.16933771247 0.16866864129 0.16875900486 0.16762113807 0.17078156949 0.16473733654 0.16538779523 0.16626547167 
0.16653794172 0.16884696906 0.16644491248 0.17002867886 0.16778820448 0.16968777078 0.16239747415 0.16774406427 0.16780047957 
0.16729481888 0.16547383335 0.1635146628 0.16296798324 0.16342207965 0.1641384743 0.16484987163 0.16882817227 0.17017387881 
0.16991799439 0.16304872658 0.16782417566 0.17010421051 0.16763048153 0.1679664119 0.16373503856 0.1700139635 0.16595736294 
0.16946939595 0.16773043606 0.16669168287 0.16406329694 0.17054478139 0.16672655628 0.16506734392 0.16960529542 0.16880382228 
0.16790401487 0.16700069527 0.16976083985 0.16729352362 0.16747929871 0.16800448667 0.16850346204 0.16759016586 0.16867729962 
0.1678371736 0.16796376802 0.17018503197 0.16814849772 0.16977349046 0.16701953105 0.19648143182 0.14401061905 0.27720136009 
0.28315873086 0.22038216502 0.14821416281 0.12631049071 0.11859098746 0.11159467074 0.1052738335 0.10265294916 0.10067442824 
0.097492696729 0.095330169093 0.094041922078 0.091464099594 0.092094213263 0.092469817828 0.093888178257 0.097274667986 0.10276766768 
0.10396146303 0.11102422903 0.11995612368 0.12353943389 0.14453455063 0.2382321788 0.23727472559 0.14642821426 0.12218639071 
0.11457926027 0.11113734386 0.10861667609 0.10655125294 0.10251789751 0.094145636725 0.095466756399 0.094924800496 0.095434522274 
0.093869314828 0.091406453527 0.091107134371 0.094132235344 0.094934312113 0.094016251448 0.095172191823 0.09401479582 0.10379856872 
0.10946655239 0.11348891339 0.12476336721 0.12623674254 0.13607029934 0.22095768866 0.16666528532 0.16666875274 0.16667768278 
0.16679472457 0.16698927933 0.16725242015 0.16760082289 0.16806515157 0.16860837602 0.16922234136 0.16989505868 0.17066675316 
0.17143266839 0.17212038011 0.17271786306 0.17313420529 0.17331335121 0.1731949542 0.17282845518 0.17214291254 0.17126684419 
0.17029424194 0.16926977916 0.16831926201 0.16751626807 0.16691233469 0.16668940857 0.16664806764 0.28841347116 0.19191666955 
0.16686854629 0.15761385706 0.15296378032 0.15073965594 0.14996181772 0.15009566331 0.15074800777 0.15175139173 0.15303503754 
0.15434340632 0.15573496773 0.1571044966 0.15848472578 0.15982713482 0.16116170112 0.16244359755 0.16357049826 0.16463450879 
0.16560756541 0.16644852323 0.16718003519 0.16776234419 0.16817320355 0.16844318048 0.16857049866 0.1685215322 0.16835506388 
0.16808316029 0.16772650654 0.16731798313 0.16691645044 0.16657477052 0.16629360693 0.16607087082 0.16596093294 0.16593354538 
0.16598568075 0.16609880729 0.16624195293 0.16640229338 0.16655559553 0.1666589409 0.16669468333 0.16668129014 0.16673917769 
0.16662512836 0.16587634375 0.16441342544 0.16251530175 0.16112831853 0.16186353933 0.16419523427 0.16542422138 0.16268767008 
0.15606941627 0.14788507152 0.14099400403 0.13972874331 0.14598400046 0.15210334548 0.15480134493 0.15421101338 0.15207622145 
0.15042339818 0.15055171244 0.15537658684 0.16248852689 0.18777524758 0.28336229951 0.35249594186 0.32637628938 0.34558182541 
0.3527604616 0.35129806642 0.41163114649 0.39308789848 0.31097556116 0.34048465311 0.2544329222 0.24026419875 0.21581410751 
0.16382727769 0.25749033164 0.33224590573 0.32066835952 0.35398531159 0.37057154582 0.32018820147 0.32476726194 0.31843220661 
0.2568766283 0.25760657913 0.2930509756 0.30331927308 0.32426913552 0.1666593133 0.16666838703 0.16669019321 0.1668722956 
0.16718307772 0.16763185538 0.16824134188 0.16897993904 0.16978301369 0.17067478067 0.17160823495 0.17246585642 0.17306975619 
0.17329155133 0.17308175704 0.17245306842 0.17145412456 0.17024639187 0.16896925366 0.16784065499 0.16705573792 0.16669104494 
0.16666702951 0.28459306088 0.19069138867 0.16391069068 0.15520233715 0.15133716987 0.15014719581 0.15041117708 0.15133063574 
0.15279390962 0.15449144215 0.15613703634 0.15786709229 0.15959919916 0.16126989895 0.16283965014 0.16423255109 0.16551006508 
0.16661462568 0.16746020061 0.16805657855 0.16842974625 0.16856141725 0.16849722334 0.16820482228 0.16776433032 0.1672548477 
0.16678948223 0.16639373759 0.16610381679 0.16596868981 0.16597943837 0.16611256282 0.1663065364 0.16650072979 0.1666478902 
0.16669299913 0.16668620675 0.16672994663 0.16668590291 0.16622839084 0.16511395114 0.16349642349 0.16180250531 0.16113429198 
0.16236148178 0.16496733263 0.16508764278 0.16104641178 0.15450756848 0.14685238896 0.14063214227 0.14023378061 0.14726297028 
0.15341781498 0.15488127694 0.15345683445 0.15129541631 0.15003692309 0.15073346175 0.15361806 0.16341969799 0.18902684722 
0.29066175968 0.40468543815 0.42886707236 0.42241374649 0.34650251706 0.42831533033 0.34803961903 0.33596242818 0.31834765035 
0.29734230603 0.21632454893 0.22759442006 0.21345311967 0.18330892314 0.26531209985 0.30447628454 0.27127761192 0.30016912748 
0.3154936479 0.37979723926 0.37396381065 0.30835101902 0.25461193354 0.33694373484 0.32904383022 0.2912522397 0.27882312679 
0.16668791418 0.16666803523 0.26124450039 0.27426219443 0.15143684439 0.36827991998 0.20279107636 0.21215926968 0.14006858847 
0.12180961247 0.10679050486 0.097618244491 0.089597231189 0.092269625482 0.085880553898 0.08420669009 0.081122492718 0.079725663121 
0.078127913233 0.074834350344 0.078574267379 0.060596626255 0.059584237202 0.073459489102 0.066562881234 0.069653367871 0.067810138225 
0.066922478659 0.069088525155 0.064538012443 0.072233437016 0.073411838698 0.065619542882 0.070237963699 0.068155866097 0.068797415333 
0.070568625238 0.068027102993 0.073852770553 0.062538111021 0.070195513566 0.083349394618 0.077429585218 0.08227455162 0.081478176281 
0.084529135173 0.086294766828 0.086628096426 0.094826952379 0.1118644596 0.1448719283 0.067666995237 0.057490901212 0.062263046099 
0.10265017592 0.16666691563 0.16666046607 0.16666954174 0.16670190214 0.16674131387 0.16670767883 0.16680710868 0.16688508952 
0.16680208347 0.16697315102 0.16708405008 0.16695309453 0.16720433376 0.16734958233 0.16714984065 0.16750371064 0.16769656726 
0.16741319413 0.16789083698 0.16814368244 0.16775136748 0.16836667875 0.16865343078 0.16815714136 0.16891440993 0.16922526915 
0.16862678323 0.1695041522 0.16984832937 0.16915850698 0.17014449276 0.17054719316 0.16972836696 0.17083681496 0.17116844128 
0.17032086296 0.17144385402 0.17176964068 0.1708818736 0.17201435596 0.17227105442 0.17139494892 0.1724321252 0.17255322891 
0.17179443894 0.17263301465 0.17266815255 0.1720387843 0.17262449847 0.17249767197 0.17206303054 0.17235525136 0.17209770769 
0.17189293011 0.17184869671 0.17144935836 0.17149813291 0.17113133024 0.17069273527 0.17092590866 0.17029840689 0.16979630077 
0.17022129998 0.16940354888 0.16892655769 0.16942414955 0.16855006762 0.16811136191 0.1686598929 0.16778261934 0.16743376703 
0.16795790891 0.16717921737 0.16697738128 0.1673744813 0.16677276088 0.16669562891 0.16692694564 0.16666766843 0.37698903649 
0.16667667707 0.22495636076 0.26056994155 0.19334838445 0.1787518416 0.17204106622 0.19602769337 0.16619550743 0.16308624912 
0.17518191668 0.15943794465 0.15750174216 0.16636400733 0.15560564285 0.15472699216 0.16093626896 0.15378698862 0.15358032328 
0.15817399648 0.15314617788 0.15338706513 0.15662347767 0.15333012244 0.15372083589 0.15613339344 0.15370526074 0.15427736385 
0.15608777541 0.15454346745 0.15515266518 0.15637584765 0.15560901931 0.15622649625 0.1570431493 0.15666363947 0.157339756 
0.15785938002 0.15779684021 0.15847155942 0.1587202038 0.15897483374 0.15963167953 0.15965122929 0.16012447698 0.1607648318 
0.16061123871 0.16125989609 0.16192352202 0.1615655956 0.16240906324 0.16298083528 0.16253953396 0.16343427336 0.1639674046 
0.16345357766 0.16440821137 0.16491402473 0.16432030026 0.16530529394 0.16575562136 0.16513189242 0.16608010735 0.16644530926 
0.16582623688 0.16674307573 0.16707865552 0.16643660695 0.16730290383 0.16753857129 0.16694767012 0.1677119762 0.16787604811 
0.16733789511 0.16799654255 0.16810413104 0.16761619738 0.16814862697 0.16817662451 0.16778163551 0.1681690839 0.16810569667 
0.16782380302 0.16803758397 0.1679380382 0.16774968014 0.16784600564 0.16769245698 0.16759188177 0.16756523833 0.16738368982 
0.16737205738 0.16724593532 0.16703675148 0.16710310378 0.1668923729 0.16671347131 0.16681815281 0.16659016748 0.16643316811 
0.16654802433 0.16632885263 0.16620509509 0.16631995056 0.16612470163 0.16604838263 0.16614263776 0.16599505402 0.16596796119 
0.16602639925 0.1659640056 0.16596957181 0.16597202617 0.16598812196 0.16603018624 0.16598671823 0.16607162849 0.16613506253 
0.16605357778 0.16619321226 0.16626633947 0.16615591915 0.16633386312 0.16641252382 0.16628031284 0.16647831968 0.16654154641 
0.16641819964 0.16658994002 0.16663037447 0.16653533274 0.16666471115 0.16666707354 0.16661499639 0.16597891045 0.16543205261 
0.16488188741 0.16404326484 0.16514114751 0.16330855605 0.16240763725 0.16383227908 0.16177085916 0.16138960696 0.16236785888 
0.16110648318 0.16183455243 0.16125244112 0.16183123352 0.16279169626 0.1606781287 0.16241124858 0.16200451789 0.16051092564 
0.16045096371 0.15820559165 0.15877159103 0.1557107863 0.15206958948 0.15479889022 0.15021764129 0.14631952872 0.1503000535 
0.14527158223 0.14311388848 0.14741454073 0.14421953685 0.14587825567 0.14721871043 0.1485175018 0.15183136929 0.15175882275 
0.15348956784 0.15558536173 0.15657721866 0.15639344998 0.15685729915 0.15881835425 0.15683735083 0.15610680166 0.15920492687 
0.15595202263 0.15509699529 0.15881043772 0.15541634389 0.15523878372 0.15888993852 0.15661606273 0.15808062401 0.16044529141 
0.16156937888 0.16512966425 0.16551682701 0.16962393985 0.17573344055 0.17374930539 0.18734395856 0.20793023985 0.18879099888 
0.2056824771 0.2004031653 0.17371812422 0.1757857741 0.16918340069 0.19979635945 0.161978079 0.15691071613 0.21452989042 
0.15398258998 0.15033684543 0.17879683553 0.14939389593 0.14663374595 0.17301397928 0.14666709783 0.14436679569 0.16921165983 
0.14261280569 0.14195469332 0.16609223531 0.14703629845 0.14533549515 0.18727220098 0.14143447197 0.1392727851 0.18657754511 
0.13964301035 0.13876395595 0.16264200576 0.13925446126 0.13893330016 0.16250158496 0.1380771181 0.13824713007 0.16219611147 
0.13818183258 0.14048235678 0.16168219417 0.13989063365 0.13848923798 0.18203344248 0.13825692833 0.13952468518 0.16224498277 
0.13942017811 0.14057167697 0.16131508959 0.13967027231 0.14079443147 0.16255789923 0.14108043002 0.1441001358 0.16393146296 
0.14803128191 0.14795411619 0.18861818669 0.14258047323 0.14477951062 0.19002534671 0.1454367094 0.14841354475 0.16970328585 
0.14905746356 0.15356449988 0.17204106788 0.15198242762 0.15584490558 0.17475456513 0.16574083284 0.16845220026 0.20610031015 
0.17995087612 0.18270521398 0.22419001804 0.25827061469 0.23281487269 0.18927800528 0.21054471107 0.16472183311 0.17749994495 
0.18190867759 0.1506330463 0.15496505033 0.16708560597 0.14585916984 0.14629302112 0.15599118757 0.14337845501 0.14279317037 
0.15010708397 0.14213283933 0.14095234932 0.1469894819 0.14216106933 0.13943961045 0.14495255315 0.14175552178 0.14061316414 
0.14453306155 0.14231424134 0.1386618347 0.14505946691 0.14189726474 0.14308287831 0.14349976192 0.13142509168 0.13680084644 
0.14921515369 0.13103505688 0.2047130931 0.16700375201 0.13786743635 0.10311857886 0.094741505625 0.10655869831 0.12747309155 
0.10824867306 0.11874743742 0.12978098262 0.14076381081 0.12736231474 0.15247234063 0.15891341754 0.16876076645 0.17449200309 
0.15912946069 0.18204967645 0.18812437857 0.17330894918 0.19613367197 0.20034832946 0.20304864682 0.20464577303 0.19292955069 
0.20774256979 0.20977923989 0.19945974743 0.21263866159 0.21369182971 0.21405192154 0.21417416672 0.19963003476 0.16667180292 
0.20183421443 0.16654146175 0.16630119411 0.20466550873 0.18515918959 0.22644516703 0.21230164285 0.20937089123 0.17229183689 
0.13889705662 0.14297519607 0.1709329056 0.14207782566 0.15186780195 0.15227303279 0.16081588786 0.21219985286 0.19690405885 
0.19784471576 0.18359609425 0.11852111513 0.14279116658 0.20091342413 0.16603356929 0.20249505583 0.14835206325 0.24349122482 
0.16676309538 0.1668257329 0.16688417242 0.16696507278 0.16682457746 0.16703933639 0.16715556245 0.16695127992 0.16725055997 
0.16739886081 0.16711597594 0.1675270861 0.16771003901 0.16733689921 0.16787822769 0.1680861751 0.16762607699 0.16829292668 
0.16854443375 0.16798754109 0.16875718553 0.16903695147 0.16840258661 0.16928185741 0.16957602912 0.16886784185 0.16983399295 
0.17013043832 0.16939286689 0.17037867298 0.17065702965 0.16992386153 0.17087661789 0.17112324736 0.17042004133 0.17132212778 
0.17148287187 0.17085699046 0.17159817896 0.17169047332 0.17119537144 0.17171743005 0.17168951281 0.17137328246 0.17161393846 
0.17148367613 0.17134055544 0.17128157368 0.17103404577 0.17108747561 0.17078873194 0.1704559342 0.17063624115 0.17017072476 
0.16977694069 0.1700751286 0.16942655211 0.16902389198 0.16939333004 0.16870602685 0.16832739618 0.16868739704 0.16803393771 
0.16770263444 0.16804592818 0.16745041616 0.16719160844 0.16749407372 0.16576032085 0.16516482297 0.16665868561 0.18227829088 
0.17600783441 0.17229073361 0.1682969921 0.17629080357 0.16559828745 0.16384757765 0.17015372476 0.16206041096 0.16103666507 
0.16594193889 0.15987720995 0.15938687275 0.16326865387 0.15876841868 0.15871748868 0.16148986634 0.15836941354 0.15838748917 
0.16063065433 0.15825709422 0.1584742669 0.16027716322 0.15850512694 0.15890213891 0.16025460381 0.15903736025 0.15940215135 
0.16039927576 0.15963508913 0.1600778467 0.16072514371 0.16036309911 0.16083786677 0.16122430791 0.16114717558 0.1616081172 
0.16181771528 0.1619509874 0.16242440013 0.16245980849 0.16278011106 0.16324788241 0.16316239099 0.16357263574 0.1640052227 
0.1638365484 0.16433216038 0.16475375509 0.16447574068 0.16505121214 0.16541575821 0.16507563667 0.16568340861 0.1660042265 
0.16563372242 0.16622959293 0.16651502922 0.16612900045 0.16672029363 0.16693966286 0.166558497 0.16708633506 0.16725241364 
0.16690257703 0.16736187059 0.1674755658 0.16715603288 0.16753776376 0.16758052583 0.16732099209 0.16758994297 0.16758284338 
0.16738522356 0.16754491426 0.16747552927 0.1673440376 0.16740445745 0.16731071569 0.16722949706 0.16720986961 0.16707859049 
0.16704573208 0.1669689261 0.16682995061 0.16682119154 0.16672045522 0.16658177247 0.16657996741 0.16648795164 0.16636673625 
0.16638928923 0.16628537989 0.16618168339 0.16620744667 0.16611488835 0.16605073816 0.16605883572 0.16600546947 0.16595844 
0.16595786059 0.16595172459 0.16594602984 0.16590786452 0.16596471685 0.16598519535 0.16591152481 0.16601504352 0.16605608042 
0.16596720983 0.16611139043 0.16616519432 0.16605819313 0.1662258039 0.16629508061 0.16617118129 0.16637128602 0.16644066338 
0.16631464109 0.16650990981 0.16656073663 0.16646963961 0.1666194207 0.16665092499 0.16660620836 0.19708792086 0.19052367737 
0.18805595501 0.20149379934 0.18591985561 0.18587694495 0.16444438602 0.16369247612 0.16300101239 0.16225953087 0.16363699324 
0.16115392584 0.16066387426 0.15964163826 0.15966482379 0.15944915604 0.15979380844 0.15981627512 0.15892203749 0.15856857069 
0.15710902564 0.15852783596 0.15458103913 0.15180227002 0.14754578718 0.14698703353 0.15478322202 0.15829855825 0.16034766944 
0.16200321221 0.16219436879 0.16256963593 0.16626041746 0.16215315789 0.16186932262 0.1615336238 0.16132340605 0.16419324775 
0.1618870961 0.16233618449 0.16400791589 0.16347298953 0.16503597031 0.16544410232 0.16649527602 0.17045611602 0.16816409611 
0.17577088727 0.17243716786 0.17664366978 0.17205886629 0.184788736 0.16297319996 0.17086749906 0.19489700083 0.21645562832 
0.18215543691 0.1769629473 0.18398209712 0.17384988757 0.17168551694 0.17750822422 0.16774251644 0.16698988427 0.17213323788 
0.16437184208 0.16392311509 0.16792937607 0.16218468532 0.16224875404 0.1651774822 0.16010432878 0.1572060623 0.16266314392 
0.15655444875 0.15743684292 0.16089462673 0.1573237757 0.15782030098 0.15960866664 0.15714702733 0.15673384886 0.1591518804 
0.1566131408 0.15626816647 0.15851250995 0.15657490103 0.15476710924 0.15809951871 0.1532376467 0.1547809045 0.15734578307 
0.15576179061 0.15534937618 0.15781559793 0.15714873592 0.15620820971 0.15797210941 0.15779456965 0.15684597567 0.15934073823 
0.15908738049 0.15788539735 0.16039050672 0.1591151332 0.15877004377 0.16092638616 0.16006194686 0.16362526229 0.16317460773 
0.16579953632 0.16465798667 0.16580095493 0.16912518819 0.16812173 0.16860666333 0.17442182009 0.17204391974 0.17367232292 
0.17565831735 0.18118773378 0.19497603732 0.18109384148 0.18094125962 0.16277268739 0.17135937844 0.172175581 0.1599433864 
0.15245358633 0.15578149375 0.14910891676 0.15154797486 0.15616076451 0.14651301049 0.14841319003 0.1524779232 0.14415832644 
0.14639471083 0.14928559307 0.14518886726 0.14555824878 0.14781278062 0.14326899958 0.1435634574 0.1464634273 0.1423450428 
0.14415238241 0.1451298116 0.19752116557 0.1391107941 0.14843765451 0.19497766106 0.19755871269 0.16449296182 0.17326477335 
0.1309551984 0.13150652806 0.19070455717 0.19519366008 0.18824965901 0.16644644384 0.16611435992 0.17685886784 0.18176539417 
0.17058184428 0.14531882426 0.2108185547 0.1865999361 0.19448443556 0.16485534883 0.17016274584 0.16689617706 0.15624538919 
0.16116468084 0.16386368909 0.15949125917 0.14634835944 0.1334036459 0.14554818906 0.13068637531 0.13658466595 0.13974955088 
0.1520059626 0.16113534339 0.16095533718 0.18523263665 0.18828807055 0.17832999708 0.19628695417 0.19124875852 0.18827825012 
0.16667796789 0.16670572681 0.16671666605 0.16506350041 0.16618418772 0.16687025231 0.16666739791 0.16654764032 0.16704701456 
0.17589034057 0.18357107313 0.15076501655 0.1926875295 0.1916287729 0.18119370636 0.14854640077 0.1618155812 0.15456335475 
0.14898623528 0.14731850361 0.16467708581 0.15069682248 0.16537759581 0.18773309833 0.18061348376 0.17155877601 0.14243735392 
0.15139866923 0.1476568452 0.15043445707 0.18898506357 0.19093552667 0.18522486978 0.148367303 0.16516744256 0.16481500981 
0.15776427755 0.15829496955 0.18439518821 0.1668136762 0.1668853786 0.16692921 0.16702335626 0.16677675444 0.16708526044 
0.16721001652 0.16687893574 0.16729669046 0.16745600048 0.16702437665 0.16758377416 0.16778349482 0.16723645116 0.16797869512 
0.16819978705 0.16755668429 0.16842182243 0.16867812835 0.16798478342 0.16892025234 0.16919146189 0.1684643394 0.16946231148 
0.16973444569 0.1690136963 0.16998775 0.17023534546 0.16957255618 0.17047442186 0.17068735549 0.17008760902 0.1709195486 
0.1710503421 0.17058611167 0.1711744988 0.17122811177 0.17096958717 0.17123082481 0.1711667209 0.17111084986 0.17104187609 
0.17084081253 0.17099272893 0.17061190366 0.17033212147 0.17061855519 0.17003399406 0.16971130288 0.1700476931 0.16935729335 
0.16898176562 0.16935106144 0.1686275892 0.16828177075 0.16859575822 0.16801790465 0.16769817124 0.16793942773 0.16440094369 
0.16366546368 0.16666330495 0.16671666794 0.1665940536 0.17306877469 0.17051256777 0.16869173831 0.16720863757 0.17113079467 
0.16607716275 0.16494856911 0.1684124992 0.16401375922 0.16341661162 0.16628890894 0.16279898986 0.16251085849 0.16482807748 
0.16213738134 0.16201758625 0.16395283215 0.16180516922 0.16185628466 0.16347128743 0.16173682057 0.16184991761 0.16317649923 
0.16183883325 0.16203337555 0.16306589467 0.1621146724 0.16236682486 0.16311265666 0.16248699589 0.16279887231 0.16330981068 
0.16299623779 0.16333317163 0.16362036011 0.16354945527 0.16388891113 0.16405141437 0.16412827851 0.16444956694 0.16451902255 
0.1646712132 0.16497971974 0.16497331856 0.16519758608 0.16548042781 0.16539922616 0.16568164125 0.16593902243 0.16580319285 
0.16610544103 0.16633013783 0.16616910996 0.16647964255 0.16668231468 0.16649093868 0.16680912458 0.16695161633 0.1667673863 
0.16704760665 0.16714575318 0.16698143154 0.16720161677 0.1672552442 0.16711918894 0.16726094374 0.16726609085 0.16717505486 
0.16722947692 0.16718467563 0.1671372205 0.16711152849 0.1670298694 0.16701479775 0.16692996774 0.16681149991 0.16682794561 
0.16668434468 0.16656299966 0.16657734863 0.16644142096 0.16632348366 0.16630354173 0.16624972161 0.16615900307 0.16609044064 
0.16608948545 0.16601016688 0.16594706271 0.16595692157 0.16589870046 0.16582334535 0.16587266955 0.16582868547 0.16574913242 
0.16582776882 0.16581437232 0.16571797452 0.16583845602 0.16585698048 0.16573764353 0.16589856267 0.16593183774 0.16580180426 
0.16598955906 0.16604297703 0.16591107452 0.16611168985 0.16616957387 0.16603773945 0.1662615379 0.16634934983 0.16618210968 
0.16643441355 0.16651294462 0.16656464413 0.16638805071 0.16580319047 0.16496621581 0.15817046231 0.15951508931 0.16272941505 
0.16150921153 0.16382759833 0.16934369397 0.17107689157 0.18018040298 0.18421186954 0.18300841037 0.18703731246 0.18097695015 
0.16589142832 0.16636160812 0.16692547819 0.16791904616 0.16812024996 0.16855202703 0.17031999217 0.16929713619 0.17088182402 
0.17284028482 0.17070042411 0.15088843886 0.15522167473 0.15320857133 0.14900013771 0.16444946735 0.16351030282 0.18237723262 
0.17443544699 0.17808157948 0.17547111955 0.17311525177 0.17087431743 0.17438297478 0.16950133826 0.16793371202 0.17111164546 
0.16665029341 0.16543458568 0.1685300728 0.16413615493 0.16298041308 0.16566923724 0.16222682781 0.16147975948 0.16349576898 
0.16114305735 0.16073639441 0.16239139427 0.1605555123 0.16014769315 0.16186394469 0.15982018987 0.15956548613 0.16136098386 
0.15937463627 0.15934353998 0.16085276483 0.15923002528 0.15933150545 0.16048454196 0.15945717937 0.15929198703 0.16033157161 
0.15967223752 0.15985637947 0.16080375926 0.16022058501 0.16075609379 0.16145178298 0.16120543033 0.16181188061 0.16231612327 
0.16215458104 0.16295916347 0.16330599592 0.16399513387 0.16492074594 0.16461244075 0.16626969101 0.16782672872 0.16674599384 
0.1696858158 0.17113960049 0.16978321747 0.1730862434 0.17600725197 0.17351957644 0.17900160179 0.16846098079 0.16767826799 
0.17899337736 0.17534560601 0.17493012221 0.17927445237 0.15963702823 0.15874152456 0.15943248204 0.16676845533 0.15334479655 
0.15504718587 0.15724429184 0.15872855833 0.15750287889 0.18075010288 0.14638002771 0.14888171984 0.15343793429 0.17016115351 
0.16977954794 0.17192693543 0.17475952684 0.17888782774 0.18146242884 0.1596706152 0.15856666337 0.1576385628 0.15835749021 
0.16288096824 0.15776952168 0.18292477063 0.1839184334 0.17787611083 0.16849568526 0.17502565225 0.19146961121 0.18879982501 
0.18092430541 0.14748571578 0.14633564956 0.15232159297 0.17339159622 0.17671284085 0.17425739559 0.18428864966 0.18340929648 
0.1796522287 0.16661643186 0.16590292804 0.16739826675 0.16624486105 0.170382073 0.16932191493 0.17775241888 0.16735657782 
0.16708807277 0.1672845444 0.16504212556 0.16349418266 0.18828861276 0.18673785198 0.18530911068 0.15966083879 0.15933190498 
0.16676150203 0.16638509033 0.15511402092 0.15208055794 0.15289686139 0.15634735077 0.15438800112 0.16106944874 0.15826117089 
0.16918780479 0.15872442028 0.16127381045 0.16629563538 0.15474201357 0.16669613497 0.17234219045 0.16861729895 0.17842152826 
0.1797001406 0.1825511502 0.18295426729 0.15015733752 0.14976455202 0.14851668108 0.15527159023 0.15540313145 0.1577587869 
0.17548162687 0.16636658318 0.16696908158 0.17573035037 0.18645103598 0.16503610747 0.15985478224 0.16447025938 0.18233882751 
0.18221530012 0.15034238958 0.15168206221 0.1541696076 0.16624780482 0.16540690253 0.16662582888 0.166680676 0.16668163342 
0.16675922077 0.16640780928 0.16680255334 0.16692677248 0.16644303771 0.1670441094 0.16724510127 0.16659487603 0.16744499629 
0.16767856839 0.16691448615 0.16796508378 0.16822799434 0.16741030979 0.16851836402 0.16882068138 0.16801270396 0.16914364516 
0.1694315805 0.16867298319 0.16969052203 0.16997576569 0.16932576898 0.17035335428 0.17061961455 0.16999971981 0.17090176124 
0.17105317985 0.17074757345 0.17116145276 0.1711744211 0.17116154175 0.17114059202 0.1710093509 0.1712514013 0.17079241433 
0.17052963733 0.17098250688 0.17014796279 0.16979458876 0.170351834 0.16932192406 0.16891079007 0.16945288286 0.1685241598 
0.16813927375 0.16849937778 0.16763081844 0.16733607859 0.16751576332 0.16530320811 0.16432372424 0.16689975398 0.18410366456 
0.17833036388 0.183209363 0.16899728897 0.16943309735 0.17010991853 0.16894979404 0.16822301615 0.16731123068 0.16943679808 
0.16667272885 0.16612464965 0.16814267434 0.16561423433 0.16526926691 0.16707623022 0.1649283689 0.16474863366 0.16637432062 
0.16447520222 0.16439223691 0.16581136118 0.16425997069 0.1641903266 0.1654222737 0.16413629004 0.16416733749 0.1651617294 
0.16416076159 0.16425101442 0.16504788188 0.16425918913 0.16447546334 0.16505560017 0.16459964807 0.16481711706 0.1651791437 
0.16494432692 0.16517679195 0.16545877515 0.16529578682 0.16551049981 0.16571515764 0.16564718965 0.16585708082 0.16596737863 
0.16597979375 0.16617497547 0.16622282261 0.16629362261 0.16645296401 0.16646582628 0.16655576002 0.16670634223 0.16669104777 
0.16679762112 0.16692541458 0.16688759679 0.16699183442 0.16707916808 0.16704515959 0.16711950074 0.16716423098 0.16714891767 
0.16716256293 0.16715842726 0.16718014671 0.16711237141 0.16706621334 0.16712054107 0.16697595302 0.16688915978 0.16696572976 
0.1667535917 0.16662989938 0.16671968551 0.16646577065 0.16631525669 0.16639899334 0.16615119783 0.16601124175 0.16603655612 
0.16588900943 0.16581824642 0.16568457806 0.1657648421 0.16570117006 0.16556289773 0.1656697389 0.16562517479 0.16547862438 
0.16559838815 0.16558043895 0.16542415823 0.16556684803 0.16556248398 0.16540133366 0.16560422842 0.16562671444 0.16543317056 
0.16569123277 0.16573600105 0.16553909953 0.16580964693 0.16586656344 0.16568636645 0.16596223256 0.16602931653 0.1658613844 
0.16612495151 0.16623819929 0.1660515709 0.16819370198 0.17088159126 0.16365612113 0.18119196793 0.176683608 0.17107619075 
0.17302077028 0.15655993304 0.15591700055 0.16678454957 0.16935675993 0.16861164065 0.17196961292 0.17342556723 0.16954862705 
0.1701689109 0.16993483516 0.17015712397 0.17087248678 0.17006193626 0.17303523169 0.16962130477 0.17347615016 0.16870712852 
0.1688733134 0.16974552351 0.16962851463 0.16841794049 0.16713566524 0.16592146929 0.1685269286 0.16505947071 0.16434737619 
0.16653544021 0.16419671449 0.16377127885 0.16549657717 0.16339296323 0.16309314498 0.16494047773 0.16271697767 0.16242176554 
0.16421979637 0.16217735652 0.16199266551 0.16356603024 0.16193750838 0.1618398321 0.1632531395 0.16186332786 0.16193734325 
0.16321472485 0.16201877552 0.16228213684 0.16332540692 0.16255301635 0.16290532275 0.16367933405 0.16333418037 0.16382378263 
0.16436811673 0.16429895615 0.1648501127 0.16529850813 0.16550729756 0.16637973933 0.16644409718 0.16725423171 0.16842203188 
0.16793319356 0.16965225247 0.17119094465 0.16989995932 0.1725924981 0.17454838015 0.17245961783 0.16192712432 0.16374291981 
0.16075945791 0.16004167416 0.15899496267 0.15735759416 0.1604549307 0.16223511352 0.1648934468 0.16538457988 0.16191196861 
0.16659817623 0.16663393213 0.16643434164 0.17418474924 0.15824022167 0.16051557236 0.16224666519 0.17445177739 0.17581997406 
0.17145384955 0.16656945388 0.16660622841 0.16646023565 0.16647709074 0.17116934204 0.16981831426 0.17674943837 0.17721700847 
0.1736737111 0.15597253912 0.15715351795 0.15998694572 0.1593415135 0.17870531867 0.18156757901 0.17765417036 0.17250560586 
0.17083747727 0.17121979508 0.16608383364 0.1638203345 0.16633190196 0.16190002361 0.17543992151 0.17630345712 0.15646790795 
0.16002440225 0.15808789508 0.16638057218 0.18278113248 0.18271831082 0.18005256201 0.16968760192 0.15882947465 0.15894317437 
0.16131312713 0.16860619852 0.17455410265 0.17499070777 0.17067864936 0.17115815896 0.16873662626 0.16698004398 0.17487249105 
0.17320852687 0.1732765209 0.17708315772 0.17748760886 0.17779381437 0.1750489754 0.1726033151 0.17111593193 0.15630137061 
0.15913618386 0.23688883443 0.26260085268 0.15792479884 0.16644508598 0.16068173231 0.16989640199 0.16002581721 0.16632925352 
0.16719837507 0.16657695093 0.16711660517 0.16776413243 0.16826471414 0.16794054131 0.16600016158 0.16603367522 0.16600571133 
0.16611971462 0.16574944939 0.16625847108 0.16647049612 0.16582480773 0.16679992853 0.16710944069 0.16612524449 0.16752578766 
0.16784660373 0.16687915111 0.16817379775 0.16857065897 0.16770520421 0.16886882794 0.25788679797 0.16971034531 0.17019568953 
0.16898854354 0.17072054949 0.17103871089 0.1705090474 0.17135094041 0.17148535942 0.17138871138 0.17150825422 0.17146838589 
0.17176177159 0.17145336303 0.17120998423 0.17180569966 0.16948236367 0.1689182096 0.1681957432 0.1822577045 0.18005863226 
0.18003901576 0.16271055299 0.16388879035 0.17045950463 0.16978460229 0.16931807334 0.16864159063 0.1699438609 0.16832886534 
0.16780299456 0.16915585992 0.16753754779 0.16718831641 0.16844559874 0.16690137346 0.16669069708 0.16791736306 0.16644062694 
0.16629705136 0.16744812716 0.16614170301 0.16601419552 0.16706119672 0.16592293379 0.1658597373 0.16674720867 0.16578773393 
0.16578234143 0.16652940093 0.1656792335 0.16582737293 0.16636287845 0.16588496387 0.16600842417 0.1663311173 0.16608539647 
0.16620541314 0.16648167472 0.1662826482 0.16641975213 0.16664070623 0.16648484084 0.1666122235 0.16678748412 0.16667247313 
0.16679096882 0.16691686988 0.16684689578 0.1669468408 0.1670421911 0.16700220256 0.16709465072 0.16716211637 0.16713875448 
0.16720706475 0.16726497648 0.16723660462 0.16727263589 0.16733872705 0.16725706947 0.1672468574 0.16734921947 0.16718254269 
0.16712339445 0.16726939348 0.16701158288 0.16690056147 0.16707815292 0.16673232828 0.166572472 0.16677229791 0.16634320695 
0.16614188124 0.16634200438 0.16589405921 0.16569941742 0.16582724069 0.1654884614 0.16538948697 0.16532553996 0.16533208382 
0.16528136059 0.16509587433 0.16525082764 0.16522161137 0.16501156166 0.16525730439 0.16524032774 0.16500675724 0.16518130651 
0.16517944386 0.16499081489 0.16523283609 0.16527132592 0.16500013577 0.16537818525 0.16544418133 0.16516010087 0.16555451724 
0.1656336954 0.16538534726 0.16575649177 0.16584976919 0.16562709282 0.16598493251 0.16609375565 0.16588911408 0.16927398183 
0.16760257064 0.17187557644 0.17110294919 0.17093796496 0.16630654334 0.17642011471 0.1759530142 0.16728151764 0.16862967458 
0.16547167457 0.16592381662 0.16275381109 0.17009150792 0.17011374284 0.16971958604 0.16966692242 0.16973975574 0.17435340243 
0.17114766781 0.17347539885 0.17053240429 0.17034979764 0.16623044481 0.16620680193 0.16698115252 0.16670469577 0.16631089847 
0.16590479511 0.16764187334 0.1655692691 0.16519632413 0.16701497439 0.16475157807 0.16449987718 0.16615326062 0.16453733927 
0.16445071718 0.16569291397 0.1645480257 0.16453530597 0.16577724759 0.1646695716 0.16474390988 0.16594477499 0.16460346089 
0.16488554575 0.16590424224 0.16531990411 0.16576232756 0.1662227691 0.16607714901 0.16656856986 0.16701327512 0.16701320113 
0.16763969096 0.16775831476 0.16820342298 0.16891543594 0.16874620167 0.16968457492 0.17058942826 0.16985712832 0.17138744319 
0.17246548334 0.17795987777 0.16482136829 0.1662716608 0.16658279258 0.16496246005 0.16610518829 0.16608530787 0.16581429386 
0.16965950213 0.17083948636 0.16831232454 0.16284078454 0.16202905301 0.17181836634 0.17274042775 0.17015668014 0.15835696652 
0.15802855233 0.17033961101 0.17036445954 0.17046097017 0.17066225379 0.17351302958 0.17306043845 0.16885121543 0.16821051112 
0.17076387845 0.17030252549 0.16987071922 0.17065855477 0.16209765919 0.16375689415 0.16149733273 0.16903690944 0.16887309506 
0.16722652538 0.16626015085 0.16794510731 0.16991118844 0.16386718872 0.16172650951 0.16146484823 0.17797231125 0.17830073942 
0.17595196145 0.15990416325 0.16873365552 0.17416508904 0.1722028926 0.17096934949 0.16286236789 0.16291451238 0.16439300122 
0.17353200019 0.17413982578 0.1718163474 0.16593725762 0.1711342024 0.16766004606 0.1774566708 0.21538381207 0.16280927468 
0.16132837065 0.15860467511 0.15989139895 0.16053097657 0.16929936704 0.17121065865 0.17769284347 0.1776135398 0.17600278715 
0.16550492169 0.16559100418 0.16633277949 0.16678611541 0.17163479307 0.17200463902 0.17226212902 0.17233496659 0.1703155903 
0.16801206273 0.16684452461 0.16509924066 0.16504563136 0.17240375244 0.17186579789 0.17156687321 0.17309074949 0.16971606942 
0.16933146416 0.16921689075 0.16885147796 0.16961821838 0.16871687175 0.1684258574 0.16924625707 0.16821572425 0.16802122525 
0.16890049495 0.16781951281 0.16766077247 0.16853352425 0.16751142855 0.16736535953 0.16818520918 0.16723915474 0.16711213372 
0.16787930571 0.16700758436 0.16689826278 0.16759568204 0.16674612628 0.16682755872 0.1673092042 0.16679497954 0.16685887897 
0.16715476354 0.16697386467 0.1670496498 0.16725480857 0.16708814188 0.16716309266 0.16739693822 0.16716437611 0.16723386828 
0.16743354858 0.16724146959 0.16730302126 0.1674548493 0.16731426798 0.16736869685 0.16749414721 0.16740110238 0.16744678817 
0.16754469332 0.16746908172 0.16750013983 0.16760053406 0.16747177341 0.16745857745 0.16759850064 0.16738611187 0.16731519883 
0.16750162431 0.16718719975 0.16705635109 0.16730105262 0.16685617294 0.16665514073 0.16694796784 0.16633970353 0.16606348146 
0.16638561449 0.16568952955 0.16539368836 0.16566157338 0.16506308305 0.1648557631 0.16488984177 0.16486656727 0.16480911486 
0.16454029646 0.16470362757 0.16467291399 0.16445073721 0.16475308787 0.16478306538 0.16443587413 0.1647393752 0.27376454445 
0.25338887821 0.16466503651 0.16472764082 0.16442458664 0.16494817158 0.16506024816 0.16463299518 0.16521753007 0.16533090894 
0.16501312357 0.16550759808 0.16563464641 0.16535042673 0.16581058772 0.17057938349 0.17016668691 0.17036111375 0.16828123113 
0.17577590744 0.17403401856 0.17116515184 0.17066922392 0.17350521032 0.17219291686 0.16541268828 0.16434497785 0.16730835896 
0.16689288187 0.16690606289 0.2976254137 0.3074785873 0.16677609391 0.16675153933 0.16788975466 0.16710602282 0.16715400514 
0.16798161737 0.16709917648 0.16701259426 0.16819063479 0.16736606067 0.31789342086 0.28315386043 0.16767259401 0.16795471395 
0.16836502089 0.16821597735 0.16857257023 0.16879041371 0.16891358542 0.16930215676 0.16930052591 0.1697273445 0.17278432935 
0.1752824288 0.16087169225 0.16210440686 0.16381737404 0.16925327281 0.17012309476 0.16776039541 0.16853174326 0.16865480817 
0.1657044185 0.16563296605 0.16579556158 0.16601537513 0.16603308344 0.1654931633 0.16902474895 0.17223917159 0.33358586137 
0.29320074803 0.16337732074 0.16642688383 0.16715509734 0.16749328509 0.17082951826 0.16541446419 0.16534700635 0.16553819236 
0.1655041034 0.16540244967 0.16994939051 0.17409199141 0.16526271224 0.16489668354 0.166283719 0.17429838263 0.17486655186 
0.17296348808 0.16768133772 0.16850634267 0.1680297503 0.16586368444 0.16527334275 0.17082663423 0.17078272868 0.17208164547 
0.17047790196 0.16099311145 0.1612496316 0.16100989045 0.16215415562 0.17072349752 0.16419794493 0.1637468749 0.17748412143 
0.16944763461 0.16903135303 0.16982297137 0.16540210448 0.16594865059 0.16661512673 0.16526119264 0.17330227506 0.16501201385 
0.16602746556 0.16471444661 0.17019625799 0.16954492596 0.16989202516 0.17047788938 0.16717252579 0.17102666377 0.17064138178 
0.16379238848 0.16523004444 0.16499886137 0.16605041952 0.16307248793 0.16290134197 0.16979713828 0.1696562419 0.16502229514 
0.16968276657 0.16944681169 0.16975875976 0.169419405 0.16920174494 0.16968847034 0.16907338444 0.16891100902 0.16951392867 
0.16880343703 0.16862115679 0.16930086876 0.16846980749 0.16829702072 0.16898337219 0.16813622025 0.16797776558 0.16862500765 
0.16779332855 0.16760155596 0.16823468837 0.16751281421 0.1674747285 0.16772739713 0.16758833232 0.37761036859 0.3009217962 
0.16760153765 0.16765494875 0.16781060514 0.16762969661 0.16765364264 0.16782067181 0.16762581515 0.1676530348 0.16777640347 
0.16764308944 0.1676639263 0.16777796016 0.16765350684 0.16768017917 0.16777170419 0.16770626332 0.16772599637 0.16779154115 
0.16770645542 0.16768538908 0.16777719284 0.1676142443 0.16754668598 0.16770126496 0.16742308973 0.16727737312 0.16751397553 
0.16708784144 0.16685534939 0.16719233674 0.16652352554 0.16615517191 0.1666379583 0.16546431977 0.16498913933 0.16552235193 
0.16453987527 0.16418319272 0.16429217205 0.16408845971 0.16410987837 0.16368544338 0.16400233901 0.34852731174 0.34895738369 
0.16403111802 0.16411533989 0.16363615061 0.16297630644 0.16210840634 0.16368334051 0.16304200271 0.16493443198 0.16466895857 
0.16424006249 0.16499832169 0.16628513381 0.17002897997 0.16988772507 0.16137460998 0.16219794668 0.16491332204 0.16995460467 
0.17079846455 0.17155442676 0.16968715804 0.16466297285 0.16454196384 0.16570590516 0.34502098844 0.29518932803 0.16936698705 
0.16964890063 0.17045822188 0.17063390847 0.16440041712 0.17070609533 0.17041251132 0.17445912252 0.17214990722 0.17257611634 
0.33062286881 0.38759383641 0.16447226499 0.1640499617 0.16408065282 0.16474426531 0.16697259816 0.16687788359 0.16588155218 
0.16992794044 0.16932596124 0.169733273 0.16908823865 0.16873532862 0.16889248033 0.16923525815 0.16915212605 0.16753964979 
0.16891212288 0.16911012721 0.16961607999 0.17057015604 0.16395764239 0.16306268935 0.16689515058 0.1671769267 0.1685769958 
0.16910595465 0.16921489548 0.17384507475 0.16664232722 0.16680178113 0.16730641844 0.16753580076 0.16796447223 0.16844858842 
0.16990635581 0.17015958809 0.16981731849 0.16768057075 0.17009415415 0.16989238203 0.16299921409 0.16970248916 0.16817043731 
0.16795868344 0.16795487819 0.16800488623 0.16808100846 0.16796443933 0.16792419207 0.16804299027 0.1678039707 0.16778299343 
0.16663317558 0.16695601283 0.1666557512 0.16722300674 0.16662394651 0.16638920986 0.16731805522 0.17194336982 0.17104585796 
0.17007050644 0.16898924353 0.16976351629 0.1704030713 0.17044097477 0.16932028167 0.16991770042 0.16647456388 0.16647390241 
0.16715546209 0.16705281688 0.16977598722 0.16989795412 0.16981568404 0.16976047191 0.16881959239 0.17015763496 0.17030758868 
0.17035182997 0.16978351798 0.16970386648 0.16990997716 0.16968348608 0.16955097462 0.16990402054 0.16944654059 0.16928491078 
0.16981013223 0.16902982145 0.16886155315 0.16946631962 0.1687114635 0.16849334665 0.16861556973 0.16908908504 0.16793918818 
0.16787954486 0.16786402547 0.16782657946 0.16783533596 0.16786501438 0.16525107847 0.16595115497 0.16774784567 0.16774180488 
0.16765271737 0.16756846521 0.1674617178 0.16719507774 0.16778494053 0.16632898555 0.16973067612 0.16992205808 0.17002959799 
0.16858775334 0.16859891916 0.16871380496 0.16773540541 0.16796984296 0.16807848994 0.16801573779 0.16755595332 0.16781030401 
0.16771047923 0.16758575824 0.16788860998 0.16793552364 0.16755466062 0.16820000536 0.16815364333 0.16301863954 0.16291637139 
0.16817960556 0.16819176061 0.17027203039 0.17003968399 0.17004554357 0.17008936755 0.16994862592 0.16975890134 0.16953784922 
0.16937291473 0.17000848476 0.16784389509 0.16780967095 0.16738527374 0.17019488992 0.16913807904 0.16881592059 0.16743621494 
0.167470712 0.16755828682 0.16960548344 0.16757760209 0.17009763661 0.1666740175 0.16666866873 0.16666502176 0.16677526158 
0.16671857982 0.16671345774 0.16698611428 0.16686148283 0.16684880272 0.16729107725 0.16711296865 0.16705690459 0.16773609982 
0.16747552836 0.16735084337 0.16830628292 0.16797474878 0.16775417474 0.16898602356 0.16860897199 0.16827566739 0.16969038329 
0.16929908595 0.16887717592 0.17051250723 0.17005249751 0.16953258493 0.17128862228 0.17086701078 0.17023960211 0.17197141648 
0.17160387596 0.17090604987 0.17241473824 0.17221318262 0.17145984288 0.17249921651 0.17249310577 0.17179375968 0.17222195618 
0.17241733327 0.171808527 0.17158678303 0.17199586948 0.17150803286 0.17069155949 0.17121666312 0.17091239386 0.16962168083 
0.17023917716 0.17010358664 0.1685622566 0.16914163648 0.1691735526 0.16766870338 0.16813925065 0.1682702702 0.16703559117 
0.16732860603 0.16751259615 0.16670086919 0.16681963981 0.16696567571 0.16665690502 0.21613848655 0.1903110896 0.20787781371 
0.17057303194 0.17941619453 0.19095814665 0.16045342974 0.163605325 0.17303274392 0.15585992094 0.15717889716 0.16385014964 
0.15407228818 0.15428434536 0.15910765052 0.15378837054 0.15352531205 0.15715191884 0.15431175944 0.15376551813 0.15656005825 
0.15544383253 0.15463022226 0.15683015167 0.15665042419 0.15589339225 0.15761213579 0.15791186848 0.15709878742 0.15842054293 
0.15931548441 0.15847094208 0.15938311171 0.16075622428 0.15994506584 0.160536181 0.16217224007 0.16136928872 0.16173386183 
0.16343708932 0.16272814825 0.16285467451 0.16464583752 0.16400832676 0.16394711653 0.16572363937 0.16512471031 0.16495965046 
0.16661070807 0.16613697311 0.16583457306 0.16729643055 0.16694669509 0.16655994384 0.1677722652 0.16753921989 0.16711850637 
0.16805710022 0.1679295023 0.16751013107 0.16812709657 0.16811043904 0.16771449754 0.16801547467 0.16810348366 0.16773839102 
0.16773318577 0.16791184523 0.16760876219 0.16735210747 0.16758472161 0.16735524184 0.16694162016 0.16718082031 0.16703212355 
0.16656733966 0.16677339928 0.16669769606 0.16626197482 0.16643199106 0.16639311223 0.16605336826 0.16615998122 0.16616480388 
0.16598271101 0.16601438619 0.16602850342 0.16602669224 0.16598836494 0.16598956332 0.16615645361 0.16607447612 0.16604968489 
0.16632834536 0.16623185405 0.16617560684 0.16649652794 0.16641257794 0.1663376734 0.16661712283 0.16656416331 0.16649749139 
0.20236062736 0.16647835451 0.16657877265 0.1658535108 0.16624360112 0.16621155569 0.16481081467 0.16548898051 0.16562904297 
0.16337748214 0.16420960084 0.16465953418 0.16201091744 0.16271667766 0.16339489813 0.16178550732 0.1609244172 0.1624515768 
0.16178816819 0.16006706427 0.16085156349 0.16179237146 0.15993116565 0.15689495139 0.1592577307 0.15773015855 0.15155168281 
0.1546742633 0.15394889027 0.14655260895 0.14926114134 0.1489866671 0.14679330394 0.14454897105 0.15371842697 0.15006280846 
0.15344421873 0.15670565006 0.15503891164 0.15862085041 0.15677995894 0.15685543927 0.15949381257 0.15569910749 0.15662208396 
0.15915648726 0.15477100918 0.15551902276 0.158572582 0.15508335588 0.15513136768 0.15865133458 0.1574261564 0.15636288796 
0.16017434719 0.16412694654 0.16055413117 0.16445649548 0.17903216111 0.16988695718 0.17308430711 0.20573317751 0.18483997651 
0.18687399664 0.2384935811 0.18280707485 0.19378233019 0.16109505883 0.17238507078 0.20114540338 0.15607417943 0.16343181493 
0.18637626199 0.15016951223 0.15369281175 0.18262374244 0.14660816279 0.14963447351 0.1769395715 0.14881372257 0.14632777416 
0.17258118217 0.14048677548 0.14261189213 0.16266893082 0.14138142456 0.14566858495 0.1613502625 0.13983735683 0.14056117682 
0.1667777954 0.13898082914 0.13972754697 0.16508396619 0.13885281541 0.13920222923 0.16584561842 0.14063402373 0.14213872035 
0.16395954016 0.14070438354 0.14067767283 0.1653228167 0.1422002069 0.14111288734 0.16788681599 0.14665052279 0.14173740271 
0.16941760691 0.14400356221 0.14152363817 0.16250985449 0.14879675469 0.15062466317 0.16457230391 0.15216537032 0.14893213278 
0.17328565127 0.16158912043 0.15489880275 0.17956771607 0.17311846118 0.16132922093 0.18499716308 0.24055097235 0.27515038537 
0.22471057806 0.19031483926 0.17634670196 0.16381733859 0.18315045529 0.15598423566 0.15282597311 0.16788166387 0.14731696253 
0.14622314583 0.15720626675 0.142628419 0.14302533005 0.14972539995 0.14102399517 0.14194974917 0.14648781633 0.14022557465 
0.14185027325 0.14427940214 0.14019622919 0.14137758679 0.14284551329 0.14022581579 0.13995675083 0.14403806598 0.13929686698 
0.14006895188 0.14329710842 0.14093099105 0.13150768603 0.13989594384 0.13002420081 0.17508776641 0.21541336214 0.10887591322 
0.12725620051 0.10612754229 0.095480924456 0.12787086519 0.12291201667 0.11138402221 0.14316602583 0.13427670366 0.12904571451 
0.16110519604 0.15378348637 0.14373491029 0.17679577299 0.17049497561 0.15895586033 0.18825127826 0.18544959916 0.19465750846 
0.19243937313 0.18427290749 0.20606673821 0.20191860461 0.21142518637 0.21141833161 0.19964987701 0.21660337715 0.21389892569 
0.20305228737 0.20999717082 0.21437211926 0.16666812455 0.1666777847 0.16666232699 0.16089671265 0.16154883459 0.16161357881 
0.14872142738 0.14377942602 0.14547041117 0.14735924779 0.26154220889 0.20234246896 0.23450525634 0.21456738537 0.18965346157 
0.24203934282 0.18134304847 0.19903770368 0.2064329112 0.19032681067 0.14770839062 0.13512046468 0.11984953802 0.12795542974 
0.1915305079 0.14862333856 0.14055570146 0.16990033951 0.17271588776 0.1940773586 0.19929912421 0.15126391042 0.17706986223 
0.16662140271 0.19146174667 0.16687744541 0.16679332919 0.1667195972 0.16666549068 0.16661036696 0.16672779775 0.1672997565 
0.16712782718 0.16765149558 0.16743177347 0.16717100146 0.16812451691 0.16784071835 0.16747720797 0.16868218858 0.16837861626 
0.16790576263 0.1693106425 0.16895975373 0.16844329837 0.16997788819 0.1696230818 0.16905899468 0.17062685964 0.17029896456 
0.16973222871 0.17116290403 0.1709247414 0.17039809902 0.17145478622 0.17136179443 0.1709219449 0.17142286569 0.17148166904 
0.17117584644 0.17107251436 0.17129080192 0.17109431579 0.17040778439 0.17078309416 0.17067438098 0.16960841223 0.17005897511 
0.16999002829 0.16871478243 0.16919403612 0.16916949204 0.16785039884 0.16828551225 0.16827068823 0.16710946963 0.16745329088 
0.16740003766 0.16661357649 0.16683732902 0.16671837434 0.15629086428 0.15792155828 0.16554234728 0.16892298095 0.17247216448 
0.17893665674 0.17282980494 0.18215446752 0.192964944 0.18440753438 0.18082389076 0.16163317949 0.16325529129 0.16735245941 
0.15968700293 0.1603313863 0.16359678542 0.15908754668 0.15915561168 0.16175929076 0.15923927345 0.15893961696 0.16116727247 
0.15956393786 0.15915316217 0.16104763693 0.16009671514 0.15969840746 0.16114225042 0.16087083482 0.16036148449 0.16153272437 
0.16176472275 0.16117975829 0.16207667319 0.16268433174 0.16211156968 0.16272270787 0.16360522194 0.16308012331 0.1634577767 
0.16452730713 0.16399280175 0.16422712014 0.16535776742 0.16490198424 0.16497614849 0.1660616399 0.16566690449 0.16563242875 
0.16664973032 0.16632995161 0.16620448123 0.16709124463 0.16685980667 0.16668074015 0.16738109919 0.16723362282 0.16702757899 
0.16751142514 0.16746153056 0.16724169811 0.16748240289 0.16750577662 0.16730374744 0.1673067781 0.16741287784 0.16722899903 
0.16704377641 0.16719739392 0.16703356426 0.16671583945 0.16688980472 0.16674601004 0.1664248235 0.16657907342 0.16642532682 
0.16620361035 0.16633269151 0.16620894559 0.16603044974 0.16612392814 0.16603517529 0.16595098094 0.16599815676 0.1659247355 
0.16596929343 0.16596392667 0.16589742117 0.16605450273 0.16600509498 0.16594256115 0.16618375635 0.16611554747 0.16604987295 
0.16635927989 0.16626728583 0.16619172881 0.16653014289 0.1664525473 0.16639089424 0.1665768954 0.16479570548 0.16543595915 
0.15995237546 0.16089747781 0.16329494135 0.16395505423 0.16463984512 0.15933746983 0.15960100478 0.15826786723 0.15934760635 
0.15875853512 0.15836027376 0.15167770072 0.15413043729 0.15442332451 0.16383043179 0.16301005715 0.16225744858 0.15769741073 
0.16847617324 0.16168440747 0.16207292128 0.16141308116 0.16145132557 0.16398239129 0.16243377226 0.16201393965 0.16422016391 
0.16467594755 0.16331348637 0.16550549989 0.17011907278 0.16627214927 0.16821002548 0.1788658679 0.17232360422 0.17280333653 
0.18923739299 0.18081888842 0.17863720752 0.1733167968 0.16611849721 0.21776673094 0.19470990631 0.17259307996 0.17492147645 
0.19227565833 0.16789397852 0.16824705012 0.17127587132 0.1636792356 0.1644571791 0.16698061026 0.15920433106 0.15972685779 
0.16359924656 0.15743415671 0.15820530436 0.16175365266 0.1586548616 0.15844489955 0.16000558257 0.15764998949 0.15786157676 
0.15936048963 0.15774853524 0.15772663072 0.15882954832 0.15608359407 0.1564471163 0.15865488146 0.15727093649 0.15698431576 
0.15918191529 0.15913128811 0.15920783078 0.1597050159 0.16002671246 0.16044716042 0.16032389988 0.15972079839 0.15946593146 
0.16148209339 0.16147571063 0.16112627407 0.16360597582 0.1657509771 0.1640116273 0.16609196901 0.1719981685 0.17050874447 
0.16975854882 0.18011262899 0.17400595521 0.17486168131 0.18213880608 0.1968797036 0.22124897324 0.19608210504 0.13175855576 
0.13022189849 0.17004589873 0.16521045881 0.16232601319 0.15815975717 0.16380180636 0.1557669444 0.15224603689 0.1590145469 
0.15228070286 0.15033943433 0.15558888982 0.1493850658 0.14799376239 0.15303751531 0.14484848123 0.14348462158 0.17407070935 
0.16680087083 0.13504935844 0.14569205998 0.14423392096 0.15071965855 0.14142005728 0.13856414192 0.13132593664 0.14366374215 
0.19059013435 0.18632416092 0.18196554105 0.17752598838 0.17920048689 0.19450736012 0.19292287833 0.19356215472 0.19170662805 
0.18511724736 0.1872593588 0.16704712883 0.16693078784 0.16684903919 0.16696992475 0.16270805941 0.16294978503 0.16526889919 
0.17234919478 0.17338759299 0.16653914837 0.16069815622 0.16283028206 0.18136058288 0.16312707222 0.15394769729 0.15238614912 
0.18965180548 0.19217580561 0.18626475991 0.18444945742 0.16600087563 0.16586273111 0.17631722351 0.16586194104 0.15887805464 
0.19064273018 0.18690554195 0.18426241841 0.16216347624 0.16260208455 0.16659667741 0.16619306436 0.16642882763 0.15252857832 
0.1501414944 0.16232143603 0.14915459206 0.14934315932 0.16726587666 0.14596890698 0.1473473143 0.15050653399 0.14997248419 
0.16077964986 0.16183777123 0.1710793275 0.18080643591 0.17784861187 0.18108374181 0.19077905683 0.13951308431 0.14404508373 
0.18903133338 0.19189006936 0.17756690396 0.14143938837 0.14598444017 0.14467385107 0.14693474289 0.14963263615 0.14627804553 
0.14680042162 0.1446664599 0.14750529746 0.16281597833 0.17276445062 0.17077599946 0.15974703314 0.16375986956 0.14971605702 
0.14640810368 0.14877537249 0.16215577705 0.15912864976 0.16759489805 0.16734121708 0.16694733659 0.166829807 0.16812487474 
0.16782988714 0.16724218814 0.16879950954 0.16845660029 0.16783714882 0.16954852802 0.16918027955 0.16860176448 0.1703212221 
0.16997678295 0.16948360353 0.17090862972 0.17067941173 0.17034052702 0.17116197934 0.17110142473 0.17096545674 0.1710134079 
0.17113920174 0.17117487018 0.17044737731 0.17078358448 0.17091409004 0.16962971337 0.17004025389 0.17018905573 0.16868321667 
0.16915479362 0.16922413171 0.16782234323 0.16829723742 0.16826858253 0.16686199874 0.16729842299 0.16725283987 0.1575459604 
0.15837635954 0.16008412574 0.15910052752 0.16671901171 0.16665156531 0.16655770809 0.19375052249 0.1934926226 0.16771691979 
0.1700083317 0.1768520902 0.18073577639 0.17829674243 0.16300597995 0.16310733889 0.16263231225 0.16269278452 0.16438610182 
0.16261091427 0.16249779534 0.16400942566 0.16282558259 0.16262777011 0.16382538433 0.16317072213 0.16290582417 0.16387173126 
0.16367919771 0.16334809684 0.16407829306 0.16427553447 0.16389746944 0.16447872013 0.16489112478 0.16451983386 0.16494719718 
0.16548599721 0.16513359055 0.16542183221 0.16598868957 0.165699467 0.16586647489 0.1664475175 0.16618572089 0.16626787771 
0.16681306366 0.16660849058 0.1666233767 0.16706973041 0.16693543596 0.16690203895 0.16720511948 0.16714263366 0.16708470887 
0.16719970528 0.16721077747 0.16714149178 0.16705736948 0.16713599645 0.1670676462 0.16680140714 0.16693599635 0.16686071217 
0.16645497168 0.16662872264 0.16653825237 0.16614920988 0.16627864136 0.16615462642 0.16597216166 0.16606025888 0.16590326184 
0.1658407771 0.16590694917 0.1657468531 0.1657821199 0.16581519501 0.16566772121 0.16580954144 0.16580507507 0.16567263538 
0.16590254114 0.16586222463 0.16574339287 0.16602927713 0.16596792956 0.16586628951 0.16619182015 0.16611622831 0.16602660655 
0.16229040034 0.16427870482 0.16352985671 0.16401261857 0.1649624955 0.16450406063 0.1655491651 0.1671982122 0.16702601325 
0.1666529559 0.16685878198 0.16959422154 0.17085868394 0.16263485587 0.16176519045 0.16669307903 0.16621060369 0.16592518125 
0.1662947177 0.16772937777 0.17040738538 0.16840204196 0.17399682589 0.1711805445 0.17099814545 0.17657816434 0.17446232738 
0.17276040013 0.17743981954 0.16400731278 0.16523270695 0.17082371428 0.17312040699 0.16240084648 0.16327749395 0.16483870295 
0.16107041791 0.16161717646 0.16333890097 0.16042903276 0.16064141646 0.16221129701 0.15997253646 0.16023619816 0.1615399259 
0.16006266323 0.1599846445 0.16134035787 0.16039277669 0.160253781 0.16147791418 0.16103457668 0.16070090265 0.16190150925 
0.16187238162 0.161417357 0.16262544082 0.16329706167 0.16240930151 0.16365560536 0.16529863798 0.16426213899 0.16513985386 
0.16788030987 0.16641949548 0.16716748272 0.17128116466 0.1692659088 0.16969818127 0.14667158247 0.14693346916 0.15278013248 
0.16398941209 0.16724872295 0.16823889657 0.17127439019 0.16866151885 0.15816822718 0.15708042461 0.16460437787 0.16671991878 
0.16858938378 0.17064766753 0.16703637795 0.18157203923 0.18241232378 0.18511206709 0.17327972794 0.16797207433 0.16715199016 
0.16833989236 0.16940875232 0.18001587584 0.18906597725 0.18425555219 0.17326916072 0.17367722332 0.1752330282 0.17164137204 
0.17502641799 0.17535507881 0.17176881689 0.1487606485 0.15291071464 0.15428168111 0.16345789568 0.15912413854 0.16493717634 
0.16636367946 0.16853142675 0.16618473596 0.17116483035 0.16675675626 0.16404705609 0.15590305326 0.15186926363 0.15826554727 
0.1498454957 0.1468778672 0.15227197705 0.15382467503 0.17761629534 0.17414933317 0.17000208906 0.16658000136 0.16680575088 
0.16674132655 0.16177854388 0.15861039969 0.16770269426 0.17330956692 0.15681406027 0.15303246649 0.15450709503 0.16643884356 
0.16515670335 0.16643649674 0.16632673777 0.16621931188 0.1665033001 0.18989725345 0.18525553314 0.18541449887 0.18256568146 
0.15180594153 0.15444839374 0.16676341735 0.15808900864 0.15940967917 0.15504236012 0.15436441878 0.15923058471 0.18206389813 
0.18132144298 0.17847121603 0.16093941084 0.16625772298 0.17484218082 0.15573873624 0.16631840205 0.16609054709 0.16024354966 
0.17955437256 0.17473981686 0.18151679152 0.17598925858 0.17311024531 0.17280484009 0.17588140081 0.16850090444 0.16612771798 
0.17599674159 0.15007290427 0.1782938056 0.18259514926 0.18248980582 0.16680603809 0.16655396809 0.16950455931 0.16898978457 
0.17055174008 0.17012656294 0.16969564241 0.17129964662 0.17103770232 0.17092778987 0.17147613171 0.17148726196 0.17166656112 
0.17099949491 0.17127505472 0.17169316874 0.17001742846 0.17057205657 0.17100357034 0.16869814648 0.16926514093 0.16959627439 
0.16755717455 0.16801123592 0.16802019752 0.16242340638 0.16483673757 0.15938039369 0.18131590232 0.16875961506 0.16971876986 
0.1652142455 0.16533829679 0.16563782323 0.16587978106 0.16669145586 0.16489005958 0.16487327881 0.16498816075 0.16487624302 
0.16574729837 0.16526325311 0.16504364068 0.16570198007 0.16561466486 0.16538425531 0.16590207144 0.16595708949 0.16572959096 
0.16614070176 0.16628699007 0.16607912967 0.1663772309 0.16660379117 0.16641514357 0.16662964174 0.16686672968 0.16670791463 
0.16686629699 0.16706025 0.16694345668 0.16705104532 0.16717127409 0.16711128624 0.16717924831 0.16715132182 0.16716040698 
0.16720994474 0.16699470107 0.16707556043 0.16710916239 0.16669380035 0.16684235101 0.16686298721 0.16627818167 0.16648748258 
0.16646393977 0.16581558422 0.1660243576 0.16596329944 0.16562659698 0.16570551581 0.16550632734 0.16550579274 0.1655581913 
0.1653599441 0.16546582298 0.16548276432 0.16527294454 0.16552876504 0.16551028295 0.16530341449 0.16565924635 0.1656058903 
0.16542441028 0.16582767368 0.16575291115 0.16560289073 0.16601001419 0.1659274489 0.16580551335 0.16718364093 0.16635720685 
0.16660583324 0.16523189143 0.16252096503 0.16914882785 0.16894043415 0.15713211301 0.15878378479 0.16055521123 0.16104726916 
0.1714317201 0.17125811623 0.16944313065 0.17139146892 0.17025247253 0.17046668191 0.16319169568 0.16360626649 0.16422877734 
0.16487122933 0.16521054602 0.16550708177 0.1662846472 0.16638745064 0.16271551816 0.16292645496 0.1643344851 0.16270217881 
0.16276377623 0.16407738747 0.16288714896 0.16277772636 0.1641194223 0.16340822253 0.16313872314 0.16437424534 0.16421825514 
0.16375571542 0.16494675195 0.16521330863 0.16463648226 0.16573582447 0.16665286865 0.16583056718 0.16675872102 0.16855762631 
0.16754085872 0.16812557438 0.17090334085 0.16966574835 0.16991675067 0.16838550853 0.16795444755 0.16835879629 0.1674729071 
0.16709741013 0.16638362506 0.16720494629 0.18410194953 0.17889762849 0.17071623947 0.17498922607 0.16630878227 0.16665982669 
0.1672722102 0.16493772143 0.16498626023 0.16620606558 0.16587083364 0.17937436829 0.18402156607 0.17966146424 0.16681270592 
0.17082448615 0.17448852513 0.1753294472 0.17792763829 0.16985589855 0.16726805724 0.16555896682 0.15969671982 0.16075349604 
0.15842418955 0.16223172474 0.1817917964 0.17341074729 0.17526269276 0.17383755251 0.16355753503 0.16684715428 0.16788588922 
0.15913788483 0.15966755271 0.16153888537 0.16923213787 0.1699763557 0.1696422316 0.17572728768 0.17551755443 0.15687804749 
0.15527512887 0.15712525685 0.18243053694 0.1830393537 0.17978537522 0.18027557255 0.16611927677 0.16601891277 0.16626653366 
0.16978267575 0.16901907205 0.16626494601 0.1662113839 0.15627260479 0.1600910831 0.15598555984 0.17024663472 0.16642086453 
0.16628550645 0.16586752556 0.16595023616 0.17127451756 0.16890710105 0.17747772624 0.16624020739 0.16624806687 0.16590874784 
0.17183253067 0.17338521806 0.17179921877 0.17018181727 0.16961947131 0.17003325498 0.17666083115 0.17606029505 0.17379660422 
0.17436627724 0.16798192016 0.16697965766 0.16778998932 0.16699770475 0.16690783096 0.16823964276 0.16931100024 0.16752242287 
0.17161145441 0.16898840337 0.17346334146 0.17524778355 0.17219761131 0.17084556839 0.17252078734 0.17231862771 0.16858476655 
0.17000538791 0.17075850215 0.16898532028 0.15716503862 0.15598850655 0.1589372853 0.1597715822 0.17212854392 0.16645649284 
0.17009556651 0.16932305612 0.17212893473 0.17241885577 0.1578470649 0.1603801904 0.15860090686 0.17212332884 0.17594075846 
0.16748825215 0.16777769001 0.17786323162 0.17811723622 0.16638635647 0.16642722815 0.16654629832 0.16661626797 0.1671718991 
0.1666249054 0.1665134671 0.16679160757 0.16666458278 0.16699791314 0.16699028613 0.16685853086 0.16713024532 0.16715154832 
0.16704517643 0.16726390032 0.16727896674 0.16720026324 0.16737505816 0.16734833947 0.16730065894 0.16745124816 0.16729665442 
0.16731725752 0.16744258386 0.16711788807 0.16720797495 0.16731735513 0.16675910164 0.16694208085 0.16703973668 0.16624418228 
0.1664979147 0.16656523191 0.16559145372 0.16589631666 0.16590954016 0.16518903384 0.16526524178 0.16516047188 0.1650457844 
0.16510238114 0.16485249725 0.16501437769 0.16503047931 0.16475700429 0.16511511215 0.16507239478 0.16480164933 0.16531379616 
0.16523612045 0.16499702244 0.16555734539 0.16545378384 0.16526543242 0.16580083934 0.1656953426 0.1655545653 0.17044500626 
0.17045710795 0.16811495631 0.17127362053 0.16650436217 0.16637880165 0.16687689326 0.16693341727 0.16580638459 0.16637012221 
0.16970581081 0.16979247425 0.16870735223 0.16536359553 0.16540272025 0.17528963777 0.17441548571 0.17157472637 0.17290031546 
0.16517967428 0.16544942228 0.16673024971 0.16723142713 0.16779453038 0.16778040941 0.1709639021 0.17253259643 0.17070921957 
0.16537743496 0.16540341845 0.16663054037 0.16568191584 0.16554690456 0.16671549938 0.16628451619 0.16596359864 0.16705855841 
0.16701296809 0.16655160611 0.16757114982 0.16791754896 0.16735907919 0.16816852511 0.16909442103 0.16844373536 0.16900528166 
0.17052085533 0.16976010309 0.16992574466 0.17645721806 0.16832422494 0.16760451082 0.16860735543 0.16802289994 0.1684065266 
0.16865998215 0.17154076564 0.1709463189 0.17060448023 0.17245453661 0.17223493759 0.1725079047 0.17300741821 0.17423509278 
0.17600853084 0.16628505142 0.16471271144 0.1637221187 0.16247013311 0.16464097802 0.17092706719 0.17473904913 0.16130686516 
0.16314614123 0.16605162787 0.16587226621 0.16058601857 0.16297677972 0.16335485963 0.17479524021 0.16719297676 0.16816256899 
0.16698895269 0.17259782996 0.17195599065 0.1728406086 0.17302867231 0.17453762033 0.17039582665 0.17149159178 0.17102773165 
0.16741608086 0.16668607115 0.16680116801 0.16593199895 0.16582259913 0.17031941323 0.17072397451 0.1703585931 0.16644388224 
0.16563485667 0.16565431302 0.16931469725 0.16884996645 0.16912270935 0.17835846488 0.17750628516 0.17523633704 0.16604126056 
0.1701556645 0.16183201654 0.16265898268 0.1644364601 0.16149365905 0.1590654427 0.15872447498 0.17803265693 0.18130042171 
0.16572615186 0.16565854601 0.16541294311 0.16556761297 0.16570026922 0.16575312194 0.16561818239 0.16547456164 0.16635437009 
0.17000885501 0.16999282143 0.17028305128 0.16571164545 0.16856270959 0.16680031855 0.16636752256 0.16606781589 0.16696563868 
0.16740611108 0.16646181424 0.16887944829 0.16337476487 0.16182316907 0.16113898143 0.16989954276 0.16757099649 0.16975416503 
0.17634245776 0.16887488184 0.16934474228 0.16929211214 0.16029687948 0.16152484841 0.17179892484 0.16714974089 0.16648377677 
0.17328922446 0.17468426725 0.16807294214 0.17328645288 0.17170557706 0.17427308082 0.16277926429 0.16410952126 0.16479123712 
0.16743812786 0.16735326954 0.16730263272 0.16726012438 0.16758165152 0.16758419539 0.16752881081 0.1676122634 0.16758622554 
0.16771167029 0.16755242431 0.16757854531 0.16770012232 0.16736040391 0.16745746203 0.16757722382 0.16697834283 0.16718648629 
0.16731364844 0.16635826819 0.16666462799 0.16677996231 0.1654939526 0.16591961319 0.16597662307 0.16467276894 0.16500957165 
0.16497379968 0.16447845955 0.16455220065 0.16422798072 0.16440477513 0.16442045209 0.16410065457 0.16455519429 0.16449885126 
0.1641227182 0.16487570515 0.16475315549 0.16445482377 0.1652510145 0.16511418187 0.16488372081 0.16547079976 0.16757095217 
0.16763202759 0.16757355846 0.16744546302 0.16856346111 0.16756377853 0.16755124694 0.16849662981 0.17080611046 0.16986448504 
0.1683638578 0.16956595223 0.15916658992 0.16000223016 0.16019291625 0.17115599116 0.17255156189 0.17073385747 0.17068280124 
0.168070888 0.16797983767 0.16861630212 0.16849066088 0.16830838974 0.16909490427 0.16897655331 0.16867749027 0.16934611063 
0.16948433788 0.16918215151 0.16963490028 0.17002380743 0.16978161448 0.1698508129 0.16461305935 0.16313292983 0.16265781768 
0.16552987969 0.16488155855 0.16904301835 0.16937496751 0.1658151196 0.165419641 0.16577889749 0.17045679151 0.1702089131 
0.16751831863 0.16744709722 0.16769114806 0.16773190665 0.1679039668 0.16103819997 0.16135101449 0.16352396432 0.16294255931 
0.1699230052 0.1722665092 0.16100070543 0.17154965666 0.17353847382 0.16954730067 0.16769791033 0.16195816116 0.16302667914 
0.16194736466 0.17125469971 0.16765290287 0.16864572023 0.16893402713 0.16942197482 0.17952342348 0.1684992172 0.16918641744 
0.16972000205 0.16913105085 0.16804769794 0.16820213291 0.16854496493 0.16754677059 0.16731073085 0.16728656607 0.1653399374 
0.17068907821 0.17079477281 0.1707404849 0.17721359735 0.16521805456 0.1651101974 0.16486765562 0.16547630589 0.16458641093 
0.16426174778 0.17538045268 0.1703337822 0.16549962988 0.16531914698 0.16606911256 0.16609804662 0.16696267658 0.16971128515 
0.16897077506 0.16808306482 0.16782809644 0.16560584899 0.16638067245 0.16531690254 0.16997600162 0.17028073042 0.16929778921 
0.16744636433 0.16805557051 0.167281433 0.16523749974 0.17022748384 0.16921019838 0.17098820321 0.16148663807 0.16188570104 
0.16772413556 0.16775942473 0.16778599839 0.1677655961 0.1677562969 0.16721277584 0.16740815902 0.16545579714 0.16600159457 
0.16385362581 0.16395213158 0.16351626673 0.16356955133 0.16321792778 0.16381301887 0.16377675061 0.16318930034 0.16438856957 
0.16414981916 0.16376832005 0.16497664374 0.16472624985 0.16452023062 0.16515027322 0.1693070769 0.16819760178 0.16838183528 
0.16907614752 0.16879635467 0.16969752637 0.16962777837 0.16511903184 0.16591186692 0.16488972887 0.1696600373 0.17057989574 
0.16477218818 0.16986038824 0.16976539737 0.16967082489 0.16450298993 0.16550998078 0.16195290618 0.16140155196 0.16231306677 
0.16371472153 0.16779386916 0.16775959901 0.16777592704 0.16974388085 0.16968918416 0.17012081036 0.16774868597 0.16758250034 
0.16767338619 0.1676625445 0.16746574182 0.16781165143 0.16775188944 0.16359889704 0.16433130864 0.16430332822 0.16318883862 
0.16925755834 0.16933072613 0.17028202982 0.16506933417 0.16619556448 0.16456297751 0.16688190746 0.16679528458 0.16894870061 
0.16913553723 0.16824391291 0.16874706941 0.16781546072 0.16649489293 0.16658414844 0.16693049082 0.16422394043 0.16482118748 
0.16441168656 0.17044936993 0.17068600155 0.17058716121 0.16999484865 0.16984095419 0.16618331433 0.16611342804 0.16400606619 
0.16415827574 0.1655040348 0.16519050722 0.1696119977 0.17011807418 0.16979113271 0.1686139913 0.16913344139 0.16829952028 
0.1694504401 0.1701063179 0.16785980474 0.16781545706 0.16778203615 0.16671020676 0.16644244232 0.16683571266 0.16699292227 
0.16757091827 0.17010812533 0.16910512168 0.16792218295 0.16353113244 0.16477663791 0.1700667372 0.16983925659 0.16993548588 
0.1695876548 0.16686252416 0.16732566599 0.1674762556 0.16661174371 0.1696244572 0.16926561142 0.1622036434 0.16268328585 
0.16268237076 0.16769202972 0.16766697412 0.16608184758 0.16783578429 0.1678507281 0.16832945841 0.16796191664 0.16392284526 
0.17033740434 0.17037561363 0.16836525017 0.16760663207 0.16903645277 0.16855904272 0.16773528207 0.16777592505 0.16750629816 
0.16878616162 0.16914361147 0.16831583783 0.16645314631 0.16815897961 0.16818762018 0.1676941514 0.16430962734 0.16794228228 
0.16797372137 0.16777942578 0.16298636323 0.16351064317 0.17009972689 0.17018001339 0.16351868121 0.17001739564 0.16804381424 
0.16806675496 0.25031322127 0.16811775715 0.16829490277 0.16742748208 0.16728598094 0.16756013623 0.16716533908 0.17040867539 
0.17032443763 0.16928612194 0.16964230201 0.16298005082 0.16767313782 0.16724770036 0.16999439152 0.17014508973 0.1698279513 
0.16787366 0.16295061633 0.1674270178 0.16744967479 0.16726440643 0.16712250108 0.16971664702 0.16923689045 0.16681250184 
0.16619348111 0.16801650204 0.16708577659 0.16651194305 0.16875813299 0.16829282674 0.16610107758 0.16929320184 0.16720949147 
0.16808671646 0.1667314226 0.31614405225 0.24229543422 0.1667245429 0.16669329885 0.1664875392 0.16609932911 0.16553314553 
0.16483063119 0.16395127828 0.16307603848 0.16209141396 0.16138839439 0.16189949916 0.15896080538 0.1469576683 0.14364384229 
0.14078066186 0.1387674432 0.15023936512 0.15025035653 0.15071465113 0.15231290995 0.15412640089 0.15790047052 0.16239808864 
0.17100453422 0.1864894829 0.15143901604 0.14623961443 0.1426606325 0.15265785232 0.15022285731 0.15080252196 0.15524236415 
0.16099750414 0.16116247665 0.16457472188 0.16542413193 0.16521315708 0.16420918402 0.13987268982 0.16331047989 0.15442726165 
0.15494689153 0.15473462337 0.15389150939 0.15280982154 0.15169714048 0.16204406403 0.31715371657 0.16668373285 0.1666888168 
0.24502160741 0.19209972269 0.17447937367 0.16563305391 0.15976679064 0.15650628785 0.15377324956 0.15207286883 0.15087919452 
0.15004118786 0.15002961018 0.15021752879 0.15058718462 0.15096613889 0.15156134893 0.1521628838 0.15301711833 0.15434702043 
0.15514490279 0.15584756739 0.15670499569 0.1573993324 0.15827550729 0.15895841318 0.15979911262 0.16115453764 0.16195015708 
0.16255363706 0.16328693823 0.16383398577 0.16449240129 0.16501447125 0.16563072272 0.16646418357 0.16694896882 0.16729205349 
0.16765006712 0.16789181994 0.16813136864 0.16829988014 0.168438181 0.16857454221 0.16856261859 0.16851304528 0.16841606285 
0.16795347935 0.16771182229 0.16730227369 0.16705438134 0.16687064794 0.16665996189 0.16650068739 0.16632044739 0.1660688044 
0.16619825331 0.16596595936 0.16594257059 0.16603227537 0.16611636955 0.16626045885 0.16636371288 0.16644597356 0.16653515717 
0.16660105357 0.16665758387 0.16668810666 0.16669899704 0.16830627405 0.16812068782 0.1660035567 0.16594422441 0.16598582354 
0.15032963659 0.15369138609 0.16045894788 0.16607259428 0.16852936991 0.16752240926 0.16618578387 0.16666127987 0.1666611309 
0.16666328574 0.16666195164 0.16666519611 0.16667680894 0.16674154034 0.16681715385 0.16694350358 0.16706083753 0.16723703851 
0.16757887066 0.16785888219 0.16811450711 0.16845991829 0.16875578835 0.16914127975 0.16947208659 0.16986050216 0.17064119992 
0.1711119746 0.17146353169 0.17190635707 0.17225135734 0.17264525571 0.17290266604 0.17315315289 0.17333000608 0.17328055244 
0.17315845349 0.17295560311 0.17269120285 0.1722768038 0.17183880327 0.1713186869 0.17033579776 0.16969081417 0.16918729944 
0.16857634414 0.16811857458 0.16761847272 0.16727065648 0.16693447586 0.16674904228 0.16667185854 0.16666796729 0.1673954407 
0.17022785945 0.17324515175 0.17084275438 0.4146425496 0.44407752271 0.5207710318 0.53151655116 0.55255675471 0.55501472662 
0.56450416069 0.5492610391 0.56007759747 0.54544123729 0.54265537011 0.52273468286 0.51190459835 0.48977090099 0.48544344133 
0.46105928886 0.44724678549 0.41948573101 0.39415722567 0.37904625091 0.3591073653 0.3194826951 0.31635291105 0.45452619441 
0.48856982934 0.54185539075 0.51736415413 0.56252851089 0.55388102063 0.56762236091 0.55766796908 0.55237118536 0.55303651384 
0.53089609157 0.53803161538 0.49684947766 0.51626009154 0.46408638111 0.47826140862 0.41470331648 0.4451210218 0.36782824318 
0.40418649426 0.31031919568 0.36206190806 0.32272430652 0.25883397398 0.22638815173 0.29099090687 0.27005390439 0.27883689641 
0.22905638392 0.30124250711 0.25213657463 0.3406220485 0.2686879564 0.31609919938 0.27771732315 0.31418487863 0.27928666742 
0.27958243353 0.31065527448 0.33020442055 0.29220399357 0.29726895803 0.26369848586 0.28779741155 0.25503569315 0.29362290036 
0.49333684942 0.50798691563 0.51786161432 0.5322568818 0.16600585003 0.16602518533 0.16596031907 0.1659902156 0.47377442891 
0.4500001343 0.54008541455 0.55141276969 0.55651577909 0.40092366548 0.53072357354 0.54701491093 0.54937100107 0.1675753029 
0.16629620877 0.16781346934 0.42860925957 0.51331055976 0.35722218835 0.3964383901 0.34427260091 0.43691603022 0.40998341107 
0.2774312217 0.27710695736 0.15755983503 0.15669202706 0.15500261414 0.15425133616 0.55656014757 0.55902009601 0.19395597251 
0.22196801734 0.22004550552 0.24189450134 0.21305274293 0.4009845627 0.14260640443 0.16526423728 0.16588388686 0.16490469488 
0.16559229169 0.16132420942 0.15995204313 0.15822090949 0.17526388483 0.17085432024 0.17085902297 0.16620267865 0.1666285732 
0.180135299 0.18157848032 0.17916296869 0.16850052396 0.16817378576 0.16817967837 0.16578510106 0.16585380106 0.16623319145 
0.16636252847 0.16466559887 0.16610556009 0.16553230566 0.17078318968 0.1707902063 0.17084258083 0.16785176755 0.16788540907 
0.16794078585 0.16799463037 0.16843242285 0.16780489607 0.16841640082 0.16711142142 0.16704182555 0.16715990502 0.167101907 
0.15640022998 0.15898729469 0.15888271382 0.1611756984 0.15519872229 0.16716673987 0.16712127467 0.16705600444 0.1567431954 
0.15938902274 0.15935234437 0.17141944307 0.17219821642 0.17179167895 0.16349771246 0.16470020495 0.16583961473 0.1748614275 
0.16750840498 0.16699361095 0.1671817424 0.17106352936 0.17150275006 0.17124704609 0.19814489519 0.19630760064 0.21748188715 
0.16577781162 0.15873338064 0.1701998404 0.14278676052 0.17264085668 0.17197600044 0.17192340549 0.16292193444 0.1629026169 
0.16358711293 0.16838505495 0.16860254138 0.16817436383 0.16839700859 0.16657873513 0.16481849612 0.16559819592 0.16420464345 
0.16890762891 0.1711221586 0.17114182559 0.17115739436 0.17115690634 0.16960277967 0.17583905314 0.17416909347 0.14055648576 
0.15353780633 0.15394168057 0.15636244019 0.16153390935 0.16155474424 0.16309491691 0.14478512717 0.1664366879 0.166636056 
0.16639741418 0.16612793584 0.16616369332 0.1662787999 0.15301456964 0.16610659317 0.16466545443 0.16501240094 0.1667138501 
0.16678629889 0.16677360629 0.17167154922 0.17181523919 0.17136419123 0.17149250659 0.17120904556 0.17158937094 0.14810590124 
0.14627145268 0.14955023909 0.16549033655 0.16530540934 0.16539000157 0.1651949236 0.16886064642 0.16888138458 0.1685377046 
0.16853892357 0.1712144801 0.17123021008 0.17087189383 0.17084464965 0.16609622115 0.16901763779 0.16867720551 0.16915039555 
0.16626122982 0.16619007519 0.16629194237 0.16162328443 0.16735862899 0.16706937709 0.14693187485 0.14913052852 0.14598981665 
0.14813642877 0.16854027294 0.16789953084 0.16841456205 0.17386203297 0.16354712303 0.19464745861 0.18646383043 0.16614335147 
0.16604609558 0.16608156868 0.16706972573 0.16740404938 0.16702316656 0.16737617257 0.16982032932 0.16961652779 0.17137403138 
0.17128450538 0.16048940068 0.16139167721 0.15900029222 0.15992939847 0.15926396929 0.16708045409 0.16722550329 0.16737585691 
0.16794351001 0.16812250121 0.1687934606 0.16769643522 0.16839374755 0.15159099557 0.15432039353 0.14591800911 0.14956068816 
0.167851732 0.16614548994 0.16640381049 0.16612603768 0.16639126169 0.16763333392 0.16742240499 0.15103027361 0.16582649783 
0.16409191628 0.16377708742 0.16964946904 0.16967630894 0.16929337709 0.1438222021 0.14699302257 0.14499998599 0.16794499386 
0.16740349575 0.16713777701 0.19092154874 0.21807764104 0.18445815318 0.16602792423 0.16598773593 0.16600958154 0.16778160535 
0.16809911689 0.16774603592 0.13637299305 0.14361402527 0.17075000982 0.16166177891 0.16522237389 0.16670313161 0.16675659527 
0.16675769916 0.16914348605 0.16873170166 0.16903072109 0.16666636768 0.16876163904 0.17014216922 0.16987705157 0.1697714449 
0.16803146014 0.16848079246 0.16801167739 0.15888225017 0.15928464974 0.17040678855 0.16475988683 0.16508207 0.16503965492 
0.16673891638 0.16658916765 0.16667536349 0.16648343143 0.16616516437 0.1661375088 0.16583459485 0.1695178001 0.1689915096 
0.1695474854 0.17084536894 0.17243785854 0.17153247108 0.15904768871 0.15974244762 0.16790427102 0.16685683428 0.16763835753 
0.16229482078 0.1624271225 0.16086442928 0.16099798739 0.16543054293 0.166291901 0.16406654739 0.14499020049 0.15316751139 
0.15691879236 0.15923737051 0.1496710551 0.15168392916 0.15551752205 0.15874319322 0.16720229586 0.16731000173 0.16644157573 
0.16784205358 0.16698346409 0.16711839789 0.16737656082 0.16744865225 0.16639576306 0.16863636136 0.16647525515 0.16584527341 
0.17230618886 0.17567128477 0.171024448 0.17816051993 0.16078777131 0.16092313807 0.1622112959 0.16611495937 0.16611203531 
0.16617176625 0.16700482053 0.1685105192 0.16254901481 0.16192914588 0.16088584088 0.20230495533 0.21462500502 0.25498752216 
0.25293693211 0.16374020196 0.16357427195 0.16218445433 0.16648495471 0.16642749418 0.16655315611 0.16717848161 0.16714550365 
0.16715451757 0.16935493915 0.17312808726 0.18024955397 0.16712827851 0.16719221844 0.17839231651 0.18055382426 0.18150480293 
0.14336444267 0.14722257023 0.14659701413 0.16720969563 0.16710283665 0.15203915001 0.15570211773 0.17064206741 0.13699263947 
0.17582565349 0.16416397756 0.17234347359 0.16633208389 0.16626644922 0.16685567713 0.17022078847 0.17043911844 0.17125312025 
0.16704206629 0.15888794401 0.15954358924 0.15821759683 0.16708720058 0.16723324632 0.167221391 0.16737369973 0.16683033651 
0.16478332278 0.159703184 0.16698838718 0.16694343305 0.16722351742 0.16739621112 0.16749321351 0.16769455313 0.16654114038 
0.16725742906 0.16699897584 0.1671801229 0.16696261503 0.16317283178 0.16329930119 0.16124151285 0.16363799233 0.16317334955 
0.16319483458 0.15928039591 0.15820459827 0.15799781193 0.16658670723 0.1669139923 0.16678868515 0.16333118855 0.1627194259 
0.16269879556 0.15825413667 0.16096412977 0.1591668234 0.17081775327 0.15159806426 0.16578841882 0.16460133505 0.16515898779 
0.16662793124 0.16651290319 0.16766707618 0.16661231258 0.16546913269 0.16540508721 0.16566579454 0.16141736236 0.16119239849 
0.16603799652 0.16593838847 0.16591280294 0.1873269848 0.18559731377 0.15777877887 0.17685732755 0.18135073573 0.18533647078 
0.16773918028 0.16748293121 0.16729327789 0.167656329 0.16750059233 0.16778045186 0.15012423874 0.14439408314 0.14518400372 
0.14614603315 0.14295333588 0.16338614925 0.16142354469 0.16372167878 0.16099200596 0.16571774442 0.16591726248 0.16613858014 
0.16610458271 0.16581911574 0.16584903355 0.16563234569 0.14329813225 0.1439430381 0.14392769357 0.16606889764 0.16599991614 
0.1661602961 0.1660039558 0.1705594676 0.17073128981 0.17126073996 0.16597105519 0.16598131563 0.1659895146 0.16883294248 
0.16596350749 0.16580453729 0.16627772098 0.16600532851 0.18297368379 0.18462097891 0.15796413494 0.1598166107 0.15848119093 
0.16756087371 0.16773514455 0.16755420082 0.1677020149 0.14666044624 0.14756273096 0.14378463144 0.16772916709 0.16793882228 
0.16796557057 0.16951701186 0.16978858027 0.16933804844 0.16425112047 0.16460156743 0.16519669509 0.16554221447 0.1746284014 
0.17246081322 0.1828672092 0.17876351626 0.18213431695 0.17878145785 0.16986784044 0.16974960074 0.16994236651 0.17947608166 
0.17672370255 0.1506427194 0.16611177584 0.16677309266 0.16687735116 0.16490289418 0.16463987366 0.16484830286 0.15661252177 
0.15473590146 0.15402067894 0.15179213954 0.15986644149 0.16799845318 0.15285050888 0.16099493283 0.14443616058 0.12983562856 
0.1459827981 0.096768281774 0.10467262869 0.15634892508 0.1522551347 0.18174138726 0.16374304717 0.16455611507 0.16523227273 
0.16699901141 0.16766775508 0.16754150087 0.16826141086 0.16875782701 0.15955671427 0.16928977325 0.16893062959 0.17078198255 
0.15940999337 0.15894406379 0.17011631612 0.17037456421 0.16892951997 0.16872268924 0.16847975719 0.16508784946 0.16638478219 
0.16629898938 0.16637674051 0.16628459393 0.17797620226 0.17372020201 0.17345720708 0.16971251247 0.17004718717 0.16931606295 
0.16689852522 0.16678632234 0.16649151719 0.15935341647 0.16017524482 0.16715154997 0.18211294531 0.16067848647 0.16245070786 
0.16223416044 0.16389225064 0.1675699229 0.16811719206 0.16652212727 0.16661890202 0.1663946021 0.16830684069 0.1671456873 
0.16528316731 0.16513546651 0.16513418361 0.15894324409 0.15932972461 0.16537859542 0.17238428332 0.16461974578 0.16463185608 
0.16493747862 0.16535655995 0.16538987817 0.16722814076 0.16729230919 0.16716341491 0.16720749658 0.16555882764 0.16551087372 
0.165343247 0.17044102865 0.17035165203 0.1669394714 0.16698566942 0.16642135555 0.17092004423 0.17110995887 0.171279458 
0.16570512021 0.16561375488 0.1661731535 0.16714867745 0.16703467649 0.16693719723 0.16680453031 0.17224898948 0.17173016402 
0.14131433323 0.13960096405 0.16492316818 0.15417444858 0.15881229762 0.15628854371 0.16656696449 0.16665840078 0.16651686426 
0.1666001778 0.14519598196 0.14749279771 0.14779148196 0.16546098348 0.16553346421 0.16536460683 0.16688977953 0.15666611658 
0.15482966741 0.15692304494 0.16362276134 0.16229173645 0.16226126607 0.17933155435 0.17686866984 0.16314961979 0.1671715602 
0.15840896502 0.15944645267 0.15968062657 0.15947068532 0.16096400731 0.16841816657 0.16822500108 0.16812029593 0.16997849449 
0.17122805527 0.16913579171 0.15924434358 0.16885820923 0.17339068278 0.16560251305 0.16565683609 0.16545467442 0.17015944688 
0.16971728937 0.16938764431 0.16890013969 0.16650659551 0.16615471847 0.16649406909 0.16612864697 0.15771764762 0.1700865331 
0.17047441608 0.16957630824 0.17000905609 0.16744583026 0.17021661481 0.17154706811 0.17179232388 0.1718223806 0.16693520693 
0.16715711607 0.1678610563 0.16819679156 0.17031459335 0.17029536568 0.17053845786 0.16786998978 0.16789651295 0.16770696362 
0.16670243685 0.16684000282 0.16674714975 0.16687710039 0.16953154029 0.17938977577 0.17709226244 0.15895877464 0.15842674521 
0.15760101484 0.1671079091 0.16697911615 0.16980413269 0.16933860301 0.17020659358 0.17016882685 0.1701346515 0.16212149686 
0.16310923088 0.16169427807 0.17029331893 0.16790364129 0.16783752595 0.1459863926 0.14916992383 0.14579279848 0.16781429415 
0.16768771627 0.18617881319 0.18246864949 0.18668991324 0.18263109196 0.16808258998 0.16747427926 0.16772469165 0.16705896466 
0.16595311423 0.16555191492 0.16494093092 0.13905538424 0.18402483384 0.18025709319 0.16388620751 0.16383807604 0.16421231306 
0.16506271726 0.16547132069 0.16870213574 0.17111899095 0.16757318767 0.17041899349 0.21321668356 0.21180874064 0.16663363279 
0.16092516768 0.16160275008 0.17220709058 0.17306658971 0.1710079952 0.1627981258 0.16612826014 0.16269288977 0.16683522589 
0.16738546923 0.16710331204 0.16618432267 0.16587671341 0.16629758385 0.16643117846 0.16621486986 0.16655655529 0.16790455252 
0.16762687615 0.17092476828 0.16872985954 0.16466301168 0.16217748229 0.16546161423 0.16591606465 0.1650535503 0.17088344558 
0.19944442418 0.19193448905 0.19613160026 0.16901569042 0.16950039012 0.17730614447 0.17946303796 0.18353826149 0.1468640738 
0.15176459632 0.1517543212 0.15645827984 0.16569534164 0.16553110294 0.16568386594 0.16608084162 0.16564104697 0.16346423231 
0.16293907511 0.16259597964 0.1856655272 0.18759360459 0.19338173361 0.18255619681 0.18241124735 0.18742994014 0.16431206104 
0.16422445339 0.16535667304 0.16177718791 0.17092924935 0.17109893232 0.17076563809 0.17097469888 0.13794839142 0.14288265349 
0.13099872489 0.20778830592 0.21225503243 0.20892745993 0.16841105317 0.16853418009 0.16886721775 0.19276712126 0.1949387977 
0.19160828933 0.1825632337 0.17909343561 0.18202737735 0.17907491368 0.17074932006 0.17093750977 0.17069969767 0.16746166745 
0.16732775281 0.16744292319 0.17062974989 0.17035172446 0.17067721269 0.15504676948 0.15430368503 0.15251638304 0.16665480478 
0.16668524534 0.16651452203 0.16655609725 0.16982734973 0.16934514845 0.16883835255 0.17005956368 0.16504128837 0.16872442906 
0.16163022518 0.16266511624 0.16252745357 0.17516401871 0.17296261743 0.17458996701 0.1880924287 0.15872406857 0.16487777195 
0.16600433621 0.16616070127 0.1667190208 0.16484891089 0.16803786579 0.19002761891 0.16292542573 0.16227469764 0.16194446098 
0.16809666901 0.16815295956 0.16604978948 0.16627663779 0.16591185624 0.15919137247 0.16068988795 0.16863667247 0.16648580308 
0.16647441273 0.166181903 0.18516273565 0.16437658113 0.1642319333 0.1647007176 0.16716413233 0.16685395204 0.16737317727 
0.16728345128 0.16726054654 0.15749900053 0.15942008162 0.15700152215 0.16186987279 0.16044758749 0.16110268312 0.16448505691 
0.16433294027 0.16474772667 0.16163414111 0.16012305873 0.16054889323 0.16416539293 0.16515319547 0.16537604438 0.16628866105 
0.16164336479 0.16997739793 0.17009667459 0.17040088652 0.16616113554 0.1664083434 0.16242865243 0.16199944257 0.16096909583 
0.14872555629 0.17031845108 0.17020251408 0.16476761332 0.16646385548 0.16851235922 0.16851378954 0.16700582456 0.16792707244 
0.16603259309 0.16610834519 0.17013724519 0.17097728207 0.16956630924 0.17046283849 0.16963990212 0.16879826351 0.169402234 
0.16666905862 0.16666438481 0.1699777132 0.16963244965 0.17030854345 0.16026414454 0.16223524694 0.16384413821 0.16554893555 
0.16584392944 0.16604352163 0.1697687322 0.17001063613 0.17010693101 0.17020898793 0.14977191724 0.16985434353 0.16924283436 
0.16939802402 0.1677609825 0.16779299422 0.16773336594 0.16778026286 0.15985882092 0.1608239855 0.1606718578 0.16001801254 
0.16129126097 0.16690010976 0.16699551344 0.1628220438 0.1440163401 0.16305702256 0.16241423338 0.15961285735 0.17262216153 
0.14871560536 0.14612467471 0.16635513004 0.16692499067 0.16570707403 0.1395745298 0.17005935223 0.16994464053 0.16843946215 
0.16972659806 0.17102942839 0.17015610196 0.17072016189 0.17068056878 0.17130415576 0.14380825883 0.16265617841 0.18140101462 
0.17643180489 0.14975424954 0.158906879 0.17967851778 0.17818759696 0.18044103617 0.17299176753 0.17175112126 0.17215413883 
0.13692011777 0.16716826199 0.1421681194 0.17883805792 0.17474802588 0.13569929953 0.17539444635 0.17765432154 0.17494560693 
0.1773584382 0.17308317333 0.16677809364 0.16662688989 0.16701465195 0.16658730676 0.16722406964 0.17258023744 0.17006980353 
0.17077869056 0.13054648708 0.16669389769 0.16693612188 0.16686178548 0.16834503716 0.16849678945 0.16807590701 0.167394486 
0.16733502117 0.1672261846 0.15514678812 0.16062053955 0.16718463309 0.16685928455 0.16673509398 0.20216311282 0.1880506684 
0.20873826629 0.16676816271 0.16695159608 0.16762046458 0.16735578798 0.16541241501 0.16540092533 0.17111656317 0.17098871097 
0.17104524626 0.17090272967 0.13939600939 0.1669059971 0.1647729921 0.16446126243 0.16559914601 0.17122536302 0.17136465033 
0.1718306889 0.17155721194 0.16773221126 0.167659033 0.16615648167 0.16722576015 0.16808881082 0.17087464369 0.17059409171 
0.17115695051 0.16839273696 0.16802686217 0.16488348693 0.16476591841 0.16849231741 0.16884460743 0.16685674708 0.16969266695 
0.1692410386 0.16978384003 0.1673331609 0.16725287651 0.16489815963 0.16616440886 0.16419305119 0.21324457566 0.20003366695 
0.19404565533 0.17643734023 0.1815548876 0.1779468004 0.17675579805 0.17506527817 0.17818428709 0.16664410971 0.16683203649 
0.16671653881 0.17166945174 0.16931682046 0.16887058372 0.1718155873 0.16703759959 0.16696251587 0.16715294282 0.16709568778 
0.1661832961 0.16755003792 0.16639875182 0.16633357984 0.169693131 0.16973373059 0.1701280666 0.16934189237 0.16934287815 
0.17229307743 0.17322335983 0.17192025755 0.16491741356 0.1646873489 0.16462930648 0.17033373586 0.16349720135 0.1634574259 
0.1644864496 0.16545732288 0.16565619777 0.16647041745 0.1650075286 0.16567687909 0.16653397482 0.16715495834 0.16402318132 
0.17156260744 0.17363943008 0.17295171144 0.17484578553 0.16499034845 0.1647509415 0.16491157372 0.16466752162 0.16344389755 
0.16351513568 0.16220876898 0.1673036931 0.16449369966 0.16547006088 0.1659734764 0.1656430941 0.16578055996 0.16571030346 
0.1580026144 0.15175922256 0.15723223315 0.15530082201 0.16452708758 0.16431848704 0.16423426941 0.16552753314 0.16545848964 
0.16793577892 0.16694125942 0.16817191436 0.16724034506 0.16646422423 0.16565512282 0.16931607539 0.17181102587 0.1704825889 
0.17100089964 0.16885413869 0.16839697686 0.16830089488 0.16132623927 0.16169455326 0.17448654979 0.17356240434 0.16994913533 
0.17036547512 0.16449851492 0.16574006937 0.16417062348 0.17584105645 0.17645469699 0.17446849731 0.17442150504 0.16664080131 
0.16695347315 0.16675892872 0.16706066943 0.15987220725 0.15702648103 0.15825016077 0.16733735896 0.16653680986 0.17627598587 
0.1747391616 0.17379062427 0.17078484225 0.17211577069 0.17514563206 0.17041311046 0.170516209 0.16704589894 0.16698769207 
0.16393887223 0.16443674901 0.16467784643 0.1651404911 0.16601185114 0.16791622936 0.16422252936 0.16657105906 0.16725272429 
0.16729522523 0.1700189218 0.16706678263 0.16683254852 0.16776369836 0.15858003116 0.16076746475 0.16086716457 0.16537797771 
0.16399101644 0.16663870718 0.14634824683 0.1549698596 0.14821660731 0.16371857882 0.16721812581 0.16509105011 0.16189359895 
0.16058492355 0.16463627387 0.16489045956 0.16475531531 0.16499209709 0.16376305268 0.16518993116 0.16489688945 0.16496214509 
0.16466396036 0.17277598307 0.16612388897 0.16594452156 0.16604320673 0.16587787768 0.16516240694 0.16511003178 0.16504982152 
0.16553947306 0.16517809369 0.16561359649 0.1675925907 0.16584038235 0.17005173771 0.16400165864 0.16553843271 0.16980750269 
0.16894612774 0.16943042324 0.16980656537 0.17600568106 0.17898818468 0.17013330473 0.17014297297 0.16195739016 0.1603016071 
0.159490354 0.16085194945 0.16058046675 0.15806665838 0.14183992258 0.17465624182 0.17560803338 0.17706854714 0.16128647879 
0.1585954402 0.15737300045 0.1740525605 0.16734285357 0.16832386331 0.16719333311 0.16813561156 0.16648052131 0.16720004298 
0.1636866019 0.16255034031 0.16394274761 0.16559167481 0.16571301108 0.1657294074 0.16951083475 0.17033446988 0.16871864132 
0.16882494115 0.16730895561 0.16831444095 0.1674585329 0.16969076648 0.16840823426 0.16655431379 0.16264553196 0.17988544048 
0.17270670005 0.16266967297 0.17256942295 0.16504992669 0.16700102316 0.16548912494 0.16721487445 0.16599557139 0.16592348192 
0.1659788907 0.16378264792 0.16159157084 0.16621157552 0.16623463069 0.16720428238 0.16787708082 0.16913882894 0.16738874936 
0.16742141797 0.17224164028 0.16755825206 0.16864429128 0.16834388888 0.16857826123 0.16878213731 0.16807698407 0.16823915078 
0.17002837092 0.17003340535 0.15913876469 0.16762843255 0.16770720496 0.16754324869 0.18575052088 0.18220127029 0.18865953267 
0.14641080724 0.17184399406 0.17109758935 0.17061886896 0.1617467065 0.16119611296 0.16228790344 0.17194808935 0.16623412579 
0.17067776096 0.16557625723 0.16506673306 0.16421879603 0.15664914303 0.16832829498 0.16895303636 0.16880356394 0.17921765525 
0.18339779523 0.17837972503 0.18246162594 0.16806321699 0.17059765579 0.16982928618 0.17086530466 0.16489934442 0.16618093313 
0.16448047498 0.16550536195 0.1663870024 0.16872993306 0.16923383044 0.16939488015 0.16761814896 0.16719489474 0.167088595 
0.16484550321 0.16538350925 0.16505163256 0.16208167121 0.17125378444 0.17242671992 0.17095821952 0.17216870343 0.16079774086 
0.17024928918 0.16995663625 0.17057586751 0.16752694454 0.1677294525 0.15809381114 0.16427930471 0.16398237803 0.1643667173 
0.15878740026 0.16987730295 0.169829111 0.17034566531 0.1735707047 0.17390798317 0.16195239102 0.15973187054 0.16970671653 
0.16792700878 0.16772347688 0.16751304499 0.14317509724 0.1448219789 0.14491386187 0.169437629 0.16909551118 0.13912372621 
0.14279820917 0.14413355718 0.17401950593 0.1682135326 0.16961901022 0.16126723922 0.16602545662 0.16632791582 0.16791736347 
0.16317942129 0.17245609158 0.17136291374 0.16963381748 0.16738476102 0.15924562473 0.16307351238 0.16350581671 0.15812275684 
0.15941382482 0.16019682091 0.16116691286 0.13330683541 0.16902237626 0.16959231652 0.16960550475 0.17012891833 0.17048002853 
0.1603156177 0.1604991101 0.1612327754 0.17066556689 0.17053506673 0.17071351921 0.18265744799 0.16148616668 0.15875310889 
0.16145081484 0.16805793416 0.16827079667 0.16716079179 0.16746437983 0.16997735375 0.16963527001 0.16497560091 0.1652771043 
0.16546061114 0.15478048559 0.1522872362 0.15208623042 0.16830911114 0.16858272507 0.16902338849 0.16781888257 0.16394902844 
0.16504866359 0.16760061651 0.16586827957 0.16570931039 0.1656448476 0.15668553889 0.158999636 0.15602466078 0.16989236994 
0.16505486889 0.14873278098 0.15104445232 0.16975627808 0.1661861564 0.16579773338 0.16581300804 0.16811935038 0.16783622181 
0.16822842965 0.17011159966 0.16976532515 0.17012125273 0.1662398485 0.16855804563 0.16604591082 0.16600380951 0.17232597472 
0.17187108269 0.16677443146 0.16682013982 0.15733034592 0.15871146326 0.15947050081 0.16744139734 0.16747856998 0.16780413818 
0.16568811472 0.16775739062 0.16755432669 0.16778996202 0.17264810268 0.17259471956 0.16645425418 0.16652578299 0.16644867031 
0.16541037848 0.16600717951 0.16604116333 0.16435513026 0.16426131921 0.16390465274 0.16892353963 0.16945056331 0.16555129645 
0.17089802906 0.1715836539 0.1710201018 0.16884902231 0.18649069174 0.20083527958 0.19424547637 0.19129814911 0.18549492255 
0.18794047896 0.16671110637 0.1673373884 0.16725765517 0.15885554624 0.15807467005 0.1595535142 0.16504929187 0.16632121155 
0.1669552277 0.16003967711 0.1594263409 0.16064060826 0.15873201266 0.15627658466 0.15922415617 0.15762855012 0.17398994562 
0.17931134154 0.16376483177 0.16316200513 0.1628505202 0.16215709871 0.23165605362 0.24140179883 0.2155892626 0.20049090338 
0.1696798383 0.16851005627 0.16798254094 0.16804930727 0.16733717933 0.16755979586 0.1675349864 0.16522843135 0.16370109762 
0.16733828494 0.16457129213 0.16455449282 0.16518367186 0.15821466688 0.1716126218 0.16727929682 0.16738695536 0.15329809427 
0.15700416815 0.15647591325 0.16692837505 0.16687788728 0.1666724925 0.16662861113 0.16657432328 0.16665778423 0.16661061613 
0.16648013642 0.16655420545 0.16256078467 0.16171064835 0.16218498765 0.16577199713 0.16661506972 0.16359781766 0.16487431898 
0.16225831762 0.16672850826 0.16664374954 0.16290519373 0.16342947799 0.14861571138 0.16709202063 0.16728192643 0.1666764295 
0.13996309587 0.13663764665 0.16567204446 0.16596394027 0.16948673928 0.17045506624 0.17328325671 0.16659609132 0.16732385783 
0.16666747593 0.16714026752 0.16717073994 0.16709180885 0.16697347966 0.16622490011 0.13687654477 0.14124973112 0.16294599873 
0.21531714001 0.1626661211 0.1586167033 0.15853252403 0.16816037427 0.16775774119 0.16914750546 0.16950160685 0.16835647331 
0.21180294153 0.17436314473 0.1829648908 0.167105046 0.16718874606 0.14156670689 0.15164335915 0.14938605565 0.16111598811 
0.16009430301 0.16139820755 0.19757803386 0.1669899233 0.16018147832 0.18359282988 0.16505616475 0.16433170091 0.16492129702 
0.15765305113 0.16043773161 0.18302056214 0.18706548867 0.16935564773 0.16998811768 0.16959783065 0.16967046546 0.16887924579 
0.16703503351 0.16696381198 0.16716084204 0.1586322884 0.16737724321 0.16720229305 0.16713494 0.16867475809 0.16810226429 
0.16780618124 0.16791959561 0.17008114472 0.16926091041 0.17237491382 0.16666238204 0.16667350528 0.14004248512 0.16239699931 
0.17123846908 0.17196194761 0.16691531458 0.16677054266 0.17109389613 0.16597444301 0.16174650684 0.16254487953 0.16229798476 
0.16716176302 0.16719917883 0.16683728579 0.16688105769 0.1400314711 0.14299542259 0.14685003489 0.16536959845 0.20240405894 
0.2154323483 0.20277102094 0.16600867051 0.16768731324 0.16750667179 0.16744233876 0.15932428032 0.16851858244 0.16860369188 
0.16748295369 0.16752355468 0.16691769147 0.16721401604 0.16639377537 0.16629908963 0.17157541716 0.17230147575 0.16641123983 
0.14605607631 0.1493724621 0.14230605953 0.16015168386 0.16111849953 0.16735121819 0.17106995404 0.13053062402 0.12112711199 
0.14050178208 0.1316494193 0.19210507535 0.19254464814 0.17060779761 0.16370262959 0.1675342775 0.16785894255 0.19782074315 
0.20152836151 0.1973289255 0.20334329008 0.19495711619 0.16638865618 0.16624900469 0.17066118801 0.17034890807 0.17062171015 
0.18219273394 0.17712186109 0.16549234112 0.1738995683 0.17267151497 0.16847269885 0.16567530035 0.16548496641 0.16534664373 
0.19218111586 0.16895128278 0.17127644948 0.17129700754 0.17162156796 0.17033884696 0.16289171357 0.1633273474 0.1778120966 
0.16906736523 0.17254891931 0.16620247518 0.1193131247 0.15282824203 0.16357229506 0.16043175866 0.1597145606 0.16791525844 
0.16650449335 0.17286974128 0.17354807265 0.17504432336 0.16932282788 0.17661642109 0.17662213487 0.16131821252 0.14693699996 
0.14909859789 0.17280852688 0.2052198946 0.20203542208 0.18509016449 0.16185360626 0.17392184037 0.16046108979 0.17379030271 
0.19373610439 0.17456116045 0.17542530444 0.17875546122 0.16598055213 0.16596134992 0.16600941626 0.16982094063 0.16198596949 
0.16683983387 0.16691741609 0.16720419202 0.16666304527 0.16671712844 0.18551463016 0.17639221255 0.17649823949 0.16971240628 
0.177609904 0.19155384695 0.16644297369 0.16634349717 0.16558765218 0.16649732046 0.16577628764 0.16560523314 0.16652433349 
0.16701111733 0.16590965348 0.1692204308 0.16881846434 0.17015353413 0.1631269528 0.16018479065 0.15756168856 0.17001292891 
0.16983835601 0.16467325308 0.16383368985 0.16406260811 0.16771299109 0.16772835063 0.16776956189 0.1625172622 0.163586382 
0.16369597847 0.16262737298 0.16580609362 0.16538504272 0.16514792083 0.1659138147 0.16678387447 0.16615738681 0.16627522747 
0.16434497068 0.16779625646 0.16764728079 0.16750235447 0.16764968029 0.1681693991 0.15156857427 0.16764519463 0.27433500028 
0.14278162052 0.16800561262 0.16758889954 0.16741981565 0.16749444766 0.16753031595 0.16441444171 0.18476302228 0.16396177595 
0.14117602185 0.15623385306 0.15701105082 0.16106587276 0.16178978406 0.15856846707 0.15966794548 0.16847707102 0.16588490878 
0.16580492811 0.16025756365 0.15917617609 0.16703409285 0.1666702236 0.16016402622 0.1704800515 0.1667396675 0.16756571694 
0.1693669473 0.17452315252 0.17817887142 0.17680538913 0.15407617626 0.16517230387 0.16670212246 0.16683033909 0.16512619744 
0.16796075417 0.16808210601 0.13193635956 0.16415906695 0.16337655564 0.16323639254 0.16639734349 0.17117338801 0.1615199767 
0.1603219881 0.16152742423 0.16223344194 0.16476605886 0.16604058802 0.17051489109 0.16642154736 0.16631941254 0.17311306743 
0.17240696976 0.18660627388 0.17122034922 0.17151911956 0.16542147493 0.17232505383 0.12990604086 0.17129758059 0.16943833505 
0.16429291508 0.16710700352 0.16792126864 0.16772404482 0.16111972155 0.16604102835 0.16697326287 0.166480747 0.16876102464 
0.16931003161 0.17157973662 0.17759786302 0.18968172689 0.16586041436 0.16803077039 0.1673878798 0.16610768049 0.16638996344 
0.16625861285 0.17003890855 0.17022398854 0.16929469916 0.16781644285 0.16772117874 0.16780391332 0.16724407643 0.16696647704 
0.15454963358 0.14898917294 0.14712860194 0.16782860563 0.16266993875 0.16638316759 0.16579132057 0.15898190032 0.16319322244 
0.16358941028 0.16293312545 0.16926132036 0.16828584095 0.16885079328 0.16774537075 0.16559702265 0.16572129625 0.16356652144 
0.16141059056 0.14751856297 0.14416973103 0.14641824048 0.16789339872 0.16729163498 0.17574872452 0.14086504206 0.14867185068 
0.15225191766 0.1559930977 0.14980942124 0.15033584593 0.1752151342 0.16224156906 0.17007730506 0.17009288969 0.17041414027 
0.17066763318 0.14256470705 0.14445027808 0.16830139694 0.16770091872 0.17065615456 0.17198872901 0.18570661981 0.16939609164 
0.1670602111 0.16486382377 0.16295084257 0.17008336846 0.17085913446 0.16624557306 0.16634635645 0.16620420219 0.17023880795 
0.15697043607 0.15392604994 0.17048460286 0.17005766386 0.1701714075 0.16983568948 0.16979312162 0.16846087607 0.16449231337 
0.16502517337 0.16621854229 0.16629513918 0.16671197132 0.21875806631 0.16501129637 0.16474638621 0.16550662335 0.16592635076 
0.16675685114 0.16640702081 0.16704581653 0.17185604684 0.16702924478 0.16668430195 0.1626771256 0.16866019965 0.16637970623 
0.16651986618 0.16608768478 0.16555906529 0.16653314008 0.16331757172 0.16304572761 0.16117042745 0.16712082616 0.1669955202 
0.16499380507 0.1845032901 0.16397351786 0.16573492065 0.16541375877 0.1678989277 0.15450419986 0.15880876451 0.16215398178 
0.16902322876 0.16800644111 0.1665567872 0.16357759049 0.16331357305 0.16616932702 0.16852646964 0.16660082045 0.16969281015 
0.16212819167 0.16051164058 0.15787765097 0.20162643735 0.2113809132 0.16788427793 0.16785828274 0.16766829174 0.16764769053 
0.16747290082 0.16906207196 0.17136203179 0.16302413236 0.17087897779 0.17086883001 0.17117719733 0.16592921327 0.16604062502 
0.17033661011 0.1697784998 0.1697970985 0.16908767429 0.16640914929 0.16633667542 0.17038893128 0.17069798426 0.16616830993 
0.16899225419 0.16665563181 0.14308108099 0.13479607533 0.1419053765 0.16736667653 0.17908217757 0.17447795121 0.17715334598 
0.16699043609 0.16976928434 0.17028469623 0.16764589211 0.1634250451 0.16777336751 0.16412757137 0.17040750533 0.15817784136 
0.17019508209 0.16710559972 0.15981738082 0.1609885899 0.16571303254 0.16573891474 0.16554924945 0.16748476955 0.1674357391 
0.17156539644 0.15819539656 0.16699369961 0.16676892567 0.16922664306 0.16957573619 0.16866932239 0.16901138466 0.16833480547 
0.1687334411 0.16749316928 0.16735737823 0.17000489747 0.16943440191 0.16574059554 0.16734634617 0.16803992556 0.16803275015 
0.16643235214 0.16622253082 0.17001917286 0.17058172536 0.16460248236 0.16767817417 0.1671180506 0.16778148753 0.16797484748 
0.16569075477 0.16592316816 0.16595501725 0.16590715281 0.15494877082 0.16721165914 0.15644155445 0.16611437439 0.16164494777 
0.16073851026 0.20818916348 0.1885935354 0.15710323998 0.16831392646 0.16585609082 0.16598527227 0.16932412356 0.15563051847 
0.16478270698 0.16108771139 0.16729722458 0.16534221932 0.16758180527 0.15972413846 0.1594558724 0.16730738605 0.16982094849 
0.16942907835 0.16584865956 0.16581479044 0.16682356624 0.16690476091 0.16681653633 0.15237448765 0.14910412743 0.14144777065 
0.14845317347 0.17688389327 0.19643076191 0.16684356098 0.16692360684 0.19275388285 0.19689557733 0.16735458165 0.16607758756 
0.1653388043 0.16699029168 0.17020257491 0.17174319646 0.16390672684 0.15856793557 0.1607032772 0.163668185 0.16566897501 
0.15951299494 0.16772467074 0.16764882748 0.16762659587 0.16972194544 0.16532133704 0.16777044762 0.16705757457 0.16640672753 
0.15674593612 0.16309846044 0.16755881966 0.16751701557 0.10427454011 0.17189178517 0.17106970427 0.16974512077 0.18205209253 
0.16661832714 0.16439637671 0.16009088995 0.16691589669 0.1675275186 0.16452537254 0.16710269475 0.16715826089 0.16430772572 
0.17051645081 0.16479660427 0.17174334978 0.165403806 0.16451834843 0.16451252 0.16971150369 0.16975318692 0.16472360872 
0.16368256203 0.169583289 0.16936508638 0.16969149794 0.16949987067 0.15515247511 0.16486530972 0.16514324056 0.16741404748 
0.16746759427 0.16496481709 0.16520543613 0.16508656134 0.16488015777 0.16666890234 0.16789115541 0.16106428511 0.16576974496 
0.16595128075 0.16627416066 0.1634857604 0.15963980659 0.14460488388 0.16667576676 0.16659696784 0.1665262838 0.17190783102 
0.16606427278 0.16403162331 0.16399446511 0.16296271464 0.16790981864 0.16656433173 0.16926178268 0.16678094829 0.16687666194 
0.1668716402 0.16656847888 0.16674542554 0.1652572143 0.16478285976 0.16585533511 0.16589562428 0.16595375728 0.16538022892 
0.16515471553 0.16373776146 0.15932599577 0.15901977439 0.16867815412 0.17532534715 0.16460669276 0.18483500968 0.18260356424 
0.1676259708 0.16731047983 0.16666628812 0.14725762086 0.21399349833 0.16302036812 0.1677501865 0.17332998188 0.17173533864 
0.1804000351 0.18474590839 0.18557407388 0.17338821465 0.15683113427 0.1188518691 0.16722475024 0.16000372091 0.16713375642 
0.15230377994 0.14629392196 0.15289380056 0.16377870508 0.16426715813 0.16374283708 0.16764630944 0.16816990679 0.16796021966 
0.16999680542 0.16753545875 0.16740007318 0.16774839047 0.16681147314 0.16703725159 0.1744529149 0.18950630065 0.16711437622 
0.16723449486 0.16578430075 0.16715371723 0.1779072539 0.17601738804 0.16602040608 0.14381142868 0.13553446157 0.16650619706 
0.16454162768 0.16622247462 0.19066951765 0.17266269053 0.16235040628 0.16655029151 0.17930588826 0.16915234608 0.16585910719 
0.16628728219 0.16274186705 0.16490998118 0.16100670851 0.1635749925 0.16569042211 0.16630200895 0.1633038607 0.16613235049 
0.16484874171 0.17412123688 0.17363511467 0.17261796155 0.16716204029 0.16739344288 0.1670183394 0.16024745537 0.16598747243 
0.16523535597 0.16552107193 0.15619367156 0.15426335568 0.15688579944 0.16897806244 0.16590132421 0.16607497612 0.16954774774 
0.16627554795 0.16568000297 0.16347766497 0.16581806459 0.16584291104 0.1668143233 0.16604313792 0.16581199842 0.16628161376 
0.16648159852 0.15502672522 0.16597596021 0.16280202987 0.16379142809 0.14919651947 0.15245012713 0.14499121521 0.16760867495 
0.16841244875 0.13948579335 0.16818648615 0.15377565204 0.15624229854 0.16651278681 0.16635452657 0.16012833027 0.16136876695 
0.16115909702 0.16109300716 0.16252142472 0.16554428736 0.16719302518 0.17448173617 0.1768869395 0.1751161528 0.16594686086 
0.16589305872 0.16595412421 0.19410600708 0.18831072337 0.18833358325 0.18317587706 0.17927612409 0.20325079381 0.15926034594 
0.16702754613 0.1752464296 0.16657965951 0.1696645952 0.16323576091 0.16684126985 0.16649879717 0.16666724561 0.17069623671 
0.16497836945 0.16409143824 0.16493445258 0.16417457097 0.17102105473 0.17035339524 0.16972557726 0.16969375677 0.16919430025 
0.18599339201 0.18623916113 0.16705662569 0.1647582608 0.16759826651 0.16367173548 0.16974745821 0.16879449777 0.16795977131 
0.16677725626 0.16667255199 0.1673166046 0.16241869497 0.16773760435 0.16539755506 0.16677162281 0.16378917567 0.16704313888 
0.16674023522 0.16721601709 0.16741031724 0.16217780246 0.16943561071 0.16969419578 0.1710582523 0.15666762051 0.15673987468 
0.16484131457 0.1694372787 0.16580202336 0.1646790602 0.15797261652 0.16773433284 0.16754315172 0.16632795083 0.16623636792 
0.16788883168 0.16772032444 0.16750184036 0.17092755706 0.1697290458 0.16945939653 0.16957115548 0.16932004015 0.16640696822 
0.18568600572 0.1808214577 0.17461062698 0.16743375613 0.16849842569 0.16797929246 0.16758514699 0.16715433873 0.16679820715 
0.16660474358 0.16651412461 0.16692293033 0.16701781059 0.16704103686 0.16687053641 0.1661488797 0.16623183308 0.16867204381 
0.16493287713 0.16967096893 0.16607669157 0.16605886276 0.16610291561 0.15568588234 0.15204221677 0.14665283213 0.1584638024 
0.16823457805 0.18502949184 0.16615168607 0.16644835473 0.16513145987 0.16617629782 0.17169990689 0.16988618129 0.16164946045 
0.1227443096 0.13206859034 0.17833115926 0.2012574551 0.15776032265 0.15930029613 0.17234315109 0.17274647876 0.14749553463 
0.14261804561 0.14710866197 0.15341725678 0.1895372695 0.16726643592 0.16698263509 0.17019901909 0.17051999338 0.17011850121 
0.16678368552 0.17092061947 0.15358222156 0.16124661852 0.1587430274 0.15733157531 0.16060144924 0.16649684557 0.16680176994 
0.16620467056 0.16529029469 0.16708500689 0.16209443049 0.16615651619 0.16078257402 0.1673902674 0.16796486791 0.19197459609 
0.1636707215 0.16405550003 0.15951577985 0.16046902773 0.16359750497 0.16535384858 0.17343628954 0.16764296525 0.16773762382 
0.15874852361 0.16770820848 0.16737964174 0.17051760362 0.17056725894 0.16950930828 0.17275712613 0.17365784543 0.15395808928 
0.16870337456 0.16336839207 0.16885683612 0.15861124603 0.17262321635 0.16649406119 0.16603833799 0.16667651892 0.16650132643 
0.16519326472 0.16629569749 0.16253123196 0.1797194389 0.15194024851 0.18186137996 0.16364356133 0.16401536322 0.1637278259 
0.16605961068 0.16604415238 0.16377644298 0.16225490481 0.15544023057 0.15550328906 0.16304081679 0.16902377611 0.16950539527 
0.17475566416 0.17030009991 0.17546044765 0.1678514395 0.16328479356 0.14998860013 0.16688770711 0.1536962554 0.16183949534 
0.19267131167 0.16640808987 0.16393290509 0.16435677768 0.16512304303 0.16091051649 0.16289246043 0.162228656 0.14021609166 
0.1698186542 0.15755367333 0.14751972457 0.15139738741 0.15248107316 0.16957718993 0.17320209243 0.16529047384 0.17067738287 
0.14398067593 0.15679052163 0.16803750559 0.17070308651 0.16572587614 0.16583036585 0.16583750996 0.17397268372 0.1688194746 
0.16933396713 0.17321417417 0.17133305364 0.17152590191 0.16830808674 0.1510112099 0.16163103291 0.16863859608 0.17073311828 
0.17943438232 0.16916869563 0.17075758648 0.16366758937 0.16578061996 0.16582525354 0.17497875865 0.16982430484 0.16939864364 
0.17070654791 0.18177450262 0.16471598043 0.16482105434 0.17706603269 0.15644260697 0.15414586808 0.16514159796 0.15813538939 
0.1663125739 0.17148446967 0.16744701605 0.16752421723 0.16754959504 0.16450938003 0.16538037884 0.16535622126 0.16629383411 
0.16351549979 0.16319126367 0.17158468305 0.16701481099 0.16705665854 0.16508544919 0.16667634048 0.16870212255 0.16455482333 
0.16141214532 0.16258134572 0.1639007217 0.16408615446 0.16122754956 0.17400232935 0.15946282877 0.16733761873 0.16630155043 
0.1496034348 0.16684373492 0.16641851866 0.15633452338 0.17016683106 0.15560962523 0.16074056345 0.16686475114 0.16624426233 
0.16446024611 0.16791359923 0.16810205126 0.1649542612 0.17168737364 0.15785097112 0.16726940718 0.16732025167 0.15955751562 
0.16848200867 0.16881891664 0.169148727 0.16921858516 0.16930838108 0.16748603525 0.16318074327 0.17113107284 0.17193633074 
0.18198722389 0.1790933674 0.16632094352 0.17196071479 0.16416378531 0.16608216516 0.13699151648 0.17182731913 0.17039404396 
0.1674958396 0.11063938828 0.13397271379 0.14799159109 0.17111455916 0.16778209625 0.16645427304 0.20084026913 0.21017973595 
0.1666229213 0.16670944273 0.18306102966 0.16705950718 0.16738543405 0.1501673565 0.16725864033 0.19558488692 0.19070576796 
0.1675405034 0.16669998225 0.16159944116 0.16190865488 0.16565648155 0.16541688799 0.16572993237 0.16580864728 0.16559455164 
0.16557484509 0.16869663541 0.16774024883 0.16565767641 0.1666434598 0.16875728447 0.16860123322 0.166330765 0.1623810999 
0.16532958994 0.15960460482 0.16437580232 0.13727622235 0.16557812505 0.16975213953 0.16681982025 0.17076099729 0.18505437903 
0.16207778674 0.16222794699 0.16704314646 0.16281426398 0.16131269453 0.16659499785 0.16517143236 0.15875035886 0.16232835343 
0.17238428124 0.166234278 0.1609646118 0.18019979624 0.16998236746 0.16953866481 0.15490431401 0.17012399654 0.1765177883 
0.17380300964 0.16327987469 0.16596254685 0.1695393163 0.16699899537 0.16996317339 0.17095509752 0.16563962921 0.17272719385 
0.17235049774 0.16878094034 0.16931816436 0.16900870012 0.16895063354 0.16623439079 0.1642425766 0.16242224719 0.16656094351 
0.16911284646 0.16383441791 0.16399118973 0.16807714091 0.16813452578 0.16810427419 0.16578238913 0.16767463382 0.1664121423 
0.16736698993 0.16487762673 0.19296102093 0.16560410209 0.16587703818 0.17098574297 0.19686153149 0.17290560331 0.1900715894 
0.17293159577 0.173900784 0.1720993196 0.16752330614 0.16611091659 0.15989717849 0.16976204826 0.16657200451 0.16995630313 
0.16606002073 0.16765032518 0.22320819561 0.16784416023 0.14887576793 0.17705524769 0.16671722891 0.16567563611 0.16785618456 
0.18271996956 0.1362337794 0.16681325405 0.16427263187 0.16753792407 0.17431441451 0.14249925954 0.16511796159 0.18770014524 
0.19439634766 0.16649125326 0.16897040475 0.16176113099 0.18499404393 0.1675452068 0.15559787039 0.17184487847 0.15841054547 
0.16579222773 0.14474981987 0.15579658187 0.17012360208 0.16848864075 0.16279636919 0.17750583421 0.16480874288 0.15384559678 
0.16569462747 0.15724066063 0.16203541886 0.16618279551 0.15166502714 0.16716040809 0.16427418838 0.17875807492 
Strain%20xx%20component 1 9350 double
1.2618e-06 9.54479e-07 9.19839e-07 1.25169e-06 -0.133314 -0.133307 -0.133328 -0.133331 -0.0952776 
-0.15179 -0.0598465 -0.0470096 -0.17225 -0.136839 -0.0637533 -0.0548769 -0.00359016 0.000645616 
0.000275417 -0.000918957 -0.00130143 -0.000810212 -0.000680334 -0.000730375 -0.000779401 -0.00114385 -0.00131322 
-0.000386309 -0.00158887 -0.00156221 -0.00190161 -0.000862235 0.000631919 -0.000264187 -0.000635773 -0.000859555 
-0.000321967 -0.0165177 -0.00737436 -0.000467914 -0.00047357 0.0042037 0.00462861 0.00419396 0.00359807 
-0.00176048 -0.001472 0.00346428 0.00385179 0.00371665 0.00261121 -0.00364408 0.00300648 0.00458684 
0.00449862 0.00228257 -0.00205226 -0.00149532 0.00386291 0.00405972 0.00614807 -4.58517e-05 -0.000270657 
-0.0125031 -0.133271 -0.133295 -0.133453 -0.133773 -0.134228 -0.134824 -0.135618 -0.136657 
-0.137833 -0.1391 -0.14051 -0.142159 -0.143523 -0.144883 -0.14596 -0.14649 -0.146636 
-0.146093 -0.145048 -0.143415 -0.141615 -0.139554 -0.137594 -0.135778 -0.134329 -0.133481 
-0.13323 -0.25565 -0.139205 -0.130184 -0.124407 -0.121454 -0.120244 -0.120116 -0.120405 
-0.121003 -0.121938 -0.122972 -0.124007 -0.125136 -0.126244 -0.127328 -0.128373 -0.129461 
-0.130388 -0.131261 -0.132084 -0.132826 -0.13342 -0.133969 -0.134351 -0.134626 -0.134799 
-0.134849 -0.13473 -0.134568 -0.134319 -0.134023 -0.13368 -0.133397 -0.133149 -0.132937 
-0.132807 -0.132762 -0.132765 -0.132833 -0.132936 -0.133056 -0.133182 -0.133282 -0.133351 
-0.133357 -0.133377 -0.133052 -0.132168 -0.130808 -0.12936 -0.128798 -0.130447 -0.131906 
-0.131205 -0.127695 -0.121771 -0.115281 -0.111634 -0.114312 -0.119325 -0.122759 -0.123658 
-0.122458 -0.120937 -0.120503 -0.123035 -0.127821 -0.137201 -0.179278 -0.118318 -0.0848464 
-0.0876696 -0.0685687 -0.0643426 -0.0598332 -0.063868 -0.0554866 -0.0530107 -0.0616159 -0.0582682 
-0.000585506 -0.0362561 -0.0529652 -0.0668031 -0.0962815 -0.109661 -0.107351 -0.147027 -0.142959 
-0.107392 -0.0927896 -0.133286 -0.133294 -0.133521 -0.134024 -0.13476 -0.135826 -0.137203 
-0.138783 -0.140402 -0.142301 -0.144098 -0.145646 -0.146506 -0.146477 -0.145677 -0.143948 
-0.141769 -0.139203 -0.136734 -0.13477 -0.133544 -0.13315 -0.1829 -0.14564 -0.127957 
-0.122811 -0.120588 -0.120227 -0.120707 -0.121617 -0.122975 -0.124249 -0.125596 -0.126984 
-0.128337 -0.12965 -0.130818 -0.131867 -0.132849 -0.133622 -0.134195 -0.134572 -0.134788 
-0.134813 -0.13467 -0.13438 -0.134001 -0.133611 -0.133276 -0.132996 -0.13282 -0.132773 
-0.132835 -0.132967 -0.133123 -0.133257 -0.133337 -0.133345 -0.133356 -0.133224 -0.132591 
-0.131485 -0.130141 -0.129075 -0.1291 -0.130764 -0.131885 -0.13037 -0.126295 -0.12082 
-0.115291 -0.111031 -0.114023 -0.120397 -0.123513 -0.123524 -0.122007 -0.120661 -0.120756 
-0.12155 -0.128445 -0.140818 -0.230995 -0.0799437 -0.0864237 -0.0743826 -0.0761446 -0.0809801 
-0.0781878 -0.066343 -0.0811763 -0.0661082 -0.0590668 -0.0267698 -0.0134449 -0.0458794 -0.0693332 
-0.0764316 -0.0797307 -0.0869308 -0.126007 -0.100854 -0.0747483 -0.116565 -0.159941 -0.133379 
-0.133513 -0.133773 -0.134112 -0.134579 -0.135183 -0.135931 -0.136796 -0.137797 -0.138901 
-0.140043 -0.141184 -0.142228 -0.143165 -0.143751 -0.144056 -0.143913 -0.143341 -0.142384 
-0.141122 -0.139611 -0.138073 -0.136632 -0.135359 -0.134395 -0.133629 -0.144656 -0.138802 
-0.133258 -0.128933 -0.126565 -0.125127 -0.124672 -0.124683 -0.124788 -0.125242 -0.125915 
-0.126575 -0.127329 -0.128118 -0.128888 -0.129655 -0.130422 -0.131139 -0.131839 -0.132448 
-0.132961 -0.133425 -0.133788 -0.134064 -0.134248 -0.134316 -0.134305 -0.134188 -0.134025 
-0.133801 -0.133576 -0.133321 -0.133104 -0.132923 -0.132808 -0.132727 -0.132728 -0.132771 
-0.132861 -0.132962 -0.133088 -0.133204 -0.133288 -0.133341 -0.132696 -0.131699 -0.130271 
-0.128571 -0.127752 -0.12885 -0.129325 -0.126653 -0.121906 -0.118589 -0.113921 -0.115914 
-0.124001 -0.127421 -0.12816 -0.127535 -0.126778 -0.126624 -0.127738 -0.129359 -0.136083 
-0.145757 -0.0681302 -0.0395767 -0.0297217 -0.0210127 -0.019027 -0.017303 -0.0169081 -0.0148384 
-0.0151196 -0.0137035 -0.0127831 -0.013176 -0.0159328 -0.0136592 -0.013107 -0.013651 -0.0147438 
-0.0161326 -0.0164557 -0.0202178 -0.0192502 -0.0230426 -0.0209927 -0.0322439 -0.0527439 -0.203234 
-0.160672 -0.16033 -0.138434 -0.129574 -0.122814 -0.117849 -0.115031 -0.110407 -0.114204 
-0.099949 -0.0909811 -0.155841 -0.127456 -0.0812709 -0.0811206 -0.0967745 -0.115422 -0.132881 
-0.145628 -0.164723 -0.178584 -0.178797 -0.177462 -0.152824 -0.133199 -0.102252 -0.132977 
-0.112063 -0.0995775 -0.0896073 -0.156592 -0.133638 -0.13388 -0.134195 -0.134592 -0.135103 
-0.135732 -0.136511 -0.137333 -0.138262 -0.139231 -0.140173 -0.141003 -0.14172 -0.142143 
-0.142304 -0.142049 -0.141338 -0.140394 -0.139321 -0.138027 -0.136828 -0.135725 -0.134801 
-0.133075 -0.122896 -0.126955 -0.127553 -0.127427 -0.127168 -0.127048 -0.127142 -0.127363 
-0.127723 -0.128138 -0.128632 -0.12917 -0.129722 -0.130306 -0.130897 -0.131449 -0.131991 
-0.132482 -0.13293 -0.133318 -0.133667 -0.133921 -0.134094 -0.134169 -0.134164 -0.13406 
-0.133889 -0.133648 -0.133396 -0.133141 -0.132903 -0.132703 -0.132561 -0.132469 -0.132465 
-0.132538 -0.132652 -0.132818 -0.132989 -0.133159 -0.133313 -0.133435 -0.100818 -0.112238 
-0.131249 -0.128753 -0.12539 -0.126503 -0.13115 -0.129877 -0.122565 -0.129865 -0.136211 
-0.13584 -0.133484 -0.131082 -0.128882 -0.126464 -0.121547 -0.110468 -0.121155 -0.163131 
-0.0699459 -0.0542995 -0.0448647 -0.0407458 -0.0365392 -0.0310771 -0.0296446 -0.0310819 -0.0304663 
-0.0297411 -0.0290956 -0.0288895 -0.0295416 -0.0303161 -0.0318435 -0.0327331 -0.0330796 -0.0365428 
-0.0437853 -0.0493307 -0.0541601 -0.0682924 -0.140632 -0.140149 -0.137444 -0.13189 -0.12608 
-0.120983 -0.119364 -0.114233 -0.113944 -0.117314 -0.166103 -0.139178 -0.11425 -0.164501 
-0.133772 -0.149922 -0.153228 -0.148939 -0.142773 -0.121967 -0.111657 -0.127683 -0.158229 
-0.159671 -0.130217 -0.1593 -0.11839 -0.112324 -0.155774 -0.0997626 -0.133754 -0.133964 
-0.134238 -0.134585 -0.135069 -0.135772 -0.136552 -0.13739 -0.138332 -0.139144 -0.139892 
-0.140649 -0.14109 -0.141114 -0.140636 -0.139832 -0.138841 -0.137703 -0.136564 -0.135662 
-0.130609 -0.133531 -0.119322 -0.123628 -0.125329 -0.126728 -0.127646 -0.128211 -0.128788 
-0.129318 -0.129783 -0.130224 -0.130661 -0.131116 -0.131563 -0.132032 -0.132458 -0.132874 
-0.133257 -0.13357 -0.133865 -0.134109 -0.134278 -0.134361 -0.134325 -0.134199 -0.13397 
-0.133665 -0.133294 -0.132943 -0.132599 -0.13231 -0.132101 -0.131995 -0.131979 -0.132083 
-0.132271 -0.132522 -0.132807 -0.133087 -0.133297 -0.132989 -0.131513 -0.126261 -0.146746 
-0.112603 -0.0937857 -0.130489 -0.124811 -0.116502 -0.105037 -0.12801 -0.128945 -0.137799 
-0.138524 -0.0859971 -0.0673837 -0.0644589 -0.0572484 -0.049663 -0.0475698 -0.0474191 -0.0466695 
-0.0452434 -0.0443254 -0.0439372 -0.0441079 -0.0453133 -0.0469637 -0.04901 -0.0512234 -0.0555281 
-0.0615569 -0.0702418 -0.0790728 -0.139975 -0.108896 -0.124993 -0.131022 -0.135795 -0.125222 
-0.144513 -0.150344 -0.122127 -0.133454 -0.152988 -0.152614 -0.126449 -0.146037 -0.152276 
-0.135359 -0.139861 -0.134573 -0.156088 -0.125938 -0.124702 -0.121743 -0.123931 -0.150522 
-0.111076 -0.143659 -0.111402 -0.133756 -0.133415 -0.133448 -0.133617 -0.133996 -0.134616 
-0.135508 -0.136393 -0.137433 -0.138028 -0.139225 -0.140198 -0.140586 -0.140423 -0.139703 
-0.138589 -0.137251 -0.13618 -0.134691 -0.131481 -0.15212 -0.124372 -0.11842 -0.122013 
-0.124904 -0.126894 -0.128282 -0.129375 -0.130267 -0.130902 -0.131438 -0.131919 -0.132368 
-0.132763 -0.133104 -0.133462 -0.133786 -0.134089 -0.134347 -0.134578 -0.134741 -0.134836 
-0.134793 -0.134627 -0.134326 -0.133892 -0.133352 -0.132799 -0.132274 -0.131824 -0.131532 
-0.131319 -0.131205 -0.131348 -0.131654 -0.132033 -0.132507 -0.132974 -0.127045 -0.143714 
-0.142204 -0.132813 -0.139388 -0.0880608 -0.11416 -0.100976 -0.134024 -0.132513 -0.083158 
-0.0693597 -0.064125 -0.0661131 -0.0644944 -0.0618471 -0.0601237 -0.0600753 -0.060227 -0.0604266 
-0.0619908 -0.0651978 -0.0682325 -0.072206 -0.0777409 -0.0856289 -0.0980395 -0.140858 -0.13386 
-0.13622 -0.133384 -0.13359 -0.144457 -0.133355 -0.139 -0.145682 -0.132296 -0.145328 
-0.114199 -0.150664 -0.13162 -0.138153 -0.127228 -0.145643 -0.145744 -0.135045 -0.137 
-0.132224 -0.132097 -0.132435 -0.133352 -0.134575 -0.135301 -0.137404 -0.139409 -0.140321 
-0.140577 -0.140291 -0.136813 -0.150333 -0.136075 -0.112176 -0.1182 -0.122612 -0.125521 
-0.127753 -0.129435 -0.130703 -0.131599 -0.132315 -0.132903 -0.133336 -0.133735 -0.134089 
-0.134419 -0.134712 -0.134959 -0.135193 -0.135374 -0.135518 -0.135501 -0.135307 -0.134957 
-0.1344 -0.133641 -0.13277 -0.131983 -0.131259 -0.130741 -0.130609 -0.130163 -0.130264 
-0.130747 -0.131343 -0.132043 -0.132782 -0.133723 -0.105049 -0.14261 -0.13832 -0.120121 
-0.112731 -0.0992762 -0.138778 -0.133925 -0.0830049 -0.0825074 -0.0802452 -0.0750277 -0.0762139 
-0.0772396 -0.0782718 -0.0756479 -0.0804859 -0.0834175 -0.08698 -0.0911909 -0.0973013 -0.137078 
-0.132487 -0.139644 -0.136554 -0.141072 -0.125133 -0.124917 -0.138864 -0.135646 -0.129837 
-0.136051 -0.14608 -0.14023 -0.135479 -0.142253 -0.118951 -0.119169 -0.144795 -0.130016 
-0.132563 -0.140121 -0.123582 -0.141036 -0.11438 -0.120109 -0.123999 -0.127008 -0.129318 
-0.130847 -0.132038 -0.133003 -0.133729 -0.134074 -0.134614 -0.135018 -0.13533 -0.135601 
-0.135811 -0.136085 -0.136325 -0.136335 -0.136172 -0.135797 -0.135173 -0.13421 -0.13287 
-0.131587 -0.130754 -0.129609 -0.129362 -0.128469 -0.12953 -0.130332 -0.131413 -0.106554 
-0.134599 -0.127587 -0.0927017 -0.0905375 -0.0951553 -0.0936201 -0.096336 -0.0990202 -0.102133 
-0.131972 -0.138381 -0.137383 -0.130728 -0.141111 -0.136908 -0.137412 -0.130572 -0.137799 
-0.142121 -0.0974362 -0.127097 -0.138652 -0.127631 -0.125944 -0.136808 -0.136968 -0.113091 
-0.135494 -0.12362 -0.110995 -0.117948 -0.122755 -0.126254 -0.128859 -0.130852 -0.132455 
-0.133728 -0.13459 -0.135248 -0.135696 -0.136088 -0.136439 -0.136593 -0.137069 -0.137254 
-0.136995 -0.136833 -0.136094 -0.135246 -0.133117 -0.13107 -0.128802 -0.127315 -0.128591 
-0.134658 -0.13915 -0.137315 -0.130085 -0.120448 -0.137864 -0.108964 -0.106228 -0.113504 
-0.108356 -0.136589 -0.136653 -0.137098 -0.136319 -0.118699 -0.134217 -0.135222 -0.135855 
-0.137275 -0.136902 -0.137953 -0.126205 -0.132599 -0.137615 -0.11665 -0.122177 -0.12524 
-0.128388 -0.130925 -0.132593 -0.13626 -0.136787 -0.137729 -0.135063 -0.135926 -0.136497 
-0.124309 -0.12966 -0.133376 -0.133582 -0.133929 -0.134422 -0.135125 -0.136044 -0.137205 
-0.138397 -0.139761 -0.141093 -0.14228 -0.14321 -0.143512 -0.143209 -0.14234 -0.140941 
-0.139251 -0.137454 -0.135855 -0.134578 -0.133693 -0.109297 -0.136306 -0.130746 -0.127301 
-0.125542 -0.124899 -0.124991 -0.125561 -0.12632 -0.127048 -0.127938 -0.128919 -0.129877 
-0.130741 -0.131636 -0.132394 -0.133047 -0.133568 -0.13395 -0.134198 -0.134288 -0.134228 
-0.134045 -0.133785 -0.133481 -0.13318 -0.132945 -0.13278 -0.132713 -0.132746 -0.132848 
-0.132997 -0.133154 -0.133287 -0.133284 -0.132857 -0.132334 -0.131266 -0.129921 -0.12723 
-0.12914 -0.129108 -0.126313 -0.12171 -0.116577 -0.117369 -0.126876 -0.128769 -0.128181 
-0.127368 -0.126584 -0.126547 -0.1274 -0.130483 -0.13237 -0.123678 -0.0680863 -0.0491894 
-0.0349379 -0.0249375 -0.0210308 -0.0192203 -0.0161937 -0.0169457 -0.015423 -0.0149218 -0.0152235 
-0.0163592 -0.016527 -0.0168529 -0.0173823 -0.0170618 -0.0216795 -0.0213427 -0.0268992 -0.0417626 
-0.240365 -0.175686 -0.161378 -0.145467 -0.130312 -0.122578 -0.118057 -0.11396 -0.110038 
-0.112575 -0.108854 -0.090348 -0.167731 -0.113301 -0.0793693 -0.0823136 -0.0982397 -0.115172 
-0.132463 -0.158512 -0.168638 -0.169146 -0.180309 -0.181578 -0.166489 -0.127822 -0.111719 
-0.101808 -0.104777 -0.164666 -0.107191 -0.0822531 -0.072732 -0.13373 -0.133469 -0.134319 
-0.134851 -0.135554 -0.13648 -0.13749 -0.138609 -0.139785 -0.140832 -0.141496 -0.141608 
-0.141171 -0.140144 -0.138896 -0.137449 -0.135943 -0.134612 -0.133607 -0.131083 -0.126214 
-0.122898 -0.103744 -0.12698 -0.127078 -0.127206 -0.127593 -0.128025 -0.128602 -0.129252 
-0.129889 -0.130504 -0.131188 -0.131853 -0.132487 -0.133008 -0.133465 -0.133832 -0.134067 
-0.134188 -0.134144 -0.133963 -0.133668 -0.133298 -0.13293 -0.132651 -0.132449 -0.132378 
-0.132445 -0.132588 -0.132797 -0.133051 -0.133281 -0.132829 -0.123116 -0.130526 -0.132574 
-0.127468 -0.124366 -0.138802 -0.136337 -0.13281 -0.130574 -0.12843 -0.126157 -0.122722 
-0.112442 -0.0859461 -0.139123 -0.160478 -0.0573689 -0.0492468 -0.042445 -0.0376143 -0.0349582 
-0.034152 -0.0331975 -0.0323608 -0.0318842 -0.0331595 -0.035302 -0.0366619 -0.0381038 -0.0411134 
-0.0447926 -0.0507259 -0.0671056 -0.165502 -0.113129 -0.145951 -0.142611 -0.13621 -0.131756 
-0.126409 -0.116491 -0.123015 -0.122431 -0.119137 -0.112325 -0.159602 -0.150088 -0.163666 
-0.164706 -0.13397 -0.135702 -0.143714 -0.133981 -0.12892 -0.157301 -0.125695 -0.155671 
-0.128705 -0.114643 -0.1159 -0.126237 -0.155674 -0.11876 -0.120679 -0.10107 -0.123548 
-0.134462 -0.133698 -0.135229 -0.136295 -0.137507 -0.138878 -0.139993 -0.140645 -0.140593 
-0.139821 -0.138514 -0.137091 -0.135897 -0.134292 -0.135976 -0.133533 -0.156149 -0.121621 
-0.100818 -0.127784 -0.128665 -0.129476 -0.130186 -0.130799 -0.131384 -0.131915 -0.132444 
-0.132942 -0.133381 -0.133786 -0.134117 -0.134346 -0.134462 -0.134409 -0.134171 -0.133795 
-0.13326 -0.132728 -0.132259 -0.131918 -0.131793 -0.131876 -0.132113 -0.132425 -0.132799 
-0.127362 -0.126788 -0.132537 -0.133985 -0.143286 -0.129197 -0.134072 -0.117174 -0.105356 
-0.0805924 -0.0573962 -0.0544087 -0.050995 -0.0488813 -0.0482067 -0.0482724 -0.0493873 -0.0511769 
-0.0535047 -0.0562992 -0.060409 -0.0653972 -0.0710462 -0.126264 -0.138521 -0.13702 -0.0650853 
-0.149899 -0.141392 -0.123401 -0.142017 -0.149744 -0.11435 -0.129377 -0.133993 -0.12531 
-0.140579 -0.128304 -0.125588 -0.146863 -0.13355 -0.120445 -0.127461 -0.134076 -0.133196 
-0.155882 -0.105704 -0.149371 -0.150803 -0.0773429 -0.151636 -0.13289 -0.136718 -0.138625 
-0.140024 -0.140637 -0.140163 -0.138537 -0.136703 -0.134892 -0.109493 -0.139455 -0.128865 
-0.127082 -0.131235 -0.132018 -0.132655 -0.133162 -0.133573 -0.133969 -0.134368 -0.134694 
-0.134919 -0.135057 -0.134996 -0.134739 -0.134214 -0.13351 -0.132642 -0.131897 -0.131287 
-0.130961 -0.131018 -0.13135 -0.131837 -0.13237 -0.136473 -0.129997 -0.134014 -0.0876981 
-0.103034 -0.0656895 -0.0703818 -0.07421 -0.064416 -0.0653806 -0.0658295 -0.0676451 -0.0704936 
-0.0736747 -0.0773694 -0.0823854 -0.0891134 -0.135038 -0.133675 -0.147437 -0.132416 -0.125032 
-0.130212 -0.145592 -0.148032 -0.13997 -0.133576 -0.0960059 -0.119236 -0.133361 -0.121263 
-0.143829 -0.120753 -0.150962 -0.132942 -0.136713 -0.132543 -0.132562 -0.132566 -0.132624 
-0.14247 -0.109851 -0.144019 -0.123236 -0.0758744 -0.14304 -0.108777 -0.119321 -0.131917 
-0.136543 -0.141178 -0.115564 -0.139751 -0.125746 -0.144036 -0.13295 -0.13189 -0.134159 
-0.134573 -0.135012 -0.135382 -0.135692 -0.135876 -0.135816 -0.135555 -0.134979 -0.134101 
-0.132851 -0.131642 -0.130564 -0.129939 -0.129843 -0.130296 -0.131016 -0.131809 -0.131005 
-0.133715 -0.0822006 -0.0920249 -0.0822158 -0.144223 -0.0787713 -0.0928599 -0.137806 -0.0827015 
-0.0836932 -0.0862107 -0.0890425 -0.0923798 -0.0975208 -0.102927 -0.133894 -0.122031 -0.139323 
-0.14127 -0.143324 -0.137234 -0.135958 -0.117315 -0.130693 -0.136382 -0.128587 -0.13976 
-0.139676 -0.130509 -0.121421 -0.130894 -0.116809 -0.145715 -0.136551 -0.129854 -0.148758 
-0.130552 -0.131388 -0.109282 -0.125661 -0.131822 -0.138798 -0.135338 -0.122104 -0.129892 
-0.140752 -0.121959 -0.135486 -0.13492 -0.136375 -0.136658 -0.136748 -0.136575 -0.136055 
-0.13499 -0.133466 -0.131621 -0.129888 -0.128568 -0.128206 -0.128895 -0.130105 -0.097696 
-0.0954669 -0.096264 -0.140141 -0.124851 -0.137212 -0.131857 -0.100693 -0.103306 -0.105314 
-0.108365 -0.112284 -0.134478 -0.136762 -0.119402 -0.12701 -0.135956 -0.132224 -0.13567 
-0.122427 -0.124645 -0.137064 -0.130241 -0.13455 -0.122832 -0.127833 -0.136788 -0.136683 
-0.137194 -0.133098 -0.13774 -0.111004 -0.133685 -0.136952 -0.127822 -0.137566 -0.137237 
-0.137342 -0.134439 -0.129633 -0.126413 -0.125905 -0.127081 -0.128975 -0.128279 -0.115488 
-0.117591 -0.131312 -0.136745 -0.116791 -0.137424 -0.135451 -0.124741 -0.111609 -0.137661 
-0.129621 -0.137495 -0.136124 -0.131798 -0.125757 -0.137053 -0.136897 -0.133401 -0.132698 
-0.136183 -0.13677 -0.125448 -0.138006 -0.137216 -0.134517 -0.1355 -0.136704 -0.133806 
-0.136263 -0.136039 -0.124633 -0.135315 -0.130361 -0.137732 -0.171053 -0.106159 9.71148e-07 
9.46125e-07 9.37811e-07 1.87677e-07 2.05667e-07 7.95913e-08 6.87919e-08 5.51371e-08 4.65927e-08 8.99447e-08 
4.0244e-08 4.49294e-08 4.55207e-08 2.79469e-08 4.89892e-08 3.97041e-08 4.24871e-08 3.76165e-08 9.60198e-08 
4.97287e-08 5.90248e-08 6.11152e-08 1.51354e-07 3.31947e-07 1.25169e-06 1.2618e-06 3.30509e-07 8.7608e-08 
9.64406e-08 6.81071e-08 5.90274e-08 5.59112e-08 7.36883e-08 5.8366e-08 5.95151e-08 3.84074e-08 4.10196e-08 
4.15474e-08 8.27112e-08 6.37599e-08 4.05746e-08 4.95258e-08 4.68042e-08 7.46251e-08 6.61877e-08 6.59346e-08 
5.1093e-08 5.77472e-08 8.75043e-08 9.08227e-08 1.35588e-07 8.93553e-07 -0.133302 -0.133269 -0.133355 
-0.133586 -0.133971 -0.134498 -0.135195 -0.136124 -0.137206 -0.138438 -0.139791 -0.141333 
-0.142874 -0.144258 -0.145459 -0.146295 -0.146649 -0.146424 -0.145692 -0.144303 -0.142543 
-0.140599 -0.13854 -0.136628 -0.135016 -0.133795 -0.13331 -0.133233 -0.168707 -0.143029 
-0.134766 -0.126788 -0.122584 -0.12068 -0.120108 -0.120207 -0.120682 -0.121434 -0.122432 
-0.123498 -0.12459 -0.12569 -0.126783 -0.127852 -0.12893 -0.129936 -0.130834 -0.131682 
-0.132464 -0.133136 -0.133712 -0.134172 -0.134498 -0.134734 -0.134834 -0.134795 -0.134654 
-0.134453 -0.134179 -0.133848 -0.133533 -0.133267 -0.133044 -0.132864 -0.132776 -0.132756 
-0.132793 -0.13288 -0.132995 -0.13312 -0.133237 -0.13332 -0.133356 -0.133353 -0.133389 
-0.133263 -0.132628 -0.131493 -0.130057 -0.129015 -0.129583 -0.13117 -0.131628 -0.129666 
-0.124794 -0.118401 -0.113098 -0.112305 -0.116597 -0.121126 -0.12343 -0.123166 -0.121675 
-0.120538 -0.120878 -0.125466 -0.131082 -0.149085 -0.106617 -0.0739265 -0.144696 -0.0891619 
-0.0809617 -0.0750719 -0.0560939 -0.0514965 -0.062343 -0.0436948 -0.0633302 -0.0615924 -0.055645 
-0.065176 -0.014388 -0.00330406 -0.0217435 -0.0393556 -0.0510741 -0.076839 -0.0863613 -0.099783 
-0.140853 -0.141639 -0.116094 -0.0893002 -0.0941803 -0.133298 -0.133275 -0.133373 -0.133736 
-0.134353 -0.135249 -0.136465 -0.137944 -0.139566 -0.141348 -0.143237 -0.14497 -0.146191 
-0.146624 -0.146229 -0.144956 -0.142924 -0.140508 -0.137923 -0.135644 -0.134075 -0.133237 
-0.133221 -0.112087 -0.152795 -0.133268 -0.124757 -0.121377 -0.120235 -0.120405 -0.121123 
-0.122272 -0.123621 -0.12492 -0.126292 -0.127672 -0.129009 -0.13025 -0.131353 -0.132377 
-0.13325 -0.133924 -0.134401 -0.134703 -0.134812 -0.134761 -0.134537 -0.134194 -0.133806 
-0.13344 -0.133127 -0.132896 -0.13279 -0.132794 -0.132898 -0.133046 -0.133192 -0.133302 
-0.133343 -0.133355 -0.133416 -0.13331 -0.132961 -0.13204 -0.13079 -0.129492 -0.129057 
-0.129974 -0.131477 -0.131223 -0.128388 -0.123458 -0.117642 -0.113608 -0.111991 -0.116992 
-0.122129 -0.123625 -0.122731 -0.121177 -0.120342 -0.12111 -0.123803 -0.131873 -0.151326 
-0.175061 -0.0527883 -0.0974521 -0.0763158 -0.0835927 -0.0616637 -0.0711988 -0.0667666 -0.0653475 
-0.0613762 -0.0798056 -0.0580672 -0.0386462 -0.0342572 -0.0196459 -0.0180469 -0.0267114 -0.0499175 
-0.06677 -0.0613604 -0.0685143 -0.0989197 -0.138845 -0.0818101 -0.0802601 -0.117225 -0.159977 
-0.133317 -0.133328 -0.0608795 -0.130457 -0.0575317 -0.167413 9.54479e-07 9.19839e-07 -0.00479039 
1.93443e-07 -0.000457945 1.15068e-07 -0.00264479 0.00780284 -0.00321881 0.00384 -0.000470391 0.000610746 
0.00220732 -0.00126909 0.00525478 6.3739e-08 -0.00329571 0.00579893 -0.00213047 0.0025037 0.000527664 
-0.000567513 0.00342693 -0.00381394 0.00530462 0.00533298 -0.00169462 0.00226711 0.000692451 -0.000548418 
0.0033237 -0.00410266 0.00563005 7.08276e-08 -0.00341572 0.00728944 -0.0018414 0.00319842 0.000475606 
-9.09243e-05 0.00552649 -0.00184147 9.40723e-08 1.53051e-07 -0.0180342 -0.00319286 -0.00603391 -0.00326415 
0.000183834 -0.133323 -0.133332 -0.133354 -0.133413 -0.133495 -0.13344 -0.133626 -0.133785 
-0.133627 -0.13396 -0.134185 -0.133928 -0.134423 -0.134714 -0.134328 -0.135027 -0.13541 
-0.134861 -0.1358 -0.13631 -0.135534 -0.136749 -0.137329 -0.136342 -0.137839 -0.138464 
-0.137278 -0.139014 -0.139702 -0.138335 -0.140292 -0.141095 -0.139464 -0.141666 -0.14233 
-0.140621 -0.142862 -0.143519 -0.141731 -0.143992 -0.144506 -0.142734 -0.144823 -0.145059 
-0.143515 -0.145222 -0.145291 -0.143976 -0.145198 -0.144944 -0.14403 -0.144665 -0.144146 
-0.143701 -0.143666 -0.142869 -0.14292 -0.142241 -0.14137 -0.141785 -0.140583 -0.139585 
-0.140394 -0.138809 -0.137854 -0.138844 -0.137124 -0.13624 -0.137333 -0.135601 -0.134907 
-0.135961 -0.134407 -0.13401 -0.13483 -0.133629 -0.133465 -0.133979 -0.133324 -0.0704204 
-0.133421 -0.129884 -0.158148 -0.143907 -0.138652 -0.135093 -0.139664 -0.131946 -0.129027 
-0.136201 -0.126774 -0.125302 -0.131176 -0.124108 -0.123507 -0.12787 -0.1227 -0.122594 
-0.125724 -0.122417 -0.122486 -0.124948 -0.122583 -0.122811 -0.124713 -0.122916 -0.123321 
-0.12475 -0.123611 -0.124107 -0.125019 -0.124452 -0.124951 -0.125555 -0.125311 -0.125839 
-0.126262 -0.126247 -0.126758 -0.126962 -0.127196 -0.127702 -0.127725 -0.128113 -0.128623 
-0.128494 -0.129014 -0.129546 -0.129262 -0.129939 -0.130387 -0.130055 -0.13077 -0.131184 
-0.130779 -0.131553 -0.131945 -0.131483 -0.132269 -0.13263 -0.132138 -0.132885 -0.133176 
-0.132712 -0.133424 -0.133688 -0.13319 -0.133876 -0.134059 -0.133601 -0.134206 -0.134331 
-0.133921 -0.13443 -0.134512 -0.134149 -0.134549 -0.134567 -0.13429 -0.134562 -0.134511 
-0.134312 -0.134451 -0.134375 -0.13424 -0.134291 -0.134169 -0.134103 -0.134059 -0.13391 
-0.133915 -0.1338 -0.13363 -0.133686 -0.1335 -0.133363 -0.133446 -0.133249 -0.133132 
-0.133213 -0.133038 -0.13294 -0.133018 -0.13288 -0.132812 -0.132867 -0.132773 -0.13275 
-0.132762 -0.132746 -0.132751 -0.132732 -0.132771 -0.132805 -0.132754 -0.132847 -0.1329 
-0.132816 -0.132949 -0.13301 -0.132911 -0.133071 -0.133133 -0.133026 -0.13319 -0.133241 
-0.133144 -0.133282 -0.133317 -0.133246 -0.133341 -0.133347 -0.133313 -0.13286 -0.132405 
-0.131946 -0.131249 -0.132177 -0.130583 -0.129826 -0.131008 -0.129063 -0.128814 -0.129407 
-0.128326 -0.129249 -0.128201 -0.129555 -0.130468 -0.128317 -0.130458 -0.130186 -0.129055 
-0.128844 -0.126893 -0.127991 -0.124797 -0.121674 -0.124304 -0.120113 -0.116759 -0.120265 
-0.114972 -0.112744 -0.116377 -0.113671 -0.115708 -0.114742 -0.118805 -0.121819 -0.119925 
-0.1233 -0.124892 -0.125837 -0.125532 -0.125763 -0.127818 -0.125652 -0.124949 -0.127815 
-0.124697 -0.123842 -0.127135 -0.123931 -0.123517 -0.126686 -0.124401 -0.125054 -0.127039 
-0.12731 -0.129007 -0.128317 -0.133126 -0.137156 -0.132584 -0.143938 -0.155194 -0.141449 
-0.108086 -0.0447743 -0.0397305 -0.0165018 -0.020364 -0.0556554 -0.0147888 -0.0131212 -0.029023 
-0.00823757 -0.00936638 -0.0271458 -0.00720585 -0.00800743 -0.0229417 -0.00681582 -0.00681387 -0.0204733 
-0.00806092 -0.010799 -0.0203733 -0.00918715 -0.0107961 -0.0104643 -0.00895079 -0.00701635 -0.0100814 
-0.00441541 -0.00536156 -0.0179942 -0.00455081 -0.00512692 -0.0154799 -0.00503023 -0.00560458 -0.0152572 
-0.00858407 -0.0122173 -0.0162631 -0.00949205 -0.00849444 -0.00562893 -0.00398447 -0.00517868 -0.0171412 
-0.00482454 -0.00535153 -0.0158207 -0.00525494 -0.00644281 -0.0163786 -0.00802524 -0.0108268 -0.0186519 
-0.0104452 -0.0118778 -0.0105721 -0.010447 -0.00931859 -0.0124532 -0.00556449 -0.00878139 -0.0219868 
-0.00771647 -0.00917424 -0.0236949 -0.00744214 -0.0125239 -0.0266341 -0.0164137 -0.0160271 -0.024176 
-0.0246201 -0.0344993 -0.0400282 -0.198659 -0.152817 -0.171094 -0.197189 -0.146036 -0.157754 
-0.168747 -0.131448 -0.135403 -0.147661 -0.126684 -0.127036 -0.135588 -0.123116 -0.122504 
-0.127164 -0.120269 -0.119487 -0.121311 -0.119969 -0.116439 -0.117476 -0.114618 -0.116059 
-0.114788 -0.118124 -0.114964 -0.114476 -0.110474 -0.110554 -0.107691 -0.0958005 -0.105949 
-0.0944171 -0.0894088 -0.150601 -0.100461 -0.0848197 -0.062874 -0.044267 -0.0642514 -0.101278 
-0.0685427 -0.0826862 -0.0947004 -0.107577 -0.0906891 -0.121217 -0.130024 -0.142182 -0.150609 
-0.126895 -0.158817 -0.167483 -0.144026 -0.18164 -0.1839 -0.192169 -0.19424 -0.173079 
-0.197379 -0.201862 -0.183819 -0.20479 -0.207903 -0.202184 -0.196158 -0.167409 -0.133352 
-0.0872592 -0.1333 -0.133086 -0.149529 -0.088754 -0.181294 -0.177343 -0.125311 -0.133335 
-0.098283 -0.105295 -0.117805 -0.0845192 -0.0656764 -0.111315 -0.0888629 -0.183523 -0.167612 
-0.143185 -0.152823 -0.0816626 -0.108037 -0.180589 -0.132947 -0.105947 -0.104368 -0.0945544 
-0.133585 -0.133712 -0.13384 -0.134009 -0.133752 -0.134161 -0.134402 -0.134028 -0.134594 
-0.134897 -0.134377 -0.135157 -0.135525 -0.134832 -0.135856 -0.136268 -0.135403 -0.136669 
-0.137165 -0.136108 -0.137571 -0.13812 -0.136909 -0.13858 -0.139151 -0.137787 -0.139635 
-0.140203 -0.138746 -0.140663 -0.141191 -0.139717 -0.141592 -0.142051 -0.14061 -0.142418 
-0.14271 -0.141393 -0.142909 -0.143087 -0.141978 -0.143125 -0.143074 -0.142284 -0.14292 
-0.142683 -0.142214 -0.142294 -0.141823 -0.141742 -0.141365 -0.140727 -0.140905 -0.140214 
-0.139455 -0.13989 -0.138812 -0.138047 -0.138688 -0.137458 -0.136736 -0.137422 -0.136191 
-0.135567 -0.136256 -0.135096 -0.134629 -0.135246 -0.132931 -0.132342 -0.133359 -0.129724 
-0.129398 -0.129789 -0.12879 -0.125515 -0.128229 -0.127509 -0.127208 -0.127013 -0.12654 
-0.127375 -0.126129 -0.126005 -0.127347 -0.12586 -0.125896 -0.127142 -0.125918 -0.125977 
-0.127117 -0.126106 -0.126356 -0.127276 -0.126511 -0.126863 -0.127519 -0.127041 -0.127365 
-0.127902 -0.127618 -0.127976 -0.128409 -0.128275 -0.128651 -0.128913 -0.12893 -0.129304 
-0.129433 -0.129601 -0.129981 -0.129993 -0.13028 -0.130655 -0.130613 -0.130938 -0.13128 
-0.131186 -0.131573 -0.131907 -0.13172 -0.132156 -0.132455 -0.132224 -0.132684 -0.132939 
-0.132702 -0.133134 -0.133362 -0.133133 -0.133545 -0.13372 -0.133491 -0.133852 -0.133985 
-0.133789 -0.134076 -0.134163 -0.134001 -0.134207 -0.134241 -0.134133 -0.134241 -0.134223 
-0.134173 -0.134182 -0.134116 -0.134109 -0.134037 -0.133943 -0.133972 -0.133838 -0.133716 
-0.133773 -0.133605 -0.133478 -0.133528 -0.133365 -0.133227 -0.133261 -0.133121 -0.133005 
-0.133018 -0.132906 -0.132814 -0.132805 -0.132747 -0.132683 -0.132636 -0.132642 -0.132606 
-0.13251 -0.132599 -0.132603 -0.132467 -0.13263 -0.13266 -0.132504 -0.132709 -0.132764 
-0.132596 -0.132835 -0.132897 -0.132732 -0.13297 -0.133043 -0.132906 -0.13312 -0.133188 
-0.133072 -0.133253 -0.133303 -0.133235 -0.13336 -0.13338 -0.133377 -0.120135 -0.0866074 
-0.0719715 -0.126443 -0.127503 -0.11756 -0.131571 -0.130667 -0.129632 -0.128487 -0.130015 
-0.127011 -0.126724 -0.126774 -0.128154 -0.125908 -0.129417 -0.130413 -0.128827 -0.129558 
-0.128029 -0.130752 -0.125143 -0.12179 -0.116163 -0.111442 -0.12171 -0.127292 -0.129879 
-0.131699 -0.131905 -0.131801 -0.136127 -0.131065 -0.130292 -0.129534 -0.128722 -0.132229 
-0.128131 -0.127542 -0.129971 -0.126946 -0.126739 -0.127643 -0.125457 -0.12505 -0.124023 
-0.122292 -0.120494 -0.111903 -0.115964 -0.121993 -0.130183 -0.125878 -0.153217 -0.182722 
-0.0547371 -0.0485846 -0.0830226 -0.0444927 -0.0373799 -0.0608509 -0.0339827 -0.0318826 -0.0485957 
-0.031021 -0.0288684 -0.0420002 -0.0272531 -0.0279994 -0.0375149 -0.0223185 -0.0206957 -0.0336616 
-0.0207678 -0.0206676 -0.0304929 -0.0249398 -0.0221281 -0.0304131 -0.0231053 -0.021545 -0.0299718 
-0.0220392 -0.0214549 -0.0292201 -0.0213788 -0.0217624 -0.0286532 -0.0196744 -0.0192199 -0.028856 
-0.0242684 -0.0203525 -0.0285145 -0.023683 -0.0212432 -0.0300782 -0.0236582 -0.0230264 -0.0301075 
-0.0247818 -0.0248663 -0.0316723 -0.0224961 -0.0223921 -0.0325269 -0.0247154 -0.0267377 -0.0349293 
-0.0345414 -0.030124 -0.0394881 -0.0371621 -0.0347813 -0.0466299 -0.0398383 -0.0367605 -0.0509821 
-0.0439335 -0.0517339 -0.0612445 -0.0620328 -0.144721 -0.120822 -0.154486 -0.151758 -0.128645 
-0.130692 -0.135906 -0.125207 -0.129187 -0.134672 -0.120819 -0.123936 -0.128921 -0.116127 
-0.12016 -0.123535 -0.116057 -0.11777 -0.120003 -0.111298 -0.113106 -0.116812 -0.106553 
-0.110732 -0.114044 -0.0826948 -0.107783 -0.118012 -0.175557 -0.177204 -0.136246 -0.147205 
-0.097269 -0.0991033 -0.16981 -0.176282 -0.165764 -0.133478 -0.133215 -0.152679 -0.158739 
-0.144859 -0.113024 -0.174319 -0.130793 -0.160197 -0.147816 -0.154373 -0.147299 -0.136649 
-0.143658 -0.146088 -0.14013 -0.118125 -0.104042 -0.119205 -0.0969043 -0.105833 -0.113054 
-0.121767 -0.132334 -0.133703 -0.163399 -0.167375 -0.154292 -0.17497 -0.164773 -0.16312 
-0.133416 -0.133477 -0.133531 -0.132202 -0.13344 -0.134107 -0.133746 -0.133446 -0.125288 
-0.133484 -0.146981 -0.12266 -0.160724 -0.158593 -0.149649 -0.107355 -0.126927 -0.126371 
-0.118684 -0.116217 -0.133501 -0.109839 -0.134611 -0.0885772 -0.134477 -0.112476 -0.114589 
-0.101516 -0.112383 -0.116131 -0.159207 -0.161373 -0.155751 -0.118479 -0.110058 -0.098526 
-0.0935071 -0.117212 -0.161471 -0.133821 -0.133981 -0.134082 -0.134288 -0.133848 -0.134419 
-0.134682 -0.134092 -0.134858 -0.135173 -0.134405 -0.135414 -0.135801 -0.134817 -0.136147 
-0.13656 -0.135404 -0.136946 -0.13741 -0.136148 -0.137828 -0.138309 -0.136962 -0.138772 
-0.139245 -0.137859 -0.139648 -0.140046 -0.138755 -0.140429 -0.140771 -0.139539 -0.141163 
-0.141356 -0.140304 -0.141579 -0.14167 -0.140909 -0.141659 -0.141548 -0.141143 -0.141306 
-0.140944 -0.140925 -0.140562 -0.140077 -0.14027 -0.139602 -0.139063 -0.139361 -0.138497 
-0.137861 -0.138292 -0.137288 -0.136691 -0.137133 -0.136253 -0.135695 -0.136115 -0.131016 
-0.129573 -0.13349 -0.133588 -0.133414 -0.122779 -0.124057 -0.125498 -0.125829 -0.121468 
-0.126212 -0.126474 -0.12458 -0.12685 -0.127015 -0.126129 -0.127289 -0.127433 -0.127253 
-0.127685 -0.12789 -0.127954 -0.128088 -0.128335 -0.128484 -0.128525 -0.128766 -0.129026 
-0.128968 -0.129234 -0.129561 -0.129442 -0.129716 -0.130028 -0.129922 -0.130204 -0.130435 
-0.130424 -0.130721 -0.130866 -0.130937 -0.13123 -0.131326 -0.131466 -0.13174 -0.131814 
-0.131956 -0.13222 -0.132257 -0.132432 -0.132675 -0.132657 -0.132868 -0.133092 -0.133053 
-0.13325 -0.13344 -0.13341 -0.133586 -0.133759 -0.133729 -0.133881 -0.134006 -0.133991 
-0.134095 -0.134178 -0.134189 -0.134224 -0.134258 -0.134317 -0.134251 -0.134236 -0.134348 
-0.134187 -0.134117 -0.134264 -0.134019 -0.133914 -0.13408 -0.133785 -0.13364 -0.133823 
-0.133479 -0.133335 -0.133486 -0.133182 -0.133033 -0.133115 -0.132884 -0.132745 -0.132766 
-0.132618 -0.132505 -0.13245 -0.132411 -0.13233 -0.132211 -0.132281 -0.132235 -0.132047 
-0.132225 -0.13223 -0.131982 -0.132267 -0.132317 -0.132031 -0.132401 -0.132473 -0.132178 
-0.13258 -0.132681 -0.132393 -0.132804 -0.132908 -0.132661 -0.133029 -0.133131 -0.132948 
-0.133222 -0.133313 -0.133411 -0.133193 -0.13308 -0.132033 -0.127803 -0.131876 -0.127676 
-0.125572 -0.128492 -0.138653 -0.14137 -0.122978 -0.108123 -0.0810081 -0.101567 -0.108821 
-0.13108 -0.129409 -0.127249 -0.12528 -0.127704 -0.121952 -0.118626 -0.120707 -0.113622 
-0.107447 -0.110853 -0.122801 -0.127369 -0.125305 -0.121964 -0.144371 -0.139631 -0.145511 
-0.128771 -0.0787195 -0.0701791 -0.0608508 -0.0560529 -0.0761657 -0.0544001 -0.0525428 -0.0657714 
-0.0487181 -0.0466039 -0.0606647 -0.0429952 -0.0402784 -0.0532232 -0.0393881 -0.0387785 -0.04837 
-0.0382227 -0.039233 -0.0474663 -0.0384609 -0.0384389 -0.0470226 -0.0374662 -0.0372573 -0.0459004 
-0.0367709 -0.0365379 -0.0447367 -0.0364055 -0.0361145 -0.0440906 -0.0361561 -0.0364851 -0.043918 
-0.0372642 -0.0378213 -0.0445823 -0.038196 -0.0391682 -0.046062 -0.0400388 -0.0407798 -0.0479684 
-0.0416938 -0.0420529 -0.0500234 -0.0444356 -0.0462388 -0.0531846 -0.0489478 -0.0525253 -0.0583979 
-0.0564884 -0.0599102 -0.0656292 -0.0636363 -0.0668509 -0.0744326 -0.0739357 -0.138124 -0.136504 
-0.115213 -0.118853 -0.114316 -0.101865 -0.130897 -0.12418 -0.131562 -0.133709 -0.128533 
-0.131384 -0.134295 -0.136892 -0.133357 -0.0920707 -0.118438 -0.120961 -0.126658 -0.140742 
-0.139942 -0.142163 -0.145444 -0.154335 -0.157086 -0.12367 -0.124761 -0.126607 -0.13082 
-0.13581 -0.130786 -0.158672 -0.158903 -0.152011 -0.135678 -0.143146 -0.15753 -0.153069 
-0.14611 -0.120012 -0.118911 -0.125841 -0.1481 -0.151746 -0.14835 -0.159033 -0.156096 
-0.152672 -0.134645 -0.132982 -0.132907 -0.139721 -0.14443 -0.143106 -0.0977644 -0.135146 
-0.134673 -0.135083 -0.131809 -0.136787 -0.158589 -0.15841 -0.156001 -0.134304 -0.133327 
-0.134179 -0.133814 -0.128321 -0.123928 -0.123232 -0.12697 -0.119879 -0.123789 -0.13266 
-0.137613 -0.122757 -0.121646 -0.124401 -0.127993 -0.133637 -0.13029 -0.121416 -0.0857889 
-0.150903 -0.154164 -0.153727 -0.122585 -0.120937 -0.119083 -0.102481 -0.112083 -0.103825 
-0.0983064 -0.133813 -0.134638 -0.136931 -0.15254 -0.112859 -0.106132 -0.117245 -0.149095 
-0.152554 -0.123581 -0.125785 -0.128577 -0.13333 -0.132131 -0.133694 -0.133829 -0.133854 
-0.134029 -0.13343 -0.134114 -0.134352 -0.133536 -0.134544 -0.134888 -0.133794 -0.135201 
-0.135588 -0.134289 -0.136038 -0.136455 -0.13504 -0.136894 -0.137365 -0.135933 -0.137869 
-0.138279 -0.136902 -0.138565 -0.138953 -0.137745 -0.139538 -0.139926 -0.13863 -0.140388 
-0.140619 -0.139766 -0.140796 -0.140818 -0.140429 -0.140736 -0.14051 -0.140553 -0.140138 
-0.139747 -0.140107 -0.139186 -0.13869 -0.139166 -0.138041 -0.137462 -0.13794 -0.136945 
-0.136374 -0.136712 -0.135627 -0.135173 -0.135406 -0.13093 -0.128851 -0.134279 -0.155432 
-0.14987 -0.154017 -0.127684 -0.124257 -0.120754 -0.122064 -0.123536 -0.124587 -0.120399 
-0.125727 -0.126406 -0.123554 -0.127256 -0.127714 -0.125955 -0.128233 -0.128658 -0.127596 
-0.129079 -0.129435 -0.128813 -0.129782 -0.130068 -0.129802 -0.130336 -0.130592 -0.130603 
-0.130836 -0.131082 -0.131187 -0.131296 -0.131541 -0.131666 -0.131746 -0.131976 -0.132124 
-0.132163 -0.132404 -0.132573 -0.132568 -0.132784 -0.132947 -0.132962 -0.133171 -0.13329 
-0.133328 -0.133524 -0.133613 -0.133671 -0.13383 -0.133929 -0.133954 -0.134102 -0.134225 
-0.134217 -0.134341 -0.134471 -0.134423 -0.134504 -0.134663 -0.134553 -0.134592 -0.134783 
-0.134578 -0.134552 -0.134815 -0.134482 -0.1344 -0.134715 -0.134274 -0.134134 -0.134477 
-0.133944 -0.133754 -0.134107 -0.13352 -0.133303 -0.133631 -0.133062 -0.132859 -0.133081 
-0.13263 -0.132427 -0.132533 -0.132231 -0.132058 -0.132044 -0.13193 -0.13181 -0.131681 
-0.131715 -0.131656 -0.131425 -0.131604 -0.1316 -0.131257 -0.131654 -0.131723 -0.131276 
-0.131861 -0.131974 -0.1315 -0.132145 -0.132297 -0.131843 -0.132504 -0.132668 -0.132264 
-0.132878 -0.133037 -0.132736 -0.128946 -0.134941 -0.124381 -0.147849 -0.141234 -0.14414 
-0.145981 -0.129549 -0.128963 -0.139701 -0.142318 -0.140938 -0.096471 -0.0991544 -0.119769 
-0.115005 -0.119371 -0.109064 -0.102674 -0.107614 -0.136317 -0.129032 -0.138861 -0.134142 
-0.131302 -0.128497 -0.07398 -0.0705038 -0.0634726 -0.0596389 -0.0759979 -0.0569423 -0.0559099 
-0.0666697 -0.05701 -0.0568247 -0.065079 -0.0560185 -0.0556217 -0.0652132 -0.0543361 -0.053604 
-0.0630162 -0.0527482 -0.0523253 -0.060836 -0.0522551 -0.0520992 -0.0600205 -0.0521282 -0.0522446 
-0.0600541 -0.0523485 -0.0528944 -0.0602249 -0.053724 -0.0545277 -0.0610474 -0.0561566 -0.057186 
-0.0634696 -0.0587231 -0.0598906 -0.0665412 -0.0618257 -0.0640683 -0.0700357 -0.0668442 -0.0698712 
-0.0747906 -0.0739153 -0.0781628 -0.0814306 -0.0845277 -0.0887248 -0.0913348 -0.142459 -0.1442 
-0.138462 -0.139341 -0.131388 -0.130387 -0.133453 -0.134971 -0.137703 -0.137911 -0.139349 
-0.133573 -0.133675 -0.133408 -0.0872109 -0.130878 -0.133241 -0.134945 -0.147444 -0.148464 
-0.143485 -0.133448 -0.133555 -0.133371 -0.133326 -0.139623 -0.13704 -0.149284 -0.148833 
-0.145124 -0.128713 -0.129897 -0.132927 -0.132569 -0.144829 -0.148738 -0.144919 -0.116635 
-0.119217 -0.116411 -0.129705 -0.126451 -0.132657 -0.123735 -0.103035 -0.0946569 -0.130471 
-0.133862 -0.129151 -0.133212 -0.153242 -0.153703 -0.150547 -0.135744 -0.128444 -0.13037 
-0.132826 -0.133021 -0.140658 -0.142002 -0.0942809 -0.0852749 -0.130292 -0.125763 -0.145421 
-0.142741 -0.142201 -0.14813 -0.148671 -0.148265 -0.145591 -0.0777829 -0.0764122 -0.118049 
-0.110351 -0.0633443 -0.0540629 -0.122718 -0.133894 -0.136351 -0.0921841 -0.12236 -0.133169 
-0.13488 -0.133948 -0.134426 -0.135627 -0.135258 -0.134458 -0.132843 -0.13293 -0.132868 
-0.133055 -0.13216 -0.133225 -0.133537 -0.132249 -0.134004 -0.13444 -0.13287 -0.135049 
-0.135506 -0.133918 -0.135823 -0.136373 -0.134928 -0.136681 -0.0657556 -0.137703 -0.138357 
-0.136299 -0.139293 -0.139793 -0.138448 -0.140245 -0.140438 -0.139924 -0.140544 -0.140462 
-0.140491 -0.140325 -0.139924 -0.140489 -0.137705 -0.137012 -0.136167 -0.153414 -0.151415 
-0.150613 -0.134948 -0.13597 -0.11516 -0.117361 -0.120004 -0.121792 -0.11536 -0.123638 
-0.124873 -0.120426 -0.126135 -0.127056 -0.124132 -0.12799 -0.128694 -0.126643 -0.129391 
-0.129943 -0.128585 -0.130468 -0.130848 -0.130058 -0.131235 -0.131552 -0.131172 -0.131869 
-0.132156 -0.131967 -0.132411 -0.132662 -0.132593 -0.132849 -0.13306 -0.133108 -0.133245 
-0.133428 -0.133548 -0.133596 -0.133785 -0.133921 -0.133939 -0.134112 -0.134248 -0.134248 
-0.134407 -0.134555 -0.134523 -0.134655 -0.13483 -0.134765 -0.134885 -0.135084 -0.134972 
-0.135059 -0.135289 -0.135128 -0.135177 -0.135444 -0.135168 -0.135142 -0.135505 -0.135059 
-0.134958 -0.13541 -0.134806 -0.134627 -0.135135 -0.134385 -0.134128 -0.134679 -0.133796 
-0.133467 -0.134023 -0.133082 -0.132762 -0.133218 -0.132413 -0.132117 -0.132383 -0.131791 
-0.131531 -0.131614 -0.131298 -0.131134 -0.131002 -0.131077 -0.130958 -0.130672 -0.130753 
-0.130691 -0.130371 -0.130727 -0.130816 -0.130219 -0.131035 -0.131215 -0.1305 -0.131484 
-0.131701 -0.131047 -0.132022 -0.132295 -0.131686 -0.13263 -0.132887 -0.132407 -0.133907 
-0.13069 -0.109395 -0.112052 -0.108731 -0.133172 -0.143822 -0.143004 -0.138862 -0.140066 
-0.123774 -0.12171 -0.116012 -0.118854 -0.113116 -0.107 -0.0999131 -0.106084 -0.141069 
-0.136537 -0.140727 -0.136527 -0.133133 -0.133086 -0.133091 -0.0736646 -0.0745796 -0.0742819 
-0.0736117 -0.0826018 -0.0724706 -0.0711292 -0.0811744 -0.0685697 -0.0677129 -0.0774457 -0.0682449 
-0.0682748 -0.0755526 -0.0687481 -0.0688974 -0.0765417 -0.0693475 -0.0694669 -0.0776443 -0.0682064 
-0.0689338 -0.0768346 -0.0713777 -0.0729441 -0.0779442 -0.074493 -0.0759312 -0.0817475 -0.0778301 
-0.0797958 -0.0849768 -0.0819119 -0.0847305 -0.0888389 -0.0878048 -0.0917164 -0.0940201 -0.0955993 
-0.101735 -0.148929 -0.136743 -0.138039 -0.137787 -0.136631 -0.132953 -0.132969 -0.132373 
-0.14094 -0.141876 -0.139034 -0.135196 -0.134758 -0.14274 -0.143226 -0.140465 -0.118695 
-0.124415 -0.128884 -0.124396 -0.118913 -0.129496 -0.109257 -0.106373 -0.134678 -0.135905 
-0.139286 -0.138714 -0.137843 -0.137623 -0.13453 -0.135894 -0.134007 -0.0922188 -0.082806 
-0.131581 -0.128641 -0.135336 -0.136116 -0.136349 -0.134415 -0.134155 -0.148151 -0.148435 
-0.145847 -0.12852 -0.0912239 -0.142834 -0.139651 -0.137084 -0.133621 -0.134704 -0.136127 
-0.143886 -0.144018 -0.14162 -0.132652 -0.100812 -0.07616 -0.0695165 -0.0627165 -0.119047 
-0.115743 -0.115335 -0.122264 -0.114781 -0.136825 -0.139574 -0.147664 -0.147561 -0.145454 
-0.131071 -0.131236 -0.132978 -0.133576 -0.13975 -0.140226 -0.140836 -0.14075 -0.137907 
-0.134608 -0.132641 -0.126711 -0.125127 -0.140607 -0.139924 -0.139065 -0.141087 -0.116067 
-0.118674 -0.121233 -0.122925 -0.117268 -0.124675 -0.126026 -0.122117 -0.12734 -0.128344 
-0.12551 -0.129343 -0.130077 -0.128158 -0.130745 -0.131265 -0.130101 -0.131794 -0.132209 
-0.131459 -0.132648 -0.132996 -0.132518 -0.133312 -0.133559 -0.13335 -0.133716 -0.133921 
-0.133894 -0.134171 -0.134363 -0.134355 -0.134552 -0.134737 -0.134826 -0.134875 -0.135036 
-0.135166 -0.135157 -0.135291 -0.135455 -0.135384 -0.135507 -0.135706 -0.135634 -0.135734 
-0.135956 -0.135847 -0.135925 -0.136207 -0.135926 -0.13592 -0.136326 -0.135841 -0.135737 
-0.136253 -0.135566 -0.135368 -0.135992 -0.135092 -0.134773 -0.135487 -0.13434 -0.133885 
-0.134688 -0.133295 -0.132785 -0.133565 -0.132211 -0.131767 -0.132242 -0.131384 -0.130996 
-0.131168 -0.130467 -0.130181 -0.130171 -0.130049 -0.13001 -0.129488 -0.12974 -0.0651601 
-0.075383 -0.12935 -0.129404 -0.128863 -0.129877 -0.130162 -0.128969 -0.13053 -0.130868 
-0.129939 -0.131356 -0.131744 -0.130866 -0.132242 -0.104987 -0.102146 -0.109166 -0.0911327 
-0.14534 -0.142612 -0.137367 -0.134287 -0.141285 -0.139441 -0.128539 -0.125687 -0.0865871 
-0.0839837 -0.0844809 -0.0660435 -0.0670276 -0.0834951 -0.0841003 -0.0912627 -0.0862959 -0.0869064 
-0.092645 -0.0860328 -0.0847777 -0.0942478 -0.0871832 -0.068519 -0.0804889 -0.0885267 -0.0900079 
-0.0946287 -0.0914075 -0.0931935 -0.0974285 -0.094671 -0.0968689 -0.100334 -0.0990575 -0.139745 
-0.143004 -0.128736 -0.131549 -0.133828 -0.138988 -0.139648 -0.137839 -0.138376 -0.137887 
-0.131944 -0.131806 -0.131614 -0.132061 -0.131625 -0.130341 -0.135646 -0.140673 -0.0717691 
-0.0837676 -0.135827 -0.136999 -0.137522 -0.137205 -0.137999 -0.136473 -0.136997 -0.131402 
-0.131336 -0.131028 -0.112562 -0.141981 -0.137178 -0.136959 -0.137669 -0.143798 -0.144189 
-0.142139 -0.0889611 -0.0948613 -0.0900483 -0.130328 -0.12912 -0.130576 -0.125949 -0.139523 
-0.136694 -0.11884 -0.123691 -0.126227 -0.129828 -0.130928 -0.126737 -0.124748 -0.147912 
-0.105458 -0.0979999 -0.104153 -0.136507 -0.13688 -0.136892 -0.130295 -0.141556 -0.136493 
-0.136898 -0.136392 -0.112626 -0.105423 -0.110584 -0.11925 -0.133922 -0.138714 -0.120325 
-0.122197 -0.130418 -0.13539 -0.136545 -0.124651 -0.123134 -0.112481 -0.115701 -0.128834 
-0.118878 -0.121062 -0.114575 -0.123292 -0.125018 -0.120394 -0.126583 -0.127892 -0.124499 
-0.129054 -0.129925 -0.127603 -0.130809 -0.131478 -0.129848 -0.132234 -0.13277 -0.131672 
-0.133353 -0.133761 -0.133108 -0.134168 -0.134339 -0.134144 -0.134627 -0.069528 -0.0875027 
-0.134915 -0.135143 -0.134911 -0.135354 -0.135538 -0.135479 -0.135711 -0.135864 -0.135879 
-0.136016 -0.136135 -0.136256 -0.136211 -0.136352 -0.136515 -0.136571 -0.136707 -0.136839 
-0.136783 -0.136797 -0.137155 -0.136677 -0.136597 -0.137127 -0.136501 -0.136298 -0.136914 
-0.135973 -0.135635 -0.136476 -0.135247 -0.134708 -0.135702 -0.133722 -0.132904 -0.134172 
-0.131967 -0.131271 -0.13207 -0.130265 -0.129849 -0.129929 -0.129181 -0.0807272 -0.0847268 
-0.128486 -0.128404 -0.128042 -0.121122 -0.121312 -0.126465 -0.125702 -0.129298 -0.128055 
-0.12725 -0.129604 -0.131285 -0.136587 -0.134638 -0.121341 -0.125509 -0.12951 -0.138778 
-0.140045 -0.140597 -0.108495 -0.136687 -0.136468 -0.137144 -0.0867196 -0.10198 -0.105227 
-0.106642 -0.132295 -0.128578 -0.133801 -0.123815 -0.116895 -0.143504 -0.140362 -0.140704 
-0.0996479 -0.123513 -0.128468 -0.127294 -0.127796 -0.129051 -0.137683 -0.137857 -0.137594 
-0.132362 -0.104064 -0.1098 -0.102897 -0.0985647 -0.100776 -0.104739 -0.103911 -0.0432989 
-0.101233 -0.102533 -0.108485 -0.125433 -0.13252 -0.130503 -0.136733 -0.1367 -0.137055 
-0.137479 -0.103205 -0.141897 -0.137092 -0.136925 -0.136846 -0.136639 -0.136791 -0.136506 
-0.109481 -0.113342 -0.110754 -0.136485 -0.115957 -0.113454 -0.126384 -0.113575 -0.13394 
-0.134432 -0.134895 -0.135264 -0.134708 -0.135567 -0.13579 -0.135541 -0.136857 -0.136934 
-0.136135 -0.136474 -0.137134 -0.137432 -0.137864 -0.137658 -0.137976 -0.140603 -0.138968 
-0.137644 -0.135684 -0.109794 -0.128045 -0.123468 -0.13358 -0.131328 -0.1375 -0.137312 
-0.137346 -0.137808 -0.112866 -0.117116 -0.119755 -0.112585 -0.0997432 -0.11917 -0.120049 
-0.125161 -0.122383 -0.124308 -0.119366 -0.125663 -0.127125 -0.123809 -0.128549 -0.129672 
-0.126809 -0.130885 -0.131741 -0.129619 -0.132499 -0.133228 -0.133411 -0.131823 -0.136065 
-0.13598 -0.136201 -0.136443 -0.136639 -0.136532 -0.134339 -0.135346 -0.137393 -0.137512 
-0.13756 -0.137408 -0.137361 -0.136903 -0.137018 -0.136252 -0.137835 -0.129552 -0.117625 
-0.135793 -0.134884 -0.133848 -0.136281 -0.136081 -0.135598 -0.135889 -0.137778 -0.137195 
-0.137501 -0.136526 -0.136226 -0.136192 -0.136805 -0.135128 -0.135524 -0.129499 -0.128097 
-0.135722 -0.134617 -0.116815 -0.12035 -0.122119 -0.124533 -0.126325 -0.128957 -0.130263 
-0.131178 -0.12691 -0.13636 -0.136659 -0.137854 -0.121676 -0.13239 -0.133405 -0.137695 
-0.137456 -0.13722 -0.131154 -0.136941 -0.127995 -0.133321 -0.133356 -0.133347 -0.133567 
-0.133455 -0.133465 -0.133991 -0.133739 -0.133728 -0.13461 -0.134247 -0.134153 -0.135499 
-0.134973 -0.13475 -0.136643 -0.135976 -0.135557 -0.138 -0.137239 -0.136596 -0.139394 
-0.138612 -0.137787 -0.14102 -0.140103 -0.139071 -0.142551 -0.141706 -0.14044 -0.143892 
-0.14316 -0.141727 -0.144771 -0.144366 -0.142803 -0.144924 -0.144907 -0.143436 -0.144358 
-0.144748 -0.143454 -0.1431 -0.143923 -0.142863 -0.141339 -0.142386 -0.141694 -0.139236 
-0.140464 -0.140128 -0.137146 -0.138307 -0.138345 -0.135397 -0.136331 -0.136611 -0.134154 
-0.134729 -0.135155 -0.133468 -0.133709 -0.134094 -0.133316 -0.111102 -0.13861 -0.141736 
-0.133276 -0.140552 -0.129644 -0.127144 -0.129443 -0.133503 -0.123978 -0.125032 -0.128809 
-0.122898 -0.123113 -0.126364 -0.122798 -0.122604 -0.125236 -0.123294 -0.122879 -0.124955 
-0.124235 -0.123625 -0.125289 -0.125274 -0.124665 -0.125926 -0.126299 -0.125673 -0.126688 
-0.127437 -0.126778 -0.12749 -0.1286 -0.127963 -0.128421 -0.129747 -0.129105 -0.129395 
-0.130764 -0.130209 -0.130312 -0.131737 -0.131233 -0.131188 -0.132603 -0.132132 -0.13201 
-0.13332 -0.132949 -0.132723 -0.133872 -0.133594 -0.133304 -0.134255 -0.134069 -0.133754 
-0.134485 -0.134381 -0.134071 -0.134534 -0.134521 -0.134238 -0.134444 -0.134517 -0.134256 
-0.134209 -0.134352 -0.134134 -0.133892 -0.13408 -0.133919 -0.133549 -0.133739 -0.13363 
-0.133234 -0.133396 -0.133327 -0.132977 -0.133112 -0.133066 -0.132812 -0.132897 -0.132867 
-0.13275 -0.132769 -0.132746 -0.132794 -0.13276 -0.132731 -0.132911 -0.132843 -0.1328 
-0.13306 -0.132981 -0.132924 -0.133206 -0.133136 -0.133075 -0.133308 -0.133266 -0.13322 
-0.0622023 -0.133227 -0.133315 -0.132718 -0.133041 -0.133055 -0.131889 -0.132445 -0.132593 
-0.130688 -0.131374 -0.131745 -0.129486 -0.130062 -0.130606 -0.129213 -0.128261 -0.130493 
-0.129745 -0.128238 -0.129494 -0.13022 -0.12918 -0.126025 -0.128064 -0.127611 -0.121237 
-0.123951 -0.123847 -0.116487 -0.119377 -0.118871 -0.116713 -0.114175 -0.123454 -0.12031 
-0.122144 -0.125877 -0.124616 -0.127901 -0.125689 -0.125839 -0.128414 -0.1246 -0.125432 
-0.127724 -0.123556 -0.124277 -0.126907 -0.123525 -0.123642 -0.126528 -0.124544 -0.124452 
-0.127048 -0.129237 -0.126536 -0.128549 -0.136134 -0.132683 -0.130882 -0.150141 -0.13801 
-0.129086 -0.134817 -0.0331074 -0.0366099 -0.0249907 -0.0229267 -0.0592915 -0.0160941 -0.0152133 
-0.0435477 -0.0129801 -0.0125376 -0.027959 -0.0108436 -0.0106791 -0.0220456 -0.00850416 -0.00834227 
-0.0192108 -0.0100696 -0.0100903 -0.0197357 -0.00752528 -0.00758378 -0.0186072 -0.00853458 -0.00775177 
-0.0144873 -0.00847857 -0.00779401 -0.0143822 -0.00937954 -0.00667677 -0.0143349 -0.0084851 -0.00646099 
-0.0187549 -0.00857378 -0.00877876 -0.0153215 -0.00921055 -0.00844617 -0.0156879 -0.00828574 -0.00756469 
-0.0159161 -0.00986404 -0.010522 -0.0203187 -0.0100873 -0.00816815 -0.0212106 -0.0107968 -0.0103126 
-0.0206717 -0.0129603 -0.0104321 -0.0218187 -0.0223703 -0.0209768 -0.0342316 -0.179705 -0.228828 
-0.224799 -0.173376 -0.158475 -0.14427 -0.171028 -0.137929 -0.134415 -0.152805 -0.127525 
-0.126846 -0.138077 -0.122649 -0.122526 -0.126729 -0.119472 -0.120216 -0.121746 -0.117214 
-0.118498 -0.11697 -0.11467 -0.115013 -0.113002 -0.113531 -0.111657 -0.112754 -0.110688 
-0.111918 -0.111386 -0.104536 -0.095406 -0.102183 -0.0941666 -0.10449 -0.156995 -0.0631702 
-0.0815193 -0.0654216 -0.0478466 -0.09877 -0.0871683 -0.0723276 -0.110491 -0.0994353 -0.0921066 
-0.132217 -0.122554 -0.108589 -0.151846 -0.144009 -0.12559 -0.168645 -0.166676 -0.182565 
-0.174416 -0.164235 -0.19441 -0.18683 -0.204163 -0.2042 -0.173955 -0.207724 -0.206968 
-0.183194 -0.190411 -0.204943 -0.133349 -0.133424 -0.133351 -0.127568 -0.128658 -0.12878 
-0.113702 -0.112175 -0.114189 -0.115029 -0.128068 -0.096054 -0.165787 -0.168836 -0.099657 
-0.164854 -0.0551599 -0.164891 -0.17567 -0.159901 -0.10262 -0.101342 -0.0817933 -0.0730002 
-0.107596 -0.0955917 -0.0669862 -0.0767764 -0.145479 -0.171248 -0.177618 -0.0960944 -0.11849 
-0.133334 -0.0693389 -0.133837 -0.133665 -0.133529 -0.133428 -0.133372 -0.133588 -0.134741 
-0.134383 -0.135457 -0.135009 -0.13457 -0.136385 -0.135829 -0.135187 -0.137447 -0.136861 
-0.135998 -0.138619 -0.137952 -0.136974 -0.139837 -0.139178 -0.138046 -0.141007 -0.140411 
-0.139207 -0.141945 -0.141527 -0.140353 -0.142445 -0.142297 -0.141221 -0.142365 -0.142475 
-0.141611 -0.141714 -0.142107 -0.141446 -0.140495 -0.141196 -0.140712 -0.139066 -0.139889 
-0.139547 -0.13746 -0.138339 -0.13819 -0.135921 -0.13671 -0.136677 -0.134627 -0.135249 
-0.135229 -0.133674 -0.134142 -0.134101 -0.128385 -0.130144 -0.127601 -0.128222 -0.12778 
-0.128491 -0.124477 -0.120713 -0.104568 -0.0739704 -0.113746 -0.126636 -0.127134 -0.126661 
-0.126111 -0.126298 -0.127076 -0.126155 -0.126047 -0.127162 -0.126614 -0.126306 -0.127429 
-0.127215 -0.1268 -0.127785 -0.127841 -0.127484 -0.128304 -0.128591 -0.128169 -0.128929 
-0.129405 -0.12892 -0.12956 -0.130181 -0.129722 -0.130186 -0.130957 -0.13053 -0.130852 
-0.13173 -0.131303 -0.131524 -0.132433 -0.132056 -0.132169 -0.133018 -0.132699 -0.13274 
-0.133512 -0.133258 -0.133237 -0.133882 -0.133698 -0.133656 -0.134123 -0.134007 -0.133953 
-0.134218 -0.134186 -0.13413 -0.134172 -0.134208 -0.13416 -0.133991 -0.134097 -0.134056 
-0.133708 -0.133863 -0.133819 -0.13338 -0.133548 -0.133487 -0.133049 -0.13322 -0.133112 
-0.132799 -0.132924 -0.132787 -0.132623 -0.132705 -0.132552 -0.132554 -0.132586 -0.132415 
-0.132601 -0.132575 -0.132409 -0.13273 -0.132662 -0.132517 -0.132908 -0.132816 -0.132692 
-0.133109 -0.133015 -0.132923 -0.133292 -0.133207 -0.133167 -0.133375 -0.13197 -0.132603 
-0.125453 -0.125642 -0.130118 -0.130988 -0.131714 -0.130963 -0.130364 -0.131973 -0.128793 
-0.126558 -0.125128 -0.122601 -0.125559 -0.127721 -0.133642 -0.133111 -0.131546 -0.125478 
-0.13837 -0.129897 -0.130703 -0.128397 -0.129178 -0.131663 -0.127298 -0.127784 -0.129457 
-0.12646 -0.126856 -0.127375 -0.126075 -0.125898 -0.124516 -0.121026 -0.122853 -0.117341 
-0.101077 -0.110576 -0.0998176 -0.147518 -0.138343 -0.185377 -0.145447 -0.0400992 -0.0469519 
-0.0857763 -0.0344439 -0.0369275 -0.0517537 -0.0304634 -0.0317213 -0.0443741 -0.0275651 -0.0279348 
-0.0388 -0.0253072 -0.0262282 -0.0362909 -0.0240436 -0.0254388 -0.0335989 -0.0232175 -0.0240382 
-0.0325564 -0.0236756 -0.0232269 -0.0316475 -0.0227744 -0.0238628 -0.0311569 -0.0242484 -0.0236094 
-0.0323616 -0.0256668 -0.0259461 -0.033 -0.0271984 -0.0266263 -0.0347536 -0.0283099 -0.0277474 
-0.0363253 -0.0317666 -0.0295528 -0.0395666 -0.0321237 -0.0320657 -0.0427516 -0.0378452 -0.0362924 
-0.0465348 -0.055581 -0.0465084 -0.0577412 -0.0840802 -0.138371 -0.188727 -0.16349 -0.10067 
-0.0980385 -0.153147 -0.147737 -0.144761 -0.139021 -0.144831 -0.135771 -0.130774 -0.139314 
-0.130355 -0.126992 -0.134004 -0.125047 -0.122526 -0.129133 -0.115277 -0.112255 -0.128943 
-0.132747 -0.10603 -0.116416 -0.118282 -0.120455 -0.11053 -0.10807 -0.099315 -0.11574 
-0.170035 -0.164676 -0.158936 -0.153567 -0.154624 -0.174006 -0.172805 -0.174026 -0.17229 
-0.16263 -0.164181 -0.134209 -0.133959 -0.133843 -0.134134 -0.131748 -0.132506 -0.134214 
-0.149339 -0.157046 -0.146039 -0.127801 -0.105545 -0.144244 -0.134473 -0.123889 -0.124201 
-0.163868 -0.170471 -0.160741 -0.069593 -0.133233 -0.132977 -0.129981 -0.126468 -0.130152 
-0.161112 -0.157826 -0.155057 -0.125802 -0.128032 -0.133489 -0.133211 -0.13344 -0.115762 
-0.112137 -0.129038 -0.119244 -0.120408 -0.137323 -0.115006 -0.112597 -0.10316 -0.11841 
-0.125835 -0.134495 -0.144926 -0.142642 -0.0604369 -0.118131 -0.146565 -0.112776 -0.110362 
-0.157801 -0.16044 -0.145459 -0.107531 -0.115563 -0.115441 -0.117473 -0.121735 -0.118066 
-0.120411 -0.117017 -0.119801 -0.129102 -0.103985 -0.113828 -0.0880546 -0.12983 -0.123566 
-0.108455 -0.104167 -0.123058 -0.125387 -0.135483 -0.135024 -0.134278 -0.134019 -0.136365 
-0.135863 -0.13483 -0.137452 -0.136892 -0.135742 -0.138638 -0.138048 -0.136889 -0.139818 
-0.139307 -0.138203 -0.140721 -0.140379 -0.139475 -0.141085 -0.141005 -0.140385 -0.140829 
-0.141037 -0.14068 -0.139927 -0.140458 -0.140277 -0.138674 -0.139307 -0.139181 -0.137256 
-0.137984 -0.137821 -0.135931 -0.136691 -0.136499 -0.134477 -0.135152 -0.13506 -0.126445 
-0.122621 -0.134385 -0.131201 -0.133629 -0.133512 -0.133397 -0.159023 -0.158536 -0.124847 
-0.123701 -0.112059 -0.102618 -0.0843587 -0.127777 -0.127452 -0.128443 -0.128092 -0.128225 
-0.129096 -0.128754 -0.12907 -0.129741 -0.129386 -0.129848 -0.130377 -0.130023 -0.130494 
-0.130961 -0.130646 -0.131086 -0.13155 -0.131215 -0.131644 -0.132147 -0.131812 -0.132183 
-0.132714 -0.132398 -0.132696 -0.133188 -0.132931 -0.133158 -0.133617 -0.133388 -0.133579 
-0.133967 -0.133782 -0.133954 -0.1342 -0.134082 -0.134234 -0.134309 -0.134263 -0.134406 
-0.13426 -0.134294 -0.134431 -0.134053 -0.134167 -0.13429 -0.133703 -0.133891 -0.13398 
-0.13326 -0.133479 -0.133532 -0.132818 -0.133035 -0.132993 -0.132445 -0.132616 -0.132491 
-0.132181 -0.132294 -0.13209 -0.132092 -0.132128 -0.131857 -0.132169 -0.132123 -0.131833 
-0.13236 -0.13227 -0.131991 -0.132631 -0.132499 -0.132271 -0.132939 -0.132786 -0.132609 
-0.124558 -0.128285 -0.127122 -0.126832 -0.127362 -0.131428 -0.132788 -0.134781 -0.134439 
-0.13383 -0.134208 -0.139358 -0.141391 -0.140157 -0.140244 -0.128544 -0.130191 -0.132134 
-0.13371 -0.131659 -0.119397 -0.12219 -0.108512 -0.114394 -0.11131 -0.0833185 -0.0963765 
-0.0931791 -0.0700364 -0.0473651 -0.0493276 -0.0643896 -0.0681815 -0.0446836 -0.0460555 -0.055802 
-0.0419924 -0.0429205 -0.0525841 -0.0405232 -0.0410187 -0.0498583 -0.0398493 -0.0401037 -0.0484258 
-0.0400078 -0.0397273 -0.0481577 -0.0412177 -0.0405242 -0.0487416 -0.0426772 -0.0418391 -0.0501664 
-0.0446009 -0.0438284 -0.0521842 -0.0470786 -0.04601 -0.0548238 -0.0507837 -0.0493309 -0.0581879 
-0.05518 -0.0532475 -0.0627085 -0.0605352 -0.0579302 -0.068022 -0.11937 -0.119758 -0.103855 
-0.122672 -0.135522 -0.137366 -0.140931 -0.136301 -0.136929 -0.134599 -0.13074 -0.0532657 
-0.0568609 -0.0721252 -0.0608708 -0.153908 -0.156435 -0.15079 -0.134456 -0.124346 -0.12627 
-0.126336 -0.120391 -0.133533 -0.152509 -0.149936 -0.144032 -0.144164 -0.1464 -0.121001 
-0.118222 -0.107415 -0.118056 -0.121889 -0.125363 -0.127896 -0.136296 -0.131655 -0.126407 
-0.126065 -0.123577 -0.126108 -0.145118 -0.140163 -0.137373 -0.128121 -0.123924 -0.131277 
-0.121996 -0.119146 -0.125884 -0.126983 -0.152894 -0.14885 -0.143915 -0.133621 -0.133934 
-0.133769 -0.123601 -0.130355 -0.110876 -0.12266 -0.128414 -0.124435 -0.121848 -0.131375 
-0.131307 -0.133251 -0.133109 -0.132997 -0.133364 -0.161097 -0.156036 -0.157471 -0.14942 
-0.125276 -0.129226 -0.133745 -0.133973 -0.134804 -0.110924 -0.0982527 -0.100075 -0.15256 
-0.152616 -0.149342 -0.134354 -0.133245 -0.13087 -0.131602 -0.133732 -0.133481 -0.136859 
-0.15531 -0.149032 -0.157258 -0.0729299 -0.063758 -0.0739699 -0.0888684 -0.135399 -0.133456 
-0.144844 -0.122796 -0.150778 -0.157313 -0.158204 -0.134071 -0.133691 -0.137801 -0.137117 
-0.139286 -0.138728 -0.137682 -0.140315 -0.139962 -0.139386 -0.140576 -0.140583 -0.140395 
-0.139949 -0.140334 -0.140485 -0.138453 -0.139201 -0.139455 -0.136888 -0.137613 -0.137562 
-0.135405 -0.136002 -0.135766 -0.106571 -0.114026 -0.107138 -0.15288 -0.133821 -0.136489 
-0.129304 -0.128753 -0.128039 -0.127347 -0.12797 -0.131061 -0.130691 -0.131748 -0.131409 
-0.131636 -0.132308 -0.132021 -0.132336 -0.13281 -0.132533 -0.132917 -0.133263 -0.133002 
-0.13337 -0.133681 -0.133453 -0.133768 -0.134075 -0.133871 -0.134165 -0.134401 -0.134229 
-0.134534 -0.134625 -0.134507 -0.134809 -0.134752 -0.134696 -0.134989 -0.134686 -0.134729 
-0.135028 -0.134436 -0.134581 -0.134865 -0.133979 -0.134213 -0.134481 -0.133349 -0.133675 
-0.133857 -0.132663 -0.132979 -0.133085 -0.132062 -0.13234 -0.132267 -0.131592 -0.131797 
-0.131593 -0.131382 -0.131448 -0.131125 -0.13146 -0.131401 -0.130985 -0.131743 -0.131604 
-0.131175 -0.132146 -0.13196 -0.131584 -0.13261 -0.132386 -0.132106 -0.134432 -0.13371 
-0.133553 -0.138137 -0.135367 -0.129407 -0.132255 -0.130351 -0.131564 -0.139621 -0.0512778 
-0.0843816 -0.0962866 -0.0766615 -0.103977 -0.11036 -0.0951394 -0.0573587 -0.0584648 -0.0607494 
-0.0625768 -0.0677785 -0.0644503 -0.0659273 -0.0722294 -0.056394 -0.0567013 -0.0648717 -0.0569185 
-0.0568468 -0.0647731 -0.0577331 -0.0571032 -0.0654502 -0.0595105 -0.0586069 -0.0665872 -0.062118 
-0.0609617 -0.0688791 -0.065139 -0.0637799 -0.0718931 -0.0691177 -0.06696 -0.0752961 -0.0741211 
-0.0715375 -0.0796321 -0.080231 -0.0774086 -0.0854193 -0.136266 -0.135671 -0.135843 -0.135008 
-0.134466 -0.133248 -0.134321 -0.151671 -0.145005 -0.126526 -0.136866 -0.126495 -0.125742 
-0.126159 -0.130268 -0.129835 -0.129544 -0.130741 -0.143559 -0.150614 -0.146937 -0.126888 
-0.133927 -0.140664 -0.145655 -0.149105 -0.143069 -0.140428 -0.138322 -0.130114 -0.13349 
-0.131181 -0.135071 -0.153071 -0.105361 -0.0982883 -0.0866649 -0.11431 -0.119885 -0.125571 
-0.131346 -0.130481 -0.133763 -0.12561 -0.125682 -0.122097 -0.146851 -0.147497 -0.124275 
-0.117851 -0.113647 -0.153398 -0.153591 -0.150048 -0.151579 -0.132853 -0.132643 -0.133082 
-0.133429 -0.13528 -0.133269 -0.133137 -0.129376 -0.133302 -0.129087 -0.137747 -0.133523 
-0.133291 -0.132545 -0.132707 -0.138747 -0.136444 -0.151292 -0.133166 -0.133115 -0.132582 
-0.140434 -0.143025 -0.139596 -0.113002 -0.117105 -0.115635 -0.146758 -0.146688 -0.143853 
-0.138994 -0.124265 -0.125193 -0.124115 -0.134617 -0.0668759 -0.0706005 -0.0814987 -0.0748672 
-0.145035 -0.141623 -0.146678 -0.145235 -0.0837183 -0.115408 -0.111345 -0.102547 -0.122405 
-0.120473 -0.114306 -0.12117 -0.130074 -0.128852 -0.13221 -0.132771 -0.0921707 -0.133346 
-0.137619 -0.136663 -0.140604 -0.140827 -0.111143 -0.111936 -0.118326 -0.136389 -0.142551 
-0.127491 -0.12632 -0.144893 -0.145447 -0.132863 -0.132472 -0.132007 -0.131532 -0.132431 
-0.133884 -0.133655 -0.13429 -0.134071 -0.134366 -0.134703 -0.134489 -0.134791 -0.135045 
-0.134871 -0.135194 -0.135309 -0.135185 -0.13554 -0.13547 -0.135392 -0.135788 -0.135399 
-0.135437 -0.135848 -0.135134 -0.13528 -0.135685 -0.134575 -0.134881 -0.135272 -0.133762 
-0.134184 -0.134533 -0.132702 -0.133216 -0.133485 -0.131742 -0.132182 -0.132254 -0.130914 
-0.131267 -0.131098 -0.130452 -0.130632 -0.130257 -0.130448 -0.130397 -0.129874 -0.130849 
-0.130651 -0.130054 -0.131452 -0.131165 -0.130634 -0.13211 -0.131807 -0.131396 -0.13045 
-0.133957 -0.135524 -0.0993263 -0.133467 -0.133186 -0.133333 -0.133944 -0.0740507 -0.0764345 
-0.0899106 -0.0973523 -0.0840114 -0.0739493 -0.0733985 -0.147759 -0.14751 -0.143678 -0.144008 
-0.0716847 -0.072308 -0.0803276 -0.0819125 -0.0836989 -0.0874177 -0.137297 -0.140114 -0.134478 
-0.0744241 -0.0741399 -0.0823034 -0.0758759 -0.0748839 -0.0829934 -0.0784969 -0.0771018 -0.0847633 
-0.081493 -0.0800245 -0.087414 -0.0850755 -0.0833389 -0.0904785 -0.0902975 -0.0877319 -0.094672 
-0.0963497 -0.0929594 -0.0999032 -0.143541 -0.135342 -0.134475 -0.135215 -0.124742 -0.123428 
-0.123942 -0.139685 -0.138925 -0.137942 -0.140827 -0.140579 -0.140428 -0.141178 -0.142985 
-0.145599 -0.138368 -0.136934 -0.135985 -0.134848 -0.136627 -0.105528 -0.142282 -0.114295 
-0.117848 -0.132208 -0.131815 -0.116213 -0.135241 -0.134879 -0.142087 -0.128689 -0.127177 
-0.129536 -0.141881 -0.141658 -0.140576 -0.140516 -0.142519 -0.139684 -0.141725 -0.141812 
-0.131222 -0.130953 -0.130333 -0.132472 -0.13221 -0.126025 -0.12626 -0.121191 -0.0804096 
-0.131734 -0.131727 -0.119555 -0.121223 -0.120025 -0.148374 -0.147531 -0.144832 -0.132804 
-0.106572 -0.134657 -0.135238 -0.13653 -0.131754 -0.128515 -0.125556 -0.148436 -0.152259 
-0.131738 -0.131575 -0.130722 -0.130603 -0.131967 -0.132024 -0.131614 -0.13115 -0.133242 
-0.109362 -0.115616 -0.115338 -0.12261 -0.128467 -0.133452 -0.132766 -0.131202 -0.132755 
-0.139413 -0.138085 -0.14067 -0.135662 -0.134326 -0.13376 -0.132781 -0.129498 -0.10115 
-0.146026 -0.0922525 -0.10154 -0.101163 -0.119225 -0.119414 -0.13993 -0.131986 -0.130964 
-0.14058 -0.142632 -0.0832715 -0.142332 -0.140275 -0.143222 -0.119488 -0.120859 -0.123757 
-0.13527 -0.135025 -0.134771 -0.134542 -0.135204 -0.136048 -0.135875 -0.136281 -0.136169 
-0.136519 -0.136289 -0.13631 -0.136715 -0.136058 -0.136201 -0.136661 -0.135501 -0.135825 
-0.136327 -0.134506 -0.135015 -0.135522 -0.133094 -0.133834 -0.134223 -0.131572 -0.132276 
-0.132557 -0.13019 -0.130809 -0.130751 -0.129267 -0.129611 -0.129228 -0.129043 -0.129057 
-0.128376 -0.129634 -0.129347 -0.128506 -0.130584 -0.130156 -0.129478 -0.131178 -0.0903427 
-0.0899751 -0.0888461 -0.0872226 -0.0963532 -0.0901821 -0.0895914 -0.0968695 -0.142105 -0.141618 
-0.139539 -0.139886 -0.122723 -0.120326 -0.127415 -0.13761 -0.140117 -0.131452 -0.134796 
-0.0937677 -0.0923796 -0.0983957 -0.0964477 -0.0949384 -0.101758 -0.0990366 -0.0974626 -0.104011 
-0.103216 -0.100617 -0.106497 -0.107909 -0.10519 -0.110023 -0.135544 -0.133864 -0.132283 
-0.136861 -0.136411 -0.122753 -0.120467 -0.129483 -0.12893 -0.128339 -0.11295 -0.110181 
-0.135689 -0.135482 -0.136165 -0.132644 -0.132007 -0.133868 -0.134133 -0.136115 -0.135477 
-0.114287 -0.139452 -0.123486 -0.139056 -0.142063 -0.117435 -0.129553 -0.120246 -0.121918 
-0.122117 -0.138014 -0.13572 -0.126775 -0.125065 -0.122056 -0.149836 -0.0939728 -0.102493 
-0.13833 -0.138284 -0.131133 -0.13031 -0.131278 -0.13473 -0.134378 -0.134124 -0.130731 
-0.121951 -0.127065 -0.127415 -0.147125 -0.129271 -0.129209 -0.127455 -0.136776 -0.136259 
-0.136119 -0.144597 -0.134636 -0.136502 -0.135612 -0.137245 -0.136981 -0.137943 -0.115951 
-0.134794 -0.133524 -0.131389 -0.137065 -0.137283 -0.13718 -0.109879 -0.116388 -0.103359 
-0.133295 -0.132955 -0.133755 -0.130462 -0.138335 -0.137023 -0.13874 -0.126347 -0.12495 
-0.137173 -0.137112 -0.136974 -0.136803 -0.137408 -0.136683 -0.136959 -0.133873 -0.134781 
-0.129693 -0.130706 -0.127528 -0.128286 -0.127982 -0.127112 -0.127199 -0.126092 -0.128031 
-0.127595 -0.126414 -0.129576 -0.128859 -0.127985 -0.129921 -0.104487 -0.129507 -0.128384 
-0.12641 -0.12932 -0.109608 -0.108231 -0.129739 -0.135617 -0.13437 -0.11417 -0.136341 
-0.128451 -0.118197 -0.113131 -0.111774 -0.124484 -0.126457 -0.130471 -0.128236 -0.129589 
-0.132944 -0.136588 -0.136348 -0.136972 -0.111221 -0.110354 -0.115842 -0.0888548 -0.137018 
-0.137102 -0.137495 -0.137398 -0.1355 -0.135192 -0.12353 -0.125744 -0.12623 -0.123523 
-0.104142 -0.104826 -0.137189 -0.137108 -0.137745 -0.13672 -0.137532 -0.13703 -0.131012 
-0.129854 -0.137302 -0.138599 -0.135011 -0.127946 -0.13556 -0.136128 -0.131613 -0.132688 
-0.127367 -0.116961 -0.124102 -0.128709 -0.110952 -0.117859 -0.136882 -0.136927 -0.136098 
-0.13633 -0.137283 -0.136867 -0.121284 -0.132748 -0.135141 -0.132407 -0.131205 -0.133258 
-0.106264 -0.113335 -0.136471 -0.136102 -0.135841 -0.136944 -0.136785 -0.136917 -0.136756 
-0.134118 -0.129833 -0.13528 -0.135816 -0.130708 -0.133164 -0.116899 -0.121633 -0.121372 
-0.124907 -0.137859 -0.137746 -0.13773 -0.137814 -0.127608 -0.128017 -0.124496 -0.124237 
-0.127026 -0.137269 -0.136992 -0.135295 -0.134568 -0.134087 -0.133623 -0.134982 -0.125991 
-0.117467 -0.118933 -0.138676 -0.138134 -0.136092 -0.136302 -0.136766 -0.13645 -0.136959 
-0.134539 -0.133571 -0.134683 -0.136352 -0.135884 -0.136602 -0.13678 -0.132965 -0.136127 
-0.135746 -0.136372 -0.124302 -0.125169 -0.120967 -0.120344 -0.131469 -0.124816 -0.135685 
-0.135401 -0.0205274 -0.134559 -0.135353 -0.136509 -0.137064 -0.137822 -0.137369 -0.124791 
-0.120754 -0.131603 -0.129901 -0.129886 -0.13648 -0.136686 -0.127528 -0.128112 -0.127325 
-0.136127 -0.128748 -0.137701 -0.137499 -0.137482 -0.13787 -0.131805 -0.132102 -0.137377 
-0.137265 -0.135819 -0.137131 -0.137715 -0.133213 -0.134199 -0.137366 -0.126862 -0.136908 
-0.134923 -0.133396 -0.178118 -0.207425 -0.133355 -0.133333 -0.133153 -0.132846 -0.13238 
-0.131834 -0.131141 -0.130475 -0.129707 -0.129178 -0.129236 -0.127093 -0.11766 -0.115257 
-0.113357 -0.111503 -0.12037 -0.120653 -0.120873 -0.122079 -0.123816 -0.127716 -0.13059 
-0.137586 -0.147448 -0.121255 -0.116484 -0.114161 -0.121687 -0.119833 -0.120799 -0.124117 
-0.128874 -0.128896 -0.131386 -0.13192 -0.131623 -0.130851 -0.112066 -0.130602 -0.123185 
-0.123676 -0.123619 -0.123018 -0.122236 -0.121408 -0.129729 -0.173528 -0.133349 -0.13335 
-0.214352 -0.149606 -0.141168 -0.13375 -0.128898 -0.125773 -0.123504 -0.12199 -0.12092 
-0.12016 -0.120176 -0.12026 -0.12056 -0.120833 -0.121294 -0.121765 -0.122443 -0.123482 
-0.124112 -0.124688 -0.125366 -0.12592 -0.126615 -0.127158 -0.127835 -0.128919 -0.129552 
-0.13003 -0.130607 -0.131043 -0.13157 -0.131978 -0.132481 -0.133147 -0.133526 -0.133805 
-0.134088 -0.134276 -0.134473 -0.134598 -0.134728 -0.134848 -0.134838 -0.13479 -0.134702 
-0.13435 -0.134161 -0.133841 -0.133646 -0.133502 -0.133335 -0.13321 -0.133065 -0.132858 
-0.132961 -0.132784 -0.132767 -0.132833 -0.132899 -0.133009 -0.133091 -0.133152 -0.133223 
-0.133271 -0.133315 -0.133346 -0.133354 -0.134623 -0.134479 -0.132809 -0.132764 -0.132797 
-0.120364 -0.122969 -0.128359 -0.132842 -0.1348 -0.134013 -0.13295 -0.1333 -0.133219 
-0.133194 -0.133281 -0.133264 -0.13335 -0.133476 -0.133629 -0.133882 -0.134112 -0.134466 
-0.135155 -0.135716 -0.136218 -0.136909 -0.137499 -0.138275 -0.138942 -0.139722 -0.141285 
-0.142229 -0.142939 -0.143831 -0.144527 -0.145316 -0.145812 -0.146324 -0.146678 -0.146571 
-0.146361 -0.145953 -0.145421 -0.144581 -0.143688 -0.142644 -0.140675 -0.13938 -0.138369 
-0.13714 -0.136216 -0.135216 -0.13454 -0.133855 -0.133458 -0.133239 -0.13329 -0.134785 
-0.140457 -0.146519 -0.141695 -0.0329303 -0.0240886 -0.0304104 -0.0283312 -0.0289228 -0.0266621 
-0.0250827 -0.0236915 -0.0201106 -0.0178011 -0.0153305 -0.0135204 -0.0117006 -0.00793095 -0.00430358 
-0.00434561 -0.00327908 -0.00304465 -0.00514447 -0.00130363 -0.00155392 -0.00367131 -0.00692892 -0.0261241 
-0.0272949 -0.0291573 -0.0316558 -0.0268552 -0.0294194 -0.0230488 -0.0259378 -0.0176546 -0.0214524 
-0.0125637 -0.0151394 -0.00931285 -0.009271 -0.00469925 -0.00817662 -0.00201233 -0.00307687 -0.000761898 
0.00239703 -0.00046339 -5.15418e-05 -0.00469922 -0.0128521 -0.0102762 -0.131863 -0.129881 -0.0415237 
-0.0296839 -0.0607143 -0.0564357 -0.0686683 -0.0780338 -0.087592 -0.092907 -0.0982311 -0.107165 
-0.120562 -0.105007 -0.0920545 -0.115783 -0.115122 -0.13779 -0.11668 -0.145462 -0.104819 
-0.0108168 -0.0128883 -0.0156042 -0.0180576 -0.132626 -0.132747 -0.132594 -0.132717 -0.00878257 
-0.00776844 -0.0204754 -0.0293943 -0.0282825 -0.0244597 -0.0310271 -0.0319228 -0.0231486 -0.0668833 
-0.0571457 -0.0610773 -0.0261491 -0.0342162 -0.0038269 -0.00337426 -0.00438087 -0.00562967 -0.00434314 
-0.00409048 -0.00846396 -0.126317 -0.126581 -0.124122 -0.124043 -0.0239169 -0.0246083 -0.148245 
-0.161689 -0.0896054 -0.147059 -0.126787 -0.00277427 -0.121006 -0.129139 -0.13028 -0.127343 
-0.128427 -0.12988 -0.128411 -0.127835 -0.149858 -0.144848 -0.145015 -0.139216 -0.140228 
-0.15066 -0.152769 -0.149667 -0.137019 -0.136376 -0.136403 -0.133856 -0.134305 -0.134564 
-0.135124 -0.0603045 -0.0701037 -0.0682218 -0.124225 -0.125016 -0.129039 -0.136326 -0.136275 
-0.136019 -0.135948 -0.129636 -0.130631 -0.130503 -0.134376 -0.13432 -0.134649 -0.134593 
-0.124763 -0.125895 -0.126 -0.127105 -0.12377 -0.134897 -0.134835 -0.134542 -0.125778 
-0.128434 -0.128159 -0.142737 -0.144362 -0.143533 -0.0272072 -0.0282712 -0.0156124 -0.0250775 
-0.136569 -0.136845 -0.136655 -0.141831 -0.142867 -0.142375 -0.163751 -0.159208 -0.180551 
-0.13224 -0.12313 -0.144193 -0.0063922 -0.145239 -0.143785 -0.143712 -0.130106 -0.130238 
-0.130774 -0.136858 -0.137274 -0.136491 -0.136912 -0.132747 -0.129963 -0.132231 -0.129691 
-0.137868 -0.140852 -0.140889 -0.14138 -0.141358 -0.119655 -0.130271 -0.122371 -0.11919 
-0.122673 -0.123007 -0.124827 -0.132451 -0.133511 -0.134298 -0.117086 -0.134254 -0.134309 
-0.133924 -0.132877 -0.132959 -0.133094 -0.123026 -0.0493526 -0.045459 -0.0535559 -0.133548 
-0.133679 -0.133614 -0.143228 -0.143484 -0.142441 -0.142675 -0.141809 -0.142846 -0.117749 
-0.11656 -0.119664 -0.131351 -0.130845 -0.131045 -0.130528 -0.137738 -0.137739 -0.137143 
-0.137139 -0.140086 -0.139728 -0.140104 -0.139644 -0.1329 -0.137469 -0.136953 -0.137921 
-0.133017 -0.13294 -0.133064 -0.13134 -0.137445 -0.136576 -0.110165 -0.10628 -0.110945 
-0.10067 -0.137991 -0.137471 -0.138533 -0.0255182 -0.0141833 -0.0443188 -0.0355121 -0.132846 
-0.132669 -0.132786 -0.133725 -0.134119 -0.133882 -0.1343 -0.122499 -0.12452 -0.120206 
-0.122844 -0.128304 -0.128929 -0.127183 -0.127832 -0.130052 -0.131079 -0.130592 -0.129921 
-0.129933 -0.136074 -0.137169 -0.135556 -0.136644 -0.0933368 -0.108864 -0.00936243 -0.0129141 
-0.134315 -0.13317 -0.133393 -0.133286 -0.13352 -0.134145 -0.134009 -0.115192 -0.132488 
-0.131909 -0.130827 -0.138862 -0.139102 -0.138309 -0.112076 -0.112716 -0.114902 -0.136039 
-0.135269 -0.134814 -0.175653 -0.211658 -0.163255 -0.132805 -0.13276 -0.132758 -0.135831 
-0.136387 -0.13581 -0.00852852 -0.00567965 -0.0150249 -0.0254248 -0.0155256 -0.133416 -0.133545 
-0.133533 -0.138299 -0.137498 -0.138087 -0.133346 -0.137549 -0.139375 -0.13901 -0.13845 
-0.136244 -0.137006 -0.136237 -0.0232534 -0.023063 -0.016836 -0.128787 -0.129785 -0.129485 
-0.133653 -0.133469 -0.133751 -0.133501 -0.133031 -0.13295 -0.13278 -0.106707 -0.100894 
-0.107085 -0.137837 -0.140716 -0.13841 -0.031178 -0.0323993 -0.125011 -0.126897 -0.126278 
-0.054234 -0.0548616 -0.0461069 -0.0465986 -0.126714 -0.126021 -0.126747 -0.00903005 -0.122601 
-0.125803 -0.127839 -0.116575 -0.114792 -0.122568 -0.122227 -0.135001 -0.135094 -0.134179 
-0.13471 -0.134589 -0.134708 -0.135151 -0.125522 -0.125982 -0.123541 -0.135691 -0.134825 
-0.142977 -0.146919 -0.141628 -0.0192581 -0.128136 -0.128356 -0.128978 -0.132805 -0.132793 
-0.132895 -0.133901 -0.135529 -0.134918 -0.134428 -0.133539 -0.0992504 -0.151029 -0.169485 
-0.218022 -0.128706 -0.129079 -0.128429 -0.133289 -0.133252 -0.133409 -0.134897 -0.134595 
-0.13463 -0.132804 -0.132361 -0.133424 -0.134811 -0.135153 -0.0862409 -0.0993498 -0.0779395 
-0.113469 -0.121098 -0.119535 -0.135431 -0.135012 -0.121822 -0.0116681 -0.0176821 -0.00867967 
-0.013808 -0.0145094 -0.0208852 -0.129859 -0.130876 -0.131846 -0.119033 -0.12197 -0.113814 
-0.134688 -0.0303408 -0.0378699 -0.0301434 -0.13368 -0.13379 -0.133795 -0.133901 -0.134451 
-0.133026 -0.128651 -0.134853 -0.134527 -0.134014 -0.134066 -0.134147 -0.134211 -0.133665 
-0.133872 -0.133802 -0.133937 -0.133882 -0.135611 -0.135859 -0.133962 -0.130943 -0.130561 
-0.130582 -0.122561 -0.122763 -0.125184 -0.135082 -0.135599 -0.135081 -0.0434753 -0.0344869 
-0.0424612 -0.126373 -0.130566 -0.129383 -0.14138 -0.0138853 -0.0734978 -0.0650391 -0.0672843 
-0.0821072 -0.0809315 -0.0899327 -0.13357 -0.131849 -0.131561 -0.132043 -0.128898 -0.128469 
-0.129917 -0.132452 -0.132419 -0.0255687 -0.0270016 -0.00962045 -0.0401415 -0.0478704 -0.0277058 
-0.135491 -0.134982 -0.137415 -0.137272 -0.137445 -0.13725 -0.102823 -0.109367 -0.108519 
-0.109925 -0.113234 -0.142884 -0.138602 -0.141891 -0.136491 -0.132247 -0.132434 -0.133073 
-0.132995 -0.13238 -0.132275 -0.131905 -0.11036 -0.109825 -0.106489 -0.132613 -0.13248 
-0.13277 -0.132656 -0.141023 -0.141444 -0.142501 -0.132751 -0.132718 -0.132737 -0.137574 
-0.132667 -0.131588 -0.133111 -0.132049 -0.153818 -0.155792 -0.128445 -0.133584 -0.129158 
-0.135631 -0.136023 -0.135413 -0.135776 -0.119056 -0.122288 -0.123281 -0.135507 -0.135897 
-0.13598 -0.138918 -0.1394 -0.138471 -0.0647091 -0.0662518 -0.0716811 -0.0730089 -0.150343 
-0.139352 -0.15806 -0.151466 -0.157855 -0.154462 -0.117647 -0.113453 -0.117059 -0.0205947 
-0.0205222 -0.00840455 -0.132158 -0.1326 -0.132112 -0.130279 -0.129654 -0.130032 -0.127883 
-0.127351 -0.124695 -0.123275 -0.092771 -0.101322 -0.0848246 -0.080273 -0.115447 -0.096912 
-0.119298 -0.0496047 -0.061423 -0.124881 -0.0568533 -0.105822 -0.121132 -0.119882 -0.12311 
-0.131709 -0.131386 -0.131939 -0.136345 -0.137314 -0.132517 -0.136003 -0.136905 -0.138757 
-0.131815 -0.129674 -0.139974 -0.140631 -0.137879 -0.137437 -0.137026 -0.0389876 -0.0403871 
-0.13304 -0.133104 -0.133027 -0.1405 -0.135489 -0.129436 -0.138673 -0.139511 -0.138479 
-0.134204 -0.134195 -0.133685 -0.134063 -0.136196 -0.0320018 -0.0171705 -0.127474 -0.127887 
-0.128136 -0.128346 -0.12901 -0.128874 -0.133943 -0.134062 -0.133683 -0.123707 -0.125965 
-0.130692 -0.13028 -0.130222 -0.126541 -0.126598 -0.132483 -0.128158 -0.131743 -0.131814 
-0.132065 -0.132494 -0.132443 -0.134272 -0.134151 -0.134219 -0.134084 -0.131503 -0.131344 
-0.130881 -0.140658 -0.14026 -0.133156 -0.133815 -0.132173 -0.141263 -0.141597 -0.142249 
-0.136892 -0.137126 -0.137161 -0.133924 -0.133788 -0.133832 -0.133658 -0.14445 -0.143323 
-0.116756 -0.116185 -0.131574 -0.123777 -0.128078 -0.125599 -0.133395 -0.133503 -0.1333 
-0.133388 -0.117169 -0.119731 -0.120532 -0.131183 -0.1314 -0.130851 -0.0189263 -0.125169 
-0.12375 -0.12539 -0.0627318 -0.0541335 -0.0542174 -0.149709 -0.14671 -0.133046 -0.137249 
-0.0301144 -0.0378207 -0.0378764 -0.0375029 -0.0462588 -0.135276 -0.135179 -0.135729 -0.0764101 
-0.072077 -0.0646842 -0.0232991 -0.0195438 -0.0135324 -0.131593 -0.131744 -0.131188 -0.138523 
-0.137645 -0.137665 -0.136763 -0.13356 -0.133017 -0.133569 -0.133014 -0.127096 -0.128332 
-0.125876 -0.131475 -0.129426 -0.135987 -0.139251 -0.140572 -0.140497 -0.140606 -0.134004 
-0.13448 -0.135896 -0.136418 -0.121022 -0.117682 -0.123073 -0.135005 -0.134551 -0.134571 
-0.133993 -0.134121 -0.133846 -0.133971 -0.132978 -0.150784 -0.148119 -0.0310322 -0.0306878 
-0.0219329 -0.134176 -0.134062 -0.129996 -0.131489 -0.12014 -0.116956 -0.114391 -0.0487497 
-0.0562498 -0.0477411 -0.115979 -0.135163 -0.134626 -0.115473 -0.11975 -0.114841 -0.136643 
-0.136591 -0.157987 -0.153801 -0.157088 -0.154245 -0.0793011 -0.0786587 -0.0726006 -0.0717074 
-0.136099 -0.134936 -0.134904 -0.0732623 -0.0997049 -0.15059 -0.127948 -0.128645 -0.129093 
-0.132239 -0.132683 -0.12688 -0.12605 -0.128646 -0.128753 -0.196506 -0.188523 -0.13864 
-0.131755 -0.134264 -0.138758 -0.140348 -0.138066 -0.132381 -0.135767 -0.131878 -0.137357 
-0.137607 -0.137119 -0.133523 -0.133201 -0.133706 -0.133882 -0.133588 -0.134074 -0.136283 
-0.136454 -0.0136664 -0.0160543 -0.133146 -0.13094 -0.134551 -0.123739 -0.123571 -0.127862 
-0.178085 -0.170623 -0.17569 -0.137081 -0.138169 -0.142054 -0.145713 -0.150397 -0.118237 
-0.123488 -0.123711 -0.124382 -0.13189 -0.1315 -0.131882 -0.133125 -0.132758 -0.130818 
-0.130403 -0.130105 -0.158223 -0.16214 -0.170273 -0.149793 -0.1489 -0.154147 -0.13646 
-0.136255 -0.137079 -0.130073 -0.140585 -0.141283 -0.140314 -0.141079 -0.0938198 -0.10363 
-0.0891179 -0.16262 -0.146625 -0.175459 -0.133238 -0.133431 -0.13265 -0.158927 -0.163027 
-0.156768 -0.15514 -0.151145 -0.153459 -0.150111 -0.140226 -0.140168 -0.139763 -0.136369 
-0.136185 -0.136692 -0.140763 -0.139985 -0.140534 -0.131366 -0.131532 -0.128601 -0.133652 
-0.13364 -0.133441 -0.133446 -0.138552 -0.137903 -0.136978 -0.139181 -0.130524 -0.131868 
-0.127885 -0.130152 -0.130031 -0.0708059 -0.061814 -0.0555286 -0.0362911 -0.0140903 -0.0698048 
-0.0768337 -0.0785648 -0.126263 -0.126656 -0.123896 -0.0247916 -0.130279 -0.129807 -0.129511 
-0.134507 -0.134548 -0.132989 -0.133184 -0.132977 -0.127038 -0.127855 -0.0875355 -0.133227 
-0.133239 -0.133008 -0.151231 -0.131645 -0.13149 -0.131929 -0.0822889 -0.0811429 -0.135657 
-0.135536 -0.135246 -0.133927 -0.136383 -0.134561 -0.0423788 -0.0338093 -0.0345057 -0.131582 
-0.130749 -0.131595 -0.048247 -0.0389222 -0.0397291 -0.136535 -0.137148 -0.137126 -0.137754 
-0.129326 -0.12285 -0.117095 -0.122899 -0.13357 -0.133711 -0.050215 -0.0489703 -0.04063 
-0.0120015 -0.125231 -0.124381 -0.116563 -0.121517 -0.122518 -0.122515 -0.125072 -0.124114 
-0.132662 -0.132801 -0.139095 -0.140393 -0.139033 -0.140411 -0.118902 -0.124061 -0.119969 
-0.133314 -0.133414 -0.105471 -0.0964786 -0.101909 -0.12272 -0.124357 -0.124578 -0.127096 
-0.133125 -0.133324 -0.134564 -0.112009 -0.112896 -0.116698 -0.125899 -0.111869 -0.104406 
-0.105868 -0.136408 -0.136823 -0.136479 -0.136905 -0.0321323 -0.0401834 -0.0399131 -0.0327244 
-0.0410666 -0.134973 -0.135371 -0.118381 -0.113582 -0.0507933 -0.0491852 -0.0242647 -0.015378 
-0.119767 -0.116066 -0.126447 -0.124805 -0.130715 -0.0917731 -0.124817 -0.126533 -0.129543 
-0.127898 -0.133351 -0.138018 -0.139033 -0.138283 -0.139336 -0.00767141 -0.0129115 -0.052116 
-0.0445181 -0.0116237 -0.0315072 -0.150018 -0.148253 -0.150807 -0.143074 -0.140989 -0.142477 
-0.00796931 -0.0191229 -0.00801193 -0.150049 -0.0123283 -0.00755973 -0.145091 -0.147779 -0.144902 
-0.147733 -0.116872 -0.13428 -0.134039 -0.134102 -0.133509 -0.134609 -0.139277 -0.135912 
-0.137602 -0.0914836 -0.133757 -0.134144 -0.133966 -0.136711 -0.137034 -0.136223 -0.134835 
-0.134686 -0.134496 -0.123426 -0.126867 -0.134769 -0.13423 -0.134026 -0.0357923 -0.0274078 
-0.0787358 -0.133969 -0.13423 -0.137928 -0.137217 -0.13197 -0.131697 -0.140833 -0.140622 
-0.141175 -0.140898 -0.116269 -0.134148 -0.13639 -0.136293 -0.136855 -0.140613 -0.140325 
-0.14003 -0.140176 -0.135783 -0.124915 -0.126362 -0.125248 -0.123467 -0.141742 -0.141146 
-0.142284 -0.13623 -0.135723 -0.128956 -0.129457 -0.133439 -0.135121 -0.134489 -0.117459 
-0.12014 -0.115036 -0.135171 -0.134941 -0.070292 -0.0792419 -0.131388 -0.202524 -0.176577 
-0.162942 -0.150653 -0.157258 -0.152036 -0.143927 -0.141693 -0.14466 -0.133838 -0.133891 
-0.133726 -0.137004 -0.138634 -0.137755 -0.139068 -0.133967 -0.134066 -0.134373 -0.134521 
-0.132948 -0.135154 -0.133194 -0.133139 -0.139286 -0.139431 -0.140205 -0.13867 -0.138639 
-0.0965205 -0.107699 -0.105145 -0.130004 -0.129581 -0.129184 -0.110049 -0.130197 -0.129955 
-0.130517 -0.132423 -0.132666 -0.0634881 -0.0623069 -0.0640805 -0.0727836 -0.0747926 -0.0537715 
-0.0600857 -0.0644543 -0.0736929 -0.0782207 -0.131431 -0.131213 -0.130917 -0.130633 -0.129614 
-0.129369 -0.129168 -0.134106 -0.0607233 -0.0694551 -0.0708562 -0.131725 -0.132099 -0.131883 
-0.0219301 -0.129726 -0.13669 -0.13387 -0.128686 -0.128318 -0.127795 -0.13056 -0.131036 
-0.0911445 -0.0833432 -0.0927297 -0.0847331 -0.130406 -0.130218 -0.138654 -0.139711 -0.137808 
-0.137948 -0.13689 -0.137252 -0.136692 -0.114874 -0.11826 -0.144827 -0.143218 -0.13946 
-0.140399 -0.127707 -0.127319 -0.128001 -0.145238 -0.146885 -0.143991 -0.144516 -0.133348 
-0.133598 -0.133479 -0.133708 -0.132771 -0.129834 -0.131008 -0.127303 -0.127651 -0.145895 
-0.143978 -0.143094 -0.13949 -0.140961 -0.134333 -0.117266 -0.117992 -0.134744 -0.13446 
-0.131416 -0.132477 -0.132293 -0.133264 -0.130675 -0.129827 -0.129671 -0.128846 -0.135221 
-0.135288 -0.117638 -0.128333 -0.129074 -0.128091 -0.126024 -0.127364 -0.127165 -0.127948 
-0.0640425 -0.129851 -0.114561 -0.123624 -0.0128488 -0.0143793 -0.135146 -0.13212 -0.141833 
-0.138675 -0.128711 -0.12939 -0.129224 -0.129815 -0.131094 -0.132457 -0.132157 -0.132232 
-0.131935 -0.14019 -0.132675 -0.13238 -0.132576 -0.132272 -0.130784 -0.130564 -0.13181 
-0.132799 -0.132219 -0.132687 -0.148623 -0.146936 -0.153459 -0.131323 -0.131554 -0.137003 
-0.0792982 -0.0876286 -0.112611 -0.142916 -0.146189 -0.117671 -0.121889 -0.134677 -0.133358 
-0.132705 -0.133666 -0.133384 -0.131019 -0.00619202 -0.142518 -0.143268 -0.144518 -0.142377 
-0.139158 -0.138044 -0.141166 -0.0874178 -0.0950412 -0.0863532 -0.0940771 -0.0794356 -0.0858149 
-0.0622461 -0.0549157 -0.0630544 -0.13161 -0.131922 -0.131979 -0.107132 -0.142631 -0.140439 
-0.141247 -0.139146 -0.139235 -0.138576 -0.141223 -0.136811 -0.137942 -0.115669 -0.141157 
-0.13774 -0.135197 -0.145104 -0.138008 -0.140114 -0.138074 -0.139651 -0.132621 -0.132432 
-0.132542 -0.136274 -0.134348 -0.132964 -0.132978 -0.134949 -0.0898527 -0.135371 -0.135618 
-0.135698 -0.141286 -0.0880143 -0.0963871 -0.0940077 -0.131559 -0.130504 -0.132086 -0.131184 
-0.116565 -0.11944 -0.132127 -0.1372 -0.137342 -0.137604 -0.162952 -0.158542 -0.166969 
-0.114251 -0.140044 -0.139551 -0.13871 -0.128256 -0.126541 -0.128221 -0.139735 -0.138236 
-0.121653 -0.0730527 -0.0704316 -0.0636804 -0.124436 -0.125547 -0.123081 -0.124839 -0.109457 
-0.098283 -0.122854 -0.113049 -0.126744 -0.0932882 -0.0832355 -0.0873125 -0.0708558 -0.0793367 
-0.136433 -0.136816 -0.137568 -0.0957408 -0.102032 -0.103699 -0.136088 -0.135679 -0.135252 
-0.132256 -0.132841 -0.132261 -0.128629 -0.0705455 -0.0832913 -0.0785043 -0.0904807 -0.0239048 
-0.140475 -0.139902 -0.141147 -0.135233 -0.135588 -0.126749 -0.128978 -0.127749 -0.128775 
-0.126634 -0.127084 -0.131256 -0.127496 -0.096954 -0.0878716 -0.130814 -0.127595 -0.0754294 
-0.136031 -0.135644 -0.135312 -0.110844 -0.116245 -0.115685 -0.10433 -0.102066 -0.11475 
-0.11038 -0.110942 -0.14194 -0.063427 -0.0662306 -0.133886 -0.136765 -0.136953 -0.136084 
-0.135462 -0.146415 -0.144615 -0.142821 -0.132506 -0.132395 -0.0566264 -0.0577277 -0.113326 
-0.109572 -0.112931 -0.110602 -0.0986781 -0.0970296 -0.105252 -0.138064 -0.138032 -0.127938 
-0.126437 -0.127489 -0.127794 -0.126529 -0.130928 -0.129429 -0.153203 -0.128544 -0.127036 
-0.129355 -0.0933401 -0.0956765 -0.086718 -0.088845 -0.127159 -0.129573 -0.07127 -0.130583 
-0.131172 -0.128689 -0.125012 -0.126131 -0.127818 -0.126266 -0.125826 -0.136855 -0.0594173 
-0.0677719 -0.135977 -0.132527 -0.131944 -0.131796 -0.125541 -0.127452 -0.124835 -0.119802 
-0.136468 -0.123992 -0.125932 -0.120211 -0.133857 -0.133544 -0.133263 -0.135876 -0.135287 
-0.135591 -0.137763 -0.139491 -0.140164 -0.133527 -0.135989 -0.132815 -0.13278 -0.144567 
-0.143589 -0.133743 -0.133864 -0.116331 -0.122921 -0.120473 -0.136909 -0.136635 -0.137161 
-0.132621 -0.134282 -0.134223 -0.134316 -0.14526 -0.145139 -0.133181 -0.133229 -0.133167 
-0.132263 -0.132433 -0.132787 -0.130324 -0.129717 -0.129367 -0.122256 -0.118289 -0.13155 
-0.141693 -0.143137 -0.103899 -0.133345 -0.132007 -0.13445 -0.110175 -0.162167 -0.155453 
-0.157428 -0.133471 -0.137062 -0.136433 -0.127081 -0.126453 -0.127629 -0.0482036 -0.0510442 
-0.0604349 -0.128029 -0.127546 -0.128513 -0.131389 -0.1291 -0.131105 -0.12609 -0.141631 
-0.147452 -0.122901 -0.122829 -0.120282 -0.120841 -0.129355 -0.141487 -0.0687566 -0.0384071 
-0.108482 -0.122268 -0.124567 -0.134473 -0.134163 -0.134225 -0.134189 -0.132234 -0.130976 
-0.134188 -0.130097 -0.12977 -0.12972 -0.125878 -0.139324 -0.135279 -0.135663 -0.122398 
-0.125028 -0.124781 -0.134656 -0.134544 -0.134229 -0.133312 -0.133289 -0.133336 -0.133317 
-0.133227 -0.133303 -0.130094 -0.129388 -0.129772 -0.132643 -0.133361 -0.127016 -0.126413 
-0.127086 -0.133629 -0.133533 -0.130382 -0.130812 -0.118402 -0.133308 -0.132971 -0.132929 
-0.105732 -0.103481 -0.132871 -0.133135 -0.129761 -0.12553 -0.121481 -0.133328 -0.135855 
-0.133341 -0.135924 -0.135058 -0.134939 -0.13464 -0.133425 -0.00734724 -0.00613858 -0.0512391 
-0.180899 -0.132785 -0.0304114 -0.0215442 -0.134553 -0.134272 -0.126861 -0.122819 -0.126955 
-0.159329 -0.13597 -0.145335 -0.133995 -0.134176 -0.105147 -0.121316 -0.119254 -0.128523 
-0.124832 -0.126252 -0.161261 -0.133582 -0.0333929 -0.157994 -0.132222 -0.131477 -0.131997 
-0.125076 -0.127275 -0.158813 -0.164362 -0.103471 -0.111103 -0.10423 -0.104653 -0.0961064 
-0.134247 -0.134084 -0.134347 -0.126675 -0.134865 -0.134505 -0.134461 -0.13741 -0.136327 
-0.135791 -0.132627 -0.111 -0.0955087 -0.144721 -0.133334 -0.133381 -0.115206 -0.122956 
-0.141851 -0.143775 -0.13353 -0.133399 -0.141642 -0.0755355 -0.124926 -0.12684 -0.127708 
-0.134378 -0.134595 -0.134128 -0.134317 -0.11208 -0.114817 -0.119049 -0.133148 -0.178171 
-0.208405 -0.180542 -0.133363 -0.134228 -0.134186 -0.134147 -0.0320363 -0.0972233 -0.0979073 
-0.0885766 -0.0894884 -0.133657 -0.133856 -0.13304 -0.13291 -0.140221 -0.140636 -0.0769667 
-0.127108 -0.124435 -0.122237 -0.128118 -0.128903 -0.133908 -0.139915 -0.0977195 -0.0790365 
-0.113652 -0.0993942 -0.159482 -0.161309 -0.111147 -0.0626781 -0.131794 -0.133857 -0.186705 
-0.192176 -0.181526 -0.190827 -0.168605 -0.133122 -0.133286 -0.139187 -0.116984 -0.123254 
-0.169947 -0.158932 -0.132515 -0.0957369 -0.0845687 -0.13699 -0.131506 -0.130343 -0.130274 
-0.172034 -0.137706 -0.14194 -0.141947 -0.142893 -0.140666 -0.0252498 -0.0272085 -0.0688109 
-0.0742974 -0.0738166 -0.0799762 -0.0839074 -0.100225 -0.135718 -0.122122 -0.117499 -0.0877528 
-0.0765237 -0.14087 -0.141757 -0.144123 -0.136806 -0.146449 -0.137489 -0.0413258 -0.00850559 
-0.00868775 -0.141442 -0.190788 -0.184558 -0.162147 -0.127885 -0.144801 -0.0233654 -0.138352 
-0.172831 -0.147616 -0.14792 -0.152425 -0.132639 -0.132565 -0.132682 -0.123916 -0.129617 
-0.134124 -0.134286 -0.134716 -0.133455 -0.133505 -0.156154 -0.148674 -0.147899 -0.133574 
-0.117913 -0.137429 -0.133217 -0.133107 -0.131335 -0.133489 -0.132124 -0.13162 -0.13391 
-0.134319 -0.132556 -0.137975 -0.137394 -0.140139 -0.130498 -0.126226 -0.125288 -0.121266 
-0.125274 -0.131656 -0.131 -0.131248 -0.137647 -0.137481 -0.137295 -0.129732 -0.130482 
-0.130733 -0.129958 -0.132954 -0.132607 -0.132328 -0.133176 -0.134041 -0.133098 -0.133286 
-0.134929 -0.134305 -0.136236 -0.135883 -0.136358 -0.134556 -0.121837 -0.132229 -0.218864 
-0.108315 -0.134427 -0.134116 -0.135993 -0.136074 -0.136451 -0.127812 -0.143814 -0.126548 
-0.102246 -0.131016 -0.130387 -0.0323247 -0.0412493 -0.126803 -0.127593 -0.0942094 -0.132487 
-0.132331 -0.0393875 -0.0312762 -0.134084 -0.133346 -0.124438 -0.139803 -0.078606 -0.0861082 
-0.0573154 -0.0522455 -0.0606171 -0.0733489 -0.123183 -0.130953 -0.135532 -0.136099 -0.132376 
-0.134092 -0.134371 -0.0982499 -0.130609 -0.129672 -0.128727 -0.133245 -0.140509 -0.129041 
-0.128168 -0.12889 -0.129231 -0.136838 -0.137723 -0.0379242 -0.133271 -0.13316 -0.141112 
-0.129959 -0.121798 -0.140626 -0.140511 -0.13694 -0.140845 -0.0888352 -0.140266 -0.138336 
-0.131604 -0.134311 -0.135353 -0.134887 -0.128604 -0.132654 -0.137783 -0.133599 -0.137547 
-0.137372 -0.143137 -0.0167931 -0.160488 -0.0410819 -0.0445704 -0.0527811 -0.133045 -0.133278 
-0.133095 -0.118854 -0.115646 -0.120633 -0.136591 -0.136182 -0.136401 -0.13479 -0.134504 
-0.127869 -0.121836 -0.11986 -0.136767 -0.127518 -0.13753 -0.137483 -0.130327 -0.124274 
-0.125862 -0.124927 -0.0943692 -0.0841422 -0.0921731 -0.0822433 -0.131571 -0.131929 -0.126609 
-0.124649 -0.115333 -0.113666 -0.116526 -0.0879712 -0.0802578 -0.146505 -0.115228 -0.118873 
-0.120938 -0.125407 -0.122286 -0.123582 -0.144481 -0.0433185 -0.11085 -0.112096 -0.135312 
-0.135846 -0.00967104 -0.00598642 -0.032327 -0.0444627 -0.136168 -0.138997 -0.139348 -0.119325 
-0.136508 -0.127232 -0.127323 -0.114502 -0.110438 -0.132931 -0.133024 -0.13282 -0.119824 
-0.124487 -0.122855 -0.107445 -0.111672 -0.104739 -0.0969525 -0.10182 -0.136844 -0.131738 
-0.132151 -0.133258 -0.133438 -0.133837 -0.175481 -0.128968 -0.127723 -0.13277 -0.133133 
-0.133934 -0.133658 -0.13608 -0.140525 -0.134705 -0.134195 -0.125078 -0.0949836 -0.13313 
-0.133215 -0.132974 -0.132503 -0.133472 -0.126879 -0.135079 -0.133913 -0.134542 -0.134274 
-0.0716022 -0.0610073 -0.127109 -0.131937 -0.131182 -0.136215 -0.134172 -0.124197 -0.122063 
-0.0868534 -0.0772017 -0.0663405 -0.129171 -0.127618 -0.134143 -0.123783 -0.133796 -0.139068 
-0.101043 -0.105394 -0.101216 -0.180134 -0.202518 -0.135585 -0.13593 -0.135306 -0.134115 
-0.133711 -0.138004 -0.0877123 -0.128281 -0.141269 -0.141677 -0.142272 -0.132445 -0.132712 
-0.115734 -0.108418 -0.108822 -0.102109 -0.133157 -0.0803587 -0.131662 -0.127898 -0.135801 
-0.101261 -0.13336 -0.105935 -0.0973554 -0.109257 -0.137143 -0.154587 -0.148591 -0.152369 
-0.134065 -0.135848 -0.135858 -0.136987 -0.126822 -0.136979 -0.131308 -0.0144227 -0.0226124 
-0.0160168 -0.134251 -0.038729 -0.0462576 -0.131943 -0.132003 -0.131622 -0.134979 -0.134757 
-0.142794 -0.129527 -0.137785 -0.137029 -0.139897 -0.139727 -0.134114 -0.133163 -0.134432 
-0.13512 -0.137872 -0.137729 -0.131731 -0.134004 -0.127328 -0.134962 -0.134851 -0.135334 
-0.133872 -0.133626 -0.133879 -0.133233 -0.129821 -0.135071 -0.134306 -0.13631 -0.135974 
-0.132944 -0.132491 -0.132591 -0.132453 -0.0991292 -0.13469 -0.129557 -0.133361 -0.129214 
-0.128558 -0.200194 -0.107151 -0.0233434 -0.0878577 -0.132319 -0.132715 -0.0467557 -0.135365 
-0.145812 -0.14235 -0.150788 -0.131138 -0.134136 -0.129874 -0.130395 -0.134059 -0.139648 
-0.138866 -0.132223 -0.132187 -0.133659 -0.13384 -0.133663 -0.125517 -0.121175 -0.110364 
-0.117792 -0.147801 -0.167728 -0.133762 -0.133865 -0.0820971 -0.110095 -0.134184 -0.132866 
-0.130558 -0.134015 -0.140699 -0.142627 -0.128669 -0.0265297 -0.0243634 -0.139887 -0.141433 
-0.130133 -0.136989 -0.136528 -0.136537 -0.139445 -0.136027 -0.136856 -0.137667 -0.137349 
-0.108731 -0.129526 -0.136783 -0.137132 -0.0637347 -0.050573 -0.0398898 -0.0347338 -0.0254479 
-0.133765 -0.12761 -0.126894 -0.133912 -0.110825 -0.131344 -0.134864 -0.13504 -0.0146063 
-0.019964 -0.131861 -0.138698 -0.131339 -0.131113 -0.13086 -0.113318 -0.109634 -0.131972 
-0.0630359 -0.125813 -0.12534 -0.124018 -0.123691 -0.124095 -0.13034 -0.131018 -0.135587 
-0.135755 -0.130053 -0.130641 -0.13029 -0.130648 -0.128667 -0.130226 -0.128848 -0.13272 
-0.133008 -0.133292 -0.0526587 -0.129185 -0.114379 -0.133521 -0.133286 -0.133244 -0.141379 
-0.13315 -0.0371341 -0.0466042 -0.0357333 -0.135874 -0.133993 -0.120897 -0.134235 -0.13452 
-0.134347 -0.13344 -0.134334 -0.132231 -0.131849 -0.132237 -0.132348 -0.132476 -0.131107 
-0.130602 -0.126872 -0.126603 -0.125058 -0.132917 -0.160202 -0.147137 -0.155394 -0.153316 
-0.135504 -0.134927 -0.133407 -0.00731086 -0.164606 -0.0444517 -0.0532377 -0.146517 -0.143913 
-0.121416 -0.119287 -0.0919128 -0.0121918 -0.0234675 -0.0807321 -0.134227 -0.0227115 -0.0164687 
-0.125691 -0.118796 -0.126392 -0.124219 -0.126172 -0.125385 -0.136868 -0.136439 -0.1359 
-0.13966 -0.135108 -0.134922 -0.135596 -0.136503 -0.134832 -0.0833272 -0.075221 -0.134071 
-0.134259 -0.129742 -0.134416 -0.11257 -0.0988997 -0.129108 -0.00641914 -0.00768118 -0.133466 
-0.130256 -0.128489 -0.0368256 -0.0162052 -0.0542381 -0.133831 -0.0975499 -0.138331 -0.0579255 
-0.127013 -0.127194 -0.127044 -0.12979 -0.145089 -0.136826 -0.137011 -0.136314 -0.132753 
-0.129603 -0.12825 -0.14505 -0.144397 -0.137971 -0.137938 -0.13368 -0.129246 -0.1325 
-0.131586 -0.132089 -0.11537 -0.120094 -0.122254 -0.120659 -0.132744 -0.13284 -0.119691 
-0.133671 -0.132948 -0.130339 -0.132219 -0.13226 -0.13375 -0.1316 -0.132177 -0.132886 
-0.133143 -0.123679 -0.132742 -0.129406 -0.131027 -0.122015 -0.124814 -0.118515 -0.136843 
-0.132322 -0.112323 -0.136511 -0.126816 -0.129065 -0.13319 -0.133052 -0.0386783 -0.04702 
-0.0466868 -0.0467245 -0.0549216 -0.132731 -0.134923 -0.1203 -0.115636 -0.111308 -0.132448 
-0.132418 -0.132587 -0.173212 -0.16554 -0.164954 -0.158107 -0.152105 -0.164326 -0.122214 
-0.127574 -0.142503 -0.133279 -0.139327 -0.11547 -0.133801 -0.13692 -0.133324 -0.141236 
-0.129915 -0.130874 -0.132067 -0.131304 -0.102829 -0.100117 -0.118542 -0.115364 -0.138355 
-0.0565549 -0.0856847 -0.126841 -0.128637 -0.13536 -0.0628555 -0.0897604 -0.0800299 -0.134407 
-0.133429 -0.133316 -0.133965 -0.129518 -0.136627 -0.132331 -0.134359 -0.136292 -0.134125 
-0.133733 -0.135168 -0.135495 -0.127516 -0.0998406 -0.111187 -0.117913 -0.126088 -0.127959 
-0.124596 -0.137068 -0.13251 -0.128225 -0.133164 -0.1342 -0.13405 -0.130997 -0.131389 
-0.135887 -0.135553 -0.135116 -0.142237 -0.126841 -0.127199 -0.129012 -0.129162 -0.0809992 
-0.124811 -0.128546 -0.124876 -0.0689197 -0.0716369 -0.13563 -0.135779 -0.133762 -0.133498 
-0.133251 -0.133153 -0.134252 -0.134386 -0.134193 -0.133523 -0.132904 -0.132962 -0.121807 
-0.0557743 -0.116837 -0.132842 -0.132811 -0.132852 -0.133387 -0.12936 -0.127349 -0.131352 
-0.135929 -0.0334758 -0.132915 -0.125967 -0.128025 -0.131821 -0.0495923 -0.0351742 -0.127043 
-0.0818372 -0.0997358 -0.149039 -0.048532 -0.126105 -0.127211 -0.100565 -0.10545 -0.118873 
-0.115168 -0.105979 -0.124395 -0.167241 -0.13457 -0.134018 -0.139855 -0.140352 -0.14024 
-0.133644 -0.141633 -0.122668 -0.128999 -0.126464 -0.125761 -0.127636 -0.137775 -0.133622 
-0.13278 -0.0730079 -0.0782996 -0.129757 -0.132903 -0.120712 -0.135127 -0.13613 -0.168398 
-0.131025 -0.131379 -0.128364 -0.128926 -0.0577853 -0.130725 -0.151176 -0.13758 -0.136912 
-0.126231 -0.135657 -0.135058 -0.139947 -0.139613 -0.139011 -0.11417 -0.106138 -0.122836 
-0.0983018 -0.127015 -0.099826 -0.137177 -0.109249 -0.133832 -0.133326 -0.133498 -0.133284 
-0.130318 -0.133161 -0.127357 -0.0229765 -0.00883783 -0.0212192 -0.130395 -0.0585436 -0.133272 
-0.132719 -0.132668 -0.136009 -0.134964 -0.128215 -0.127763 -0.131583 -0.131825 -0.13058 
-0.130345 -0.139211 -0.0991713 -0.136151 -0.12749 -0.121955 -0.133917 -0.128932 -0.127941 
-0.149275 -0.133453 -0.132215 -0.133468 -0.133771 -0.022964 -0.129871 -0.129495 -0.00551153 
-0.113321 -0.0250206 -0.109006 -0.0990315 -0.114496 -0.139577 -0.143867 -0.131916 -0.14094 
-0.00918982 -0.12541 -0.13564 -0.134425 -0.131917 -0.132212 -0.132198 -0.139835 -0.131602 
-0.130235 -0.141324 -0.0970928 -0.106851 -0.0896369 -0.131133 -0.143737 -0.132531 -0.132905 
-0.149962 -0.103315 -0.13247 -0.131041 -0.132054 -0.132193 -0.111437 -0.111395 -0.0564256 
-0.0576939 -0.021749 -0.136874 -0.136579 -0.151034 -0.128144 -0.123958 -0.128501 -0.126422 
-0.0691816 -0.142625 -0.133989 -0.135982 -0.136096 -0.125296 -0.131403 -0.131248 -0.133176 
-0.0509652 -0.0364944 -0.139982 -0.137071 -0.136828 -0.112611 -0.136819 -0.13604 -0.135909 
-0.0347533 -0.0255517 -0.0638347 -0.135982 -0.126649 -0.142752 -0.125996 -0.135295 -0.137036 
-0.123464 -0.133467 -0.133042 -0.125065 -0.139053 -0.124449 -0.128602 -0.137316 -0.13299 
-0.1316 -0.1337 -0.133093 -0.0391221 -0.141609 -0.0247462 -0.135291 -0.135436 -0.139718 
-0.134028 -0.133162 -0.130227 -0.124234 -0.121735 -0.134585 -0.0304599 -0.142023 -0.134027 
-0.136958 -0.141574 -0.133071 -0.116424 -0.0519579 -0.0307874 -0.0071887 -0.111332 -0.138903 
-0.134036 -0.0721972 -0.103205 -0.113631 -0.140449 -0.135458 -0.133145 -0.085882 -0.108212 
-0.125726 -0.134673 -0.147957 -0.134531 -0.134979 -0.11823 -0.134715 -0.174163 -0.163166 
-0.135281 -0.133435 -0.12037 -0.122812 -0.127006 -0.132693 -0.133019 -0.132394 -0.131567 
-0.131493 -0.122372 -0.137397 -0.132751 -0.133291 -0.127563 -0.1288 -0.13373 -0.130488 
-0.131076 -0.0214021 -0.0116168 -0.0136744 -0.13172 -0.143553 -0.140128 -0.14076 -0.160314 
-0.127 -0.129657 -0.134521 -0.0557815 -0.0472479 -0.0346946 -0.131254 -0.13134 -0.135186 
-0.145241 -0.132068 -0.117909 -0.0798863 -0.112411 -0.0465267 -0.109888 -0.0853449 -0.089885 
-0.148605 -0.130695 -0.132555 -0.121431 -0.137828 -0.13831 -0.113703 -0.132916 -0.140722 
-0.140668 -0.135703 -0.135832 -0.12855 -0.129551 -0.132923 -0.126812 -0.130429 -0.133716 
-0.127256 -0.137099 -0.130253 -0.135634 -0.13527 -0.134748 -0.132119 -0.136494 -0.133185 
-0.135536 -0.0592745 -0.131248 -0.132447 -0.132329 -0.0962663 -0.175511 -0.141091 -0.154902 
-0.141116 -0.141906 -0.154802 -0.136103 -0.132826 -0.03859 -0.1073 -0.136736 -0.109504 
-0.132754 -0.133311 -0.0513055 -0.134301 -0.01124 -0.104777 -0.13786 -0.132708 -0.136501 
-0.0682572 -0.105253 -0.134568 -0.131442 -0.134812 -0.123129 -0.119356 -0.0720368 -0.163574 
-0.173201 -0.134604 -0.130101 -0.0330046 -0.147371 -0.135303 -0.124461 -0.143618 -0.125834 
-0.132687 -0.0105052 -0.128782 -0.0932402 -0.137881 -0.055427 -0.141982 -0.131833 -0.0105182 
-0.0607775 -0.130273 -0.129641 -0.132916 -0.129267 -0.134396 -0.131511 -0.145899 
Strain%20xy%20component 1 9350 double
-0.305117 -0.33088 0.341508 0.310228 -4.14097e-05 -3.18311e-05 1.09114e-06 4.93291e-06 -0.0693621 
-0.0388301 -0.0222986 -0.0202249 0.0671576 0.0425511 -0.129203 -0.100129 -0.174 -0.130291 
-0.0960111 -0.0838542 -0.0683324 -0.0553067 -0.0479995 -0.0296641 -0.0239563 -0.0135828 -0.00312902 
0.00483427 0.0122276 0.0223352 0.0319181 0.0379882 0.0559324 0.0621687 0.0754743 0.0872482 
0.116868 0.175429 -0.170948 -0.108696 -0.0941052 -0.0759495 -0.0689561 -0.063289 -0.0589275 
-0.0468 -0.0323256 -0.018539 -0.0164783 -0.0145286 -0.0117637 0.00377047 0.0175509 0.0194131 
0.0220437 0.0257578 0.0380138 0.0524595 0.0682697 0.072213 0.0755459 0.0937389 0.114787 
0.162088 1.58517e-05 5.26419e-06 -1.24679e-05 -1.05482e-05 -6.34877e-06 -2.01159e-05 -2.6084e-05 -4.91436e-05 
-4.59881e-05 -4.29378e-05 -6.43422e-05 -5.53106e-05 -6.57686e-05 -6.80012e-05 -3.99278e-05 -2.89936e-05 8.51106e-06 
2.81406e-05 2.44086e-05 4.71701e-05 7.46191e-05 5.57416e-05 6.40133e-05 6.46058e-05 3.92334e-05 4.75755e-05 
-9.65899e-05 0.000256091 -0.00462391 -0.00219428 -0.000986475 -0.000516198 -0.000642834 -0.000680468 -0.000447349 
-0.000317808 -0.000250762 -0.0002482 -0.000178505 -0.000187952 -0.000160297 -0.00014587 -0.000127496 -8.32462e-05 
-9.06984e-05 -9.7852e-05 -0.000108564 -7.70302e-05 -4.72585e-05 -4.63951e-05 -5.58747e-05 -6.48227e-05 -1.42812e-05 
3.9676e-07 2.18633e-05 7.29762e-06 1.10082e-05 2.98985e-05 1.94061e-05 1.6409e-05 1.75909e-05 1.15183e-05 
5.55514e-07 -1.48853e-05 -1.02255e-05 -1.03772e-05 -1.99412e-05 -1.88432e-05 -1.67556e-05 -1.51363e-05 3.41748e-06 
2.04582e-05 -0.000153423 -2.81249e-05 7.21961e-05 0.000147369 0.000106208 -0.000216631 -0.00102438 -0.000795983 
0.000107359 0.000533687 0.000956099 0.00174645 0.000178817 -0.0015635 -0.000786291 -0.000223867 0.000319332 
0.0004773 0.000492928 0.000456855 0.00111372 -0.000921854 0.000751782 -0.0184944 0.089861 0.0275916 
0.0222707 -0.00961686 -0.0156993 -0.0186652 -0.0142444 -0.0207582 -0.0171972 -0.00662161 0.00689087 
-0.0345717 0.00186844 0.0115294 0.014043 0.0366234 0.0328261 0.012333 0.0319557 0.0148748 
-0.0121471 -0.0252748 2.81171e-05 4.72555e-06 9.53092e-06 -3.92447e-06 1.75529e-07 -2.64729e-05 -3.34861e-05 
-3.63545e-05 -5.2109e-05 -6.21452e-05 -6.3384e-05 -7.08831e-05 -2.16203e-05 6.95091e-05 5.4419e-05 6.77165e-05 
0.000103862 0.000109913 9.55449e-05 8.55486e-05 -6.16435e-05 -8.61126e-05 0.024199 -0.00608491 -0.000778046 
-0.000589242 -0.000167429 -0.000149302 -0.000139239 -0.000142642 -0.000101689 -0.000117083 -8.83192e-05 -7.38102e-05 
-5.6253e-05 -4.51333e-05 -4.59122e-05 -3.34314e-05 -1.47675e-05 -2.35459e-05 -1.85715e-06 1.7287e-05 1.01072e-05 
3.55821e-05 3.58854e-05 5.4354e-05 4.85247e-05 4.88864e-05 3.97591e-05 3.59027e-05 7.81543e-06 1.27098e-05 
-1.08619e-05 -7.77524e-06 -7.32857e-06 -1.68301e-06 1.16622e-05 3.56077e-05 -8.45722e-05 4.00941e-06 6.13749e-05 
0.000132645 0.000139091 0.000123252 -0.000610489 -0.00107918 -0.000623463 0.000230215 0.00120755 0.00201839 
0.00212377 0.00130909 -0.00121566 -0.00108925 -9.67087e-05 0.000306865 0.000574098 0.000706311 0.00114408 
0.00120322 0.00384347 0.0035134 -0.0295627 0.0346798 0.0286496 0.00277668 0.00168453 0.00555554 
0.000363185 -0.0118653 0.00178973 -0.00608618 -0.00495777 -0.00834283 -0.0169094 0.0221941 0.0351708 
0.0246843 0.0129852 0.0102798 0.0336575 -0.00100647 -0.0174522 -0.00536087 -0.0071267 -4.35327e-05 
-0.000179569 -0.000347106 -0.000545765 -0.000767758 -0.000975919 -0.00121131 -0.00145529 -0.00167719 -0.00178064 
-0.00183685 -0.00178603 -0.00158478 -0.00120307 -0.000712017 -7.11006e-05 0.000531161 0.00116764 0.00170917 
0.00204582 0.00223156 0.0022019 0.0019574 0.00159275 0.00119786 0.000577982 0.089777 0.033765 
0.0192691 0.00971355 0.00480451 0.00190561 -0.000130383 -0.00138047 -0.00219364 -0.00279121 -0.00319083 
-0.00331919 -0.00337868 -0.00333906 -0.00324592 -0.00304431 -0.00291162 -0.00269858 -0.00246215 -0.00222337 
-0.0019524 -0.00157902 -0.00125766 -0.000898767 -0.000496175 -0.00012478 0.00020892 0.000508263 0.00071509 
0.000849453 0.00088341 0.000845924 0.000735178 0.000545319 0.000352002 0.000150163 -5.50256e-05 -0.000209756 
-0.000324394 -0.000378613 -0.000367246 -0.000300677 -0.000188798 -7.24929e-05 0.00222353 0.00327992 0.00329855 
0.00130601 -0.00178353 -0.0023151 0.00317344 0.0100584 0.013725 0.0130825 0.00723882 -0.00928061 
-0.0123293 -0.00710007 -0.00131168 0.00195103 0.00226304 -0.000502085 -0.00692323 -0.0229496 -0.0361512 
-0.0672886 -0.139067 -0.11205 -0.099017 -0.0826615 -0.0676582 -0.0544079 -0.0429901 -0.0379445 
-0.0338139 -0.0249729 -0.0138086 -0.00301968 0.00178504 0.00458718 0.0118548 0.023716 0.0345278 
0.0433296 0.047941 0.0527424 0.0643954 0.0808443 0.0992085 0.112685 0.132937 -0.0344294 
0.0309418 0.0698272 0.068866 0.0592045 0.0525254 0.0481255 0.043903 0.0415961 0.034933 
0.0408612 0.0260402 -0.0591699 -0.0262917 -0.00676956 0.0322587 0.0574072 0.0699271 0.0742168 
0.0736395 0.0666327 0.0512578 0.042331 0.0256754 0.00625602 0.000995943 -0.0678656 0.0669037 
0.00955809 -0.0217967 -0.00897438 0.0219766 -0.000492883 -0.000829751 -0.00117095 -0.00155578 -0.0020037 
-0.00240415 -0.00278179 -0.00308159 -0.00322086 -0.003184 -0.00295025 -0.00250523 -0.00174446 -0.000703981 
0.000418578 0.00152874 0.00264801 0.00346397 0.00389456 0.004004 0.00373882 0.00328105 0.0026252 
0.00489365 0.0513271 0.0307483 0.0181582 0.0104264 0.00480589 0.00113398 -0.00130983 -0.00300125 
-0.0041555 -0.00490764 -0.00531127 -0.00552371 -0.00553369 -0.00542864 -0.00520878 -0.00498355 -0.00462815 
-0.00414816 -0.00367386 -0.00313599 -0.00250263 -0.00188614 -0.0012151 -0.000541844 7.06299e-05 0.000626567 
0.00106405 0.00137376 0.00151051 0.00149991 0.00135827 0.0011077 0.00078457 0.000419085 5.1635e-05 
-0.000276421 -0.000519448 -0.000660265 -0.000700297 -0.000633299 -0.000509885 -0.000307464 -0.0890636 0.0823778 
0.00595548 0.00559506 0.00274025 -2.24728e-05 0.00473891 0.0152049 0.0218645 -0.0207779 -0.0120751 
-0.00344821 0.00117309 0.00204765 -0.00140167 -0.00965631 -0.0239399 -0.0440915 0.0260862 0.0179701 
-0.0866313 -0.0782271 -0.0682342 -0.0592256 -0.0507392 -0.0411037 -0.031581 -0.0234765 -0.0170659 
-0.00998569 -0.00320628 0.00445615 0.0119902 0.018617 0.0258429 0.0322483 0.0421514 0.0516901 
0.0620501 0.0716843 0.0854207 0.0964179 -0.0295302 0.019609 0.037836 0.0362368 0.0356563 
0.0352199 0.0316614 0.0288552 0.0200082 0.0354925 0.026558 0.0485608 0.0041979 0.0370834 
0.00242122 0.0479378 -0.0312841 0.0356123 0.0424917 0.000195605 0.0204461 0.0447242 0.0435025 
0.017133 0.0336218 -0.0104715 -0.0327607 0.0020751 0.0168816 -0.0211504 -0.00131866 -0.00181375 
-0.00236069 -0.00297628 -0.00355509 -0.00400925 -0.00430295 -0.00441176 -0.0042469 -0.0038739 -0.00314878 
-0.00182683 -0.000343535 0.00131757 0.00295588 0.00436469 0.00525063 0.00556701 0.00533276 0.00478637 
0.0087702 -0.000815333 0.0348915 0.022253 0.0141001 0.0070915 0.00239141 -0.000799139 -0.00312721 
-0.00477594 -0.00588028 -0.00649278 -0.00680067 -0.00690765 -0.00681255 -0.00658574 -0.00625526 -0.00576841 
-0.00515941 -0.00448644 -0.00373358 -0.00289985 -0.00205358 -0.00115738 -0.000268239 0.000511433 0.0011649 
0.00166207 0.00196852 0.0020583 0.00194154 0.00166298 0.00125486 0.000744595 0.000202908 -0.000287015 
-0.000662361 -0.000928771 -0.00105819 -0.00103114 -0.000857026 0.00758556 0.00630516 0.00963267 -0.0135238 
-0.0596683 0.0753423 -0.000882518 -0.00834986 -0.0203931 -0.0350892 0.0241632 0.00546245 0.0147089 
-0.021992 -0.0658946 -0.0650384 -0.0562462 -0.0494531 -0.0420791 -0.0334299 -0.0254778 -0.0187924 
-0.0120291 -0.00526243 0.00118055 0.00787039 0.0147082 0.0212283 0.0280612 0.0355922 0.0436138 
0.0522714 0.0601742 0.0685079 0.00223181 0.0537798 0.0108216 0.0262051 0.0190626 0.0156877 
-0.00278133 0.0299201 0.00730706 0.0298975 0.025962 -0.00333689 0.00772539 0.0322938 0.0213638 
0.00271686 0.032373 0.00423911 0.00899146 0.0273554 0.00769638 0.0184577 -0.0197902 0.0190719 
0.00214279 0.0202967 -0.0112792 0.00999643 -0.0023715 -0.00308634 -0.00384186 -0.0045973 -0.0051488 
-0.00546147 -0.00552418 -0.00522891 -0.00495285 -0.0036251 -0.00158292 0.000428198 0.00266347 0.00473343 
0.00631141 0.0070083 0.00672234 0.00623173 0.013228 0.000990624 -0.00548946 0.0242521 0.015676 
0.00860244 0.00335469 -0.000237017 -0.00296685 -0.00495699 -0.00620115 -0.00699145 -0.00743391 -0.00761715 
-0.00753605 -0.00727085 -0.00685282 -0.00626374 -0.00556022 -0.004758 -0.00382701 -0.00285455 -0.00180559 
-0.000744447 0.000274424 0.00114926 0.00186914 0.00236383 0.00255022 0.00250392 0.00219301 0.0017132 
0.00108712 0.000384155 -0.000303556 -0.000862368 -0.00124312 -0.00147837 -0.00148373 0.0191234 -0.0082609 
0.0217557 0.00748768 0.0210322 -0.0514524 -0.0152862 -0.0272042 -0.0149238 0.00141839 -0.0414963 
-0.0393237 -0.0337219 -0.026679 -0.0200731 -0.0139838 -0.00756434 -0.00155312 0.00444082 0.0103312 
0.0162255 0.0219209 0.0281539 0.0347304 0.0408407 0.0467718 0.0500623 0.0227906 0.00621078 
0.0191779 -0.00179098 0.015931 0.0214379 -0.00125985 0.00545978 0.0203025 0.011536 0.00545249 
0.0338596 0.0155329 0.00768007 0.0145768 -0.0124185 0.00714917 0.0188131 0.00813194 0.010689 
-0.00355816 -0.00455384 -0.0055694 -0.00626784 -0.00647778 -0.00708876 -0.00642664 -0.00339786 -0.00107883 
0.00154613 0.00432828 0.00855725 0.0105327 0.00980758 0.0249701 0.0158318 0.00885816 0.00387942 
9.50512e-05 -0.00271841 -0.0047364 -0.00602491 -0.00689701 -0.007425 -0.00762343 -0.00754996 -0.00729463 
-0.00682768 -0.00618181 -0.00543215 -0.00453723 -0.00351113 -0.00237238 -0.00120574 4.64297e-06 0.00109056 
0.0020338 0.00276244 0.00310132 0.00304848 0.00271926 0.00214574 0.00144843 0.000605503 -0.000330356 
-0.00114133 -0.00168101 -0.00200809 -0.00204554 -0.00992489 0.0360357 -0.00114521 0.013814 -0.011685 
-0.00954163 -0.0191043 -0.00803822 0.00422827 -0.0291971 -0.020353 -0.0142023 -0.00956413 -0.00415247 
0.00124979 0.00640962 0.0115001 0.0154405 0.0201463 0.0252819 0.029953 0.0340029 0.0120378 
-0.00273292 0.0153169 0.00495687 0.016388 0.00759385 -0.00161262 0.00725505 0.0076521 -0.00887886 
0.0055459 0.0170738 0.00920367 0.00606535 0.0167539 -0.00402587 0.00268567 0.0135028 -0.00512165 
-0.0073805 -0.00358762 -0.00681898 0.00660754 0.0148103 0.00844685 0.00382469 0.000220562 -0.0024846 
-0.00422173 -0.00545909 -0.00626714 -0.00679311 -0.00714565 -0.00691678 -0.00664112 -0.00621316 -0.00559498 
-0.00486827 -0.00389379 -0.00271509 -0.00154722 -0.000267626 0.000990854 0.00220898 0.00331802 0.00385458 
0.00378791 0.00327453 0.00252453 0.00137886 -0.00046142 -0.00145798 -0.00230898 -0.00267286 0.0236099 
0.00616847 -0.00593994 -0.00694141 -0.00158079 0.00293533 0.00818933 0.0125109 0.0169156 0.0205844 
0.00708407 0.011799 0.00910692 -0.00670373 0.00104466 0.00688444 0.00368105 -0.0036307 0.00285806 
0.015125 -0.0122451 0.00178307 0.0107602 0.00573989 -0.00232608 0.00482834 0.00379001 -0.00386084 
0.00507534 0.00110535 0.013088 0.00735448 0.0033286 0.00028281 -0.00185591 -0.00343468 -0.00444837 
-0.00502397 -0.00576577 -0.00559728 -0.00548431 -0.00510009 -0.00448372 -0.00390632 -0.00272406 -0.00148779 
-0.000433901 0.000959551 0.0021496 0.00368061 0.00516079 0.00471834 0.00364907 0.00126354 -0.00304671 
0.00499397 0.0126393 0.00319827 0.00302769 0.000912813 0.000777845 0.0102893 -0.000860479 0.00262767 
0.00674986 0.00189201 0.00735999 -1.26033e-05 0.00392296 0.00313429 -0.00257065 -0.00315709 -0.00364231 
-0.00256322 0.00274506 0.000831753 0.00132915 0.000814018 0.000182517 0.00579156 0.00261105 0.000720632 
-0.000939244 -0.00238354 -0.00242703 -0.0039895 -0.00316997 -0.00117223 0.00119212 -0.000523935 -0.00169315 
0.00123492 -0.000363777 -7.7363e-05 -0.000265603 -0.000475901 -0.000811324 -0.00118646 -0.00158352 -0.00190303 
-0.00215509 -0.0022182 -0.00208617 -0.00167038 -0.00093961 5.49867e-05 0.00103684 0.00191572 0.00262292 
0.00286947 0.00278572 0.00242066 0.00168071 0.000570242 0.108301 0.0378526 0.0166042 0.00711062 
0.00237509 -0.000102238 -0.00167474 -0.00266699 -0.00331572 -0.00355487 -0.00357405 -0.00355529 -0.00341349 
-0.0031154 -0.00285506 -0.00253323 -0.00204734 -0.00155128 -0.00106096 -0.000556151 -6.89277e-05 0.00039528 
0.000761558 0.000978031 0.00103298 0.000944799 0.000730539 0.000432411 0.000118204 -0.000144836 -0.000321518 
-0.000410012 -0.000392961 -0.000268265 0.000705512 0.00131955 0.00260755 0.00328325 0.0026263 -0.00199344 
-0.000980789 0.00605811 0.0129989 0.0165969 0.0154724 -0.0111694 -0.0120116 -0.00507678 0.000135145 
0.00238763 0.00179598 -0.00128519 -0.00737772 -0.0181607 -0.0418118 -0.0824424 -0.136146 -0.109057 
-0.0900654 -0.0734735 -0.0622756 -0.0512744 -0.0381039 -0.0261292 -0.0186866 -0.00989972 -0.0012891 
0.00924082 0.0172573 0.0262467 0.0341205 0.0462022 0.0596745 0.0710848 0.0845962 0.103984 
-0.0115055 0.0233911 0.0667161 0.0629187 0.0580769 0.050948 0.0460354 0.04249 0.0398841 
0.033951 0.0318663 0.0247168 -0.0673035 -0.0282858 -0.00218481 0.0358864 0.0583858 0.0697054 
0.0740315 0.0673348 0.0607705 0.0598531 0.0435104 0.0248041 0.00297482 0.00218469 0.00478467 
0.0740678 -0.096572 0.00654336 0.0137855 -0.0285113 -0.00428021 -0.000690614 -0.000492073 -0.00172561 
-0.00238625 -0.00306644 -0.00359063 -0.0038664 -0.00384187 -0.00333965 -0.00232367 -0.000839416 0.000906732 
0.00254052 0.0039808 0.00477806 0.00488289 0.00455411 0.00390455 0.00251715 0.0202029 0.0234912 
0.0435228 0.0789255 0.0117438 0.00456096 0.000528874 -0.00207809 -0.00391813 -0.00504809 -0.00568066 
-0.00588931 -0.00575788 -0.00550939 -0.00514331 -0.00457867 -0.00392137 -0.00312807 -0.00231887 -0.00146314 
-0.000543442 0.000249145 0.000961975 0.00145892 0.0017107 0.00169326 0.00139812 0.000948034 0.000406193 
-8.24464e-05 -0.000454075 -0.000702387 -0.000778012 -0.000698726 0.00508396 0.00546492 0.0059314 0.00830743 
0.00173617 0.0258965 -0.00791989 -0.0200593 0.00193317 0.0015303 -0.00285218 -0.0107682 -0.0248466 
-0.0482169 -0.079739 0.0501539 0.0285699 -0.0760235 -0.0636825 -0.0523538 -0.0409286 -0.0316548 
-0.0224339 -0.0131466 -0.00418162 0.00395686 0.0126012 0.0214175 0.0302655 0.0403787 0.0495713 
0.06011 0.0718404 0.083346 -0.0274257 0.00677027 0.0266241 0.0343921 0.0397207 0.0349951 
0.0336342 0.0269753 0.032203 -0.000635151 0.0380699 0.0234638 0.0442663 0.0495064 0.0257901 
0.0350978 -0.00114441 -0.00131777 0.0237184 -0.0335928 0.0465066 0.0184033 0.0301664 0.0170384 
0.00896633 -0.0194217 0.00313999 -0.0433779 -0.0153038 0.0325757 0.0349853 -0.031538 0.0112875 
-0.00437925 -0.00261029 -0.00499503 -0.00526747 -0.00503127 -0.00408561 -0.0023806 -5.71412e-05 0.00230053 
0.00460478 0.00615743 0.00665687 0.00626602 0.00613735 0.0124364 -0.00101243 0.000467362 0.0240356 
0.0603522 0.00132852 -0.00198949 -0.00441972 -0.00593995 -0.00675261 -0.00711944 -0.00708773 -0.00677461 
-0.00621063 -0.00551127 -0.00462894 -0.00359973 -0.00246905 -0.00126061 -0.000182741 0.000847591 0.00163842 
0.00213999 0.00224388 0.00202053 0.00149018 0.000783803 5.88081e-05 -0.000504087 -0.000921404 -0.00114707 
0.0179201 0.00587926 0.00794034 -0.0035376 0.000913853 -0.0024528 0.00207241 -0.0215182 -0.0388995 
-0.0587678 -0.0415794 -0.0326848 -0.0243368 -0.0163156 -0.00800768 0.00011573 0.00792078 0.0156076 
0.0235888 0.0312385 0.0398834 0.048589 0.0570332 0.00927983 0.00313608 0.0232097 -0.0508398 
0.0212056 0.022108 -0.0106047 -0.0249144 -0.00493693 0.03937 0.00540977 0.0317589 0.0130081 
0.0344576 0.0261698 0.0178131 0.0336201 -0.00174608 -0.0271899 0.00705549 0.0109396 -0.00117374 
0.0073528 -0.00177406 0.019341 0.0297549 0.0654073 0.0249239 -0.00549593 -0.00616156 -0.00456761 
-0.00191808 0.00127201 0.0042492 0.00777488 0.00826068 0.00797648 -0.0131168 0.0125936 -0.00168558 
0.00232765 -0.00617096 -0.00711211 -0.00756306 -0.0075502 -0.00718784 -0.00654647 -0.00571124 -0.00469608 
-0.00348696 -0.00208035 -0.000688666 0.000540289 0.00166338 0.00242415 0.00275341 0.00258794 0.00204498 
0.00118157 0.000207338 -0.000575005 -0.00115445 -0.00154306 0.0215202 -0.000380834 0.00618879 -0.0418779 
-0.0298793 -0.0179794 -0.0242692 -0.0309623 -0.0105527 -0.00380334 0.00328809 0.00999384 0.0165711 
0.0227239 0.0294238 0.0364732 0.0426888 -0.00663072 -0.00630361 0.00708456 -0.0184867 0.00745606 
-0.00444237 -0.00923723 0.00700066 0.0233331 0.017937 0.0494154 -0.0151623 0.00690741 -0.00760228 
0.0190865 0.00665332 0.0162841 -0.0016444 0.00437336 -0.00339306 0.00847955 -0.00445023 -0.00239202 
0.00691127 -0.0182784 0.0178824 0.0127946 -0.0388155 0.0232757 0.0328832 0.0211171 0.0133047 
-0.0077272 0.00481462 0.00128361 -0.00847916 0.00278076 0.00136101 -0.00670541 -0.00575681 -0.00725403 
-0.0068812 -0.00620075 -0.0053111 -0.00419284 -0.00278223 -0.00127074 0.000184072 0.00157454 0.00265186 
0.00326237 0.00324754 0.00263952 0.00160976 0.000317581 -0.000793577 -0.00156655 -0.00193694 0.00260152 
-0.00719386 -0.0169697 -0.029361 -0.00653702 0.0211398 -0.0124348 -0.0195401 0.00739131 -0.000939409 
0.00481873 0.0100101 0.0148491 0.0194187 0.0240341 0.0283387 -0.00841168 0.00870219 -0.00475247 
-0.000891576 0.0117833 0.0144099 0.0118031 -0.00499838 -0.00652591 0.00530976 -0.00146911 0.013875 
0.0147348 -0.00417821 -0.00310528 -0.00373053 0.0179625 0.0163001 0.00490278 0.00784257 0.0127521 
-0.0050587 -0.00271194 -0.0103558 -0.0124412 -0.00780381 0.0159672 0.00913434 0.00272388 -0.00998594 
0.01344 -0.00750086 -0.00593547 -0.00647064 -0.00428742 -0.0031346 -0.00169902 -6.03123e-05 0.00148985 
0.00292434 0.00392686 0.00407413 0.00343236 0.00211287 0.000295767 -0.00126143 -0.00232444 -0.00379203 
-0.01035 0.000823898 0.0166586 0.00642681 0.0087231 0.0042982 0.00424703 0.00770646 0.0109672 
0.0139359 0.0166618 0.00636369 0.00739466 0.00806802 -0.00771495 -0.00523825 -0.00458884 0.00633021 
-0.00141564 0.00235819 0.00842876 -0.00313087 -0.00621036 0.000444472 -0.00515508 0.00512101 0.00414323 
0.00996218 -0.0116412 0.00309335 -0.00413798 -0.00561945 0.00844079 0.00538224 -0.00141944 -0.00259697 
0.00169213 0.00486556 0.00453048 0.00287782 -1.87998e-05 -0.00224442 -0.00347425 -0.0014108 0.00254137 
0.00629558 0.00662462 -0.00352782 0.00439077 -0.000244486 -0.00475352 -0.00411721 0.000140318 0.00289035 
-0.00172163 0.00995099 0.00306023 0.00519535 0.00167573 0.00211131 0.00434347 0.00374275 -0.00304111 
-0.00420365 0.00440032 0.000648818 0.000833352 -0.00113543 -0.00395846 0.0033658 -0.000692797 -0.000390362 
0.00269891 -0.00205715 0.0010073 -0.00122394 1.47953e-05 0.000515586 0.072202 0.0405029 -0.333122 
0.342354 -0.252357 -0.145438 -0.111805 -0.094076 -0.076873 -0.0611665 -0.048557 -0.0390734 
-0.0301549 -0.0193136 -0.0074902 0.00218931 0.00467851 0.0177488 0.028451 0.0389315 0.0469984 
0.0549774 0.0684765 0.0838551 0.103095 0.139557 0.246895 -0.241136 -0.135654 -0.101201 
-0.0821164 -0.0717364 -0.0666207 -0.0617914 -0.0550064 -0.0386926 -0.0221504 -0.0176326 -0.016195 
-0.0142397 -0.00654834 0.0127973 0.0179239 0.0195069 0.0213609 0.0287244 0.0462971 0.0625558 
0.0686196 0.0730137 0.0798039 0.103323 0.128301 0.256002 1.36351e-05 1.10084e-05 -7.70725e-06 
-1.19929e-05 -1.04555e-05 -9.5483e-06 -2.46008e-05 -4.02741e-05 -5.29508e-05 -4.85069e-05 -5.12352e-05 -6.04002e-05 
-6.28249e-05 -7.63132e-05 -6.42922e-05 -3.75258e-05 -1.08878e-05 2.26794e-05 3.27965e-05 4.35005e-05 5.85654e-05 
6.46519e-05 6.90513e-05 7.72793e-05 5.87686e-05 4.47717e-05 -4.14123e-05 -7.25645e-05 0.166783 -0.00067385 
-0.0023207 -0.00195737 -0.000819757 -0.000536613 -0.0006716 -0.000586774 -0.000419521 -0.000322172 -0.00023582 
-0.000205358 -0.000188397 -0.000193703 -0.000168455 -0.000131549 -0.000101436 -9.13969e-05 -0.000104665 -0.000110358 
-9.32559e-05 -5.25564e-05 -5.1792e-05 -5.50003e-05 -6.43459e-05 -4.38848e-05 -4.55416e-06 1.49213e-05 2.09221e-05 
1.32264e-05 1.66172e-05 2.54298e-05 2.26893e-05 2.26993e-05 1.64719e-05 7.54392e-06 -9.58127e-06 -1.28208e-05 
-1.00944e-05 -1.29572e-05 -2.05339e-05 -1.985e-05 -1.65842e-05 -6.48285e-06 1.64496e-05 9.74177e-06 -4.77461e-05 
-0.000102408 3.05908e-05 0.000121869 0.000144363 -8.93215e-06 -0.000633025 -0.000954695 -0.000483938 0.000244962 
0.000742642 0.0014872 0.0010071 -0.00073105 -0.00103873 -0.000508612 -1.73065e-05 0.000383893 0.000497661 
0.000478185 0.000552694 0.000400577 0.000337417 -0.00833268 -0.140722 -0.0694133 0.121468 0.0432867 
0.0189209 0.00497592 -0.0226338 -0.0260096 -0.0123419 -0.0272757 -0.0136204 -0.0100008 0.00278629 
0.00659631 -0.0614199 -0.0654697 -0.0169225 -0.00232069 0.00155452 0.0248488 0.0230124 0.0166782 
0.0286927 0.0236326 0.000360762 -0.0205479 -0.0287959 1.51821e-05 1.89115e-05 1.07e-05 1.78581e-06 
-1.35573e-05 -1.48979e-05 -3.06043e-05 -4.58129e-05 -5.08919e-05 -6.59268e-05 -7.68939e-05 -6.44297e-05 -4.87151e-05 
1.02291e-05 4.82682e-05 8.36217e-05 0.000101794 0.000120094 0.000120981 9.04947e-05 2.44992e-05 -8.48103e-05 
-5.95952e-05 0.146902 0.00287978 -0.00311195 -0.000828792 -0.000572731 -0.000226876 -0.000188628 -0.000182753 
-0.000192414 -0.000119722 -0.000127802 -0.000100024 -8.70376e-05 -6.43172e-05 -6.49349e-05 -5.12411e-05 -3.6597e-05 
-3.86377e-05 -1.92979e-05 5.70672e-06 2.01332e-05 2.03596e-05 2.91779e-05 4.86476e-05 6.0003e-05 5.42059e-05 
4.88979e-05 3.71423e-05 2.19985e-05 1.78837e-05 -1.03136e-06 -1.34809e-05 -9.80729e-06 -7.30188e-06 3.89477e-06 
2.59714e-05 1.86526e-05 -3.71322e-05 -6.917e-05 3.44926e-05 0.000118835 0.000143715 9.65005e-05 -0.000268463 
-0.000917728 -0.000878643 -0.000243987 0.000825817 0.00153951 0.00214254 0.0022614 0.000109115 -0.00132084 
-0.000606081 8.37448e-05 0.000440795 0.000621032 0.000829208 0.00112629 0.00221582 0.00232535 -0.00488715 
-0.174654 -0.0493041 0.059088 0.016536 0.0194253 -0.0135655 -0.00099976 -0.00626466 -0.00924744 
-0.010126 0.00161941 -0.00722981 -0.0112828 -0.00591774 -0.0500272 -0.051748 0.000699616 0.0199204 
0.0255693 0.00210421 -0.000496927 0.0178986 0.0299645 -0.0134258 -0.0147408 -0.0066001 -0.0147465 
-1.95956e-05 -2.70927e-07 -0.11622 -0.054123 -0.020877 0.0597902 -0.251807 0.265397 -0.17112 
-0.142443 -0.121012 -0.109775 -0.0928389 -0.0858554 -0.0807455 -0.0750367 -0.0697703 -0.0647037 
-0.0603629 -0.0562323 -0.0545747 -0.0400253 -0.029106 -0.0230081 -0.0220634 -0.0190853 -0.0162905 
-0.012805 -0.00972485 -0.00656799 -0.00372264 0.012142 0.0137802 0.0172125 0.0196733 0.0232143 
0.0262031 0.0292613 0.0313443 0.0452976 0.0560338 0.0628012 0.0641591 0.0685991 0.0725946 
0.0773225 0.0799943 0.0877553 0.10434 0.128525 0.170215 -0.0489676 0.00293234 0.0362901 
0.114567 1.58103e-05 -1.16682e-05 -2.7945e-05 -7.96664e-05 -9.70966e-05 -0.00011435 -0.000172202 -0.000181465 
-0.00026283 -0.000274676 -0.000281601 -0.000445663 -0.000387201 -0.000403698 -0.000660172 -0.000490839 -0.000507735 
-0.000868404 -0.000611542 -0.000630707 -0.00109467 -0.000745638 -0.000756314 -0.00133799 -0.00086107 -0.000876095 
-0.00157587 -0.000912136 -0.000933271 -0.0017334 -0.000951609 -0.000947581 -0.00181494 -0.000932621 -0.000921747 
-0.00181814 -0.000829564 -0.000816478 -0.00170364 -0.00063837 -0.000607977 -0.00141108 -0.000389977 -0.000345826 
-0.000967052 -8.05925e-05 -1.74051e-05 -0.00039715 0.000244867 0.000285957 0.000232283 0.000581969 0.000613172 
0.000853002 0.000859194 0.000911213 0.00145436 0.00103764 0.00107886 0.00188754 0.00114587 0.00114515 
0.00215174 0.00114228 0.00112665 0.00222913 0.0010127 0.00100133 0.00210129 0.00082772 0.000797926 
0.00179258 0.000631587 0.000592961 0.00140974 0.000328665 0.000201541 0.000901108 -7.9314e-05 -0.0476589 
0.000196683 0.103694 0.0488559 0.034469 0.0176055 0.0166355 0.0540268 0.00873453 0.00876108 
0.0265176 0.00454725 0.00440786 0.0141398 0.0021949 0.00188651 0.00702683 0.000770227 0.000629848 
0.00330272 -0.000254242 -0.000259819 0.000768479 -0.000866208 -0.000884595 -0.000822482 -0.00123369 -0.00125882 
-0.00186014 -0.00150591 -0.0015531 -0.00254148 -0.0017191 -0.00170515 -0.00299655 -0.00176176 -0.00175085 
-0.00325971 -0.00176608 -0.00175865 -0.00337445 -0.00175073 -0.00174112 -0.00338847 -0.00169358 -0.00169216 
-0.00331102 -0.00159405 -0.00156444 -0.0031463 -0.00151919 -0.00150119 -0.00297957 -0.00139266 -0.00138282 
-0.0028203 -0.00128192 -0.0012725 -0.00259703 -0.0011631 -0.00113855 -0.00235161 -0.00103092 -0.000998285 
-0.00208699 -0.000826098 -0.000803156 -0.00177408 -0.000659436 -0.000640485 -0.00142765 -0.000478237 -0.000459012 
-0.00108334 -0.000279976 -0.000239012 -0.000700483 -8.40988e-05 -5.46591e-05 -0.000310907 8.94576e-05 0.000116822 
4.42911e-05 0.000255838 0.000265061 0.000365268 0.000357043 0.000368704 0.000620146 0.000426714 0.000439362 
0.000789702 0.000457598 0.000449289 0.000867288 0.000435253 0.000429698 0.00087305 0.000378698 0.000369854 
0.000798892 0.000282045 0.000270963 0.000646034 0.000186658 0.000167271 0.000450602 8.46727e-05 6.75338e-05 
0.000249501 -2.63658e-05 -3.64824e-05 4.71855e-05 -0.000107589 -0.000117289 -0.000135978 -0.00016479 -0.000173555 
-0.000271845 -0.000198162 -0.000196781 -0.000352796 -0.000192872 -0.000190154 -0.000377839 -0.000159201 -0.000153651 
-0.000339161 -0.000102864 -8.65889e-05 -0.00024826 -3.67398e-05 -1.95729e-05 -0.000129435 0.00106845 0.00119487 
0.00165534 0.00173818 0.002803 0.00175016 0.00166984 0.00338629 0.000849636 0.000442275 0.00246134 
-0.000841086 -0.00133095 -0.000271665 -0.0016047 -0.00130528 -0.00237063 0.000856031 0.00187558 2.69679e-05 
0.00473567 0.00545048 0.00664192 0.006997 0.00729531 0.0121005 0.00712652 0.00744171 0.0133007 
0.00464855 0.0031544 0.0107396 -0.00383989 -0.00533917 -0.000871525 -0.00694879 -0.00620682 -0.0117584 
-0.00421624 -0.00338679 -0.00984497 -0.00106629 -0.000362019 -0.00414428 0.00102115 0.00123821 0.000503564 
0.00146661 0.00131322 0.00230748 0.00034334 -0.00012269 0.00108894 -0.00261312 -0.00328293 -0.00345585 
-0.00949111 -0.0120314 -0.0144004 -0.0173825 -0.0191416 -0.0285443 -0.0294725 -0.0429045 -0.0492654 
-0.0985911 -0.15777 -0.109921 -0.109354 -0.103455 -0.121649 -0.105496 -0.0894256 -0.106089 
-0.0872518 -0.0725936 -0.0924447 -0.0745156 -0.0600229 -0.0753649 -0.0632374 -0.0494325 -0.0609513 
-0.0494386 -0.0383379 -0.0469765 -0.0410835 -0.0358705 -0.0407789 -0.0401918 -0.0271527 -0.0361364 
-0.0291 -0.0167425 -0.0303943 -0.0207884 -0.00820678 -0.019659 -0.0123399 0.000182989 -0.00814302 
-0.00516743 0.00976526 -0.000147958 -0.00209094 0.0108712 0.00441791 0.00766149 0.0200384 0.00791379 
0.0162201 0.0287967 0.0177822 0.0251102 0.037787 0.029284 0.0359207 0.0471987 0.0399743 
0.0446551 0.0495632 0.0456266 0.04557 0.0591788 0.0506753 0.0590543 0.0725924 0.0574492 
0.0719262 0.0851363 0.0724808 0.0868221 0.102815 0.0892662 0.105497 0.115412 0.105789 
0.127371 0.141171 0.123407 -0.020653 -0.0928639 0.0971276 0.0849924 0.0867385 0.104951 
0.0554286 0.0708157 0.0825406 0.070623 0.0588359 0.0645874 0.0637883 0.04919 0.0536218 
0.0552398 0.0434133 0.0453716 0.0495007 0.0374444 0.0390332 0.0448497 0.0346738 0.0352096 
0.0415794 0.0327055 0.0314352 0.0374302 0.0315437 0.0340556 0.0346298 0.0272713 0.0243704 
0.0354719 0.0164963 -0.0910631 -0.0639472 -0.0663257 -0.0421288 -0.0108182 0.0223109 -0.0213475 
0.0436069 0.0556243 0.069685 0.0739329 0.0460376 0.0817256 0.0800402 0.0832744 0.0792016 
0.0716344 0.0791464 0.0746668 0.0730397 0.0721488 0.0684409 0.0596852 0.049848 0.0574723 
0.0447007 0.0327602 0.045701 0.0240449 0.0117493 0.00140684 -0.0164638 0.0172365 -2.3175e-06 
0.141387 0.000381471 0.000522834 -0.0695579 -0.108111 0.0770892 0.0372109 -0.094566 0.0370517 
0.00108566 0.0120348 -0.0471455 -0.0237138 -0.059663 -0.00646569 -0.034382 -0.01924 -0.00750839 
0.0132037 0.0713631 0.0156567 0.0640489 0.0332917 0.00159995 -0.111501 -0.000641229 0.127155 
-0.000331425 -0.000425428 -0.000586127 -0.000697041 -0.000660532 -0.000853794 -0.000982182 -0.000999805 -0.00115281 
-0.00128322 -0.00136534 -0.00148229 -0.00162746 -0.00177702 -0.00180928 -0.00195003 -0.00220236 -0.00211934 
-0.00224759 -0.00259799 -0.00237528 -0.00245278 -0.00293801 -0.00250433 -0.00253969 -0.00316157 -0.00252563 
-0.00248267 -0.00321587 -0.00238707 -0.00226436 -0.00308256 -0.00207328 -0.00184641 -0.00274094 -0.00150143 
-0.00119962 -0.00213725 -0.000742609 -0.00035398 -0.00123865 0.000138126 0.000516382 -0.000147654 0.00100523 
0.00139035 0.000964567 0.00188378 0.00221511 0.00210148 0.00256418 0.00279748 0.00307054 0.0029676 
0.00308514 0.00370317 0.00313475 0.00310589 0.00397625 0.00299453 0.00285413 0.00388582 0.00265322 
0.00243764 0.00352398 0.00214191 0.00189904 0.00296835 0.00353917 0.00410889 -5.50868e-05 0.0443017 
0.0349716 0.0256939 0.0197481 0.0405432 0.0143529 0.0112441 0.0242183 0.0079267 0.00585898 
0.0140871 0.00346579 0.00223267 0.0074708 0.000560508 -0.00019494 0.00286547 -0.00130732 -0.00182792 
-0.000187179 -0.00257989 -0.00299068 -0.00222114 -0.00346428 -0.00375202 -0.00360668 -0.00403752 -0.00415112 
-0.00455616 -0.00433645 -0.00437624 -0.00512075 -0.00447812 -0.0044703 -0.00545155 -0.0044629 -0.0044269 
-0.00553902 -0.00435482 -0.00425591 -0.00548769 -0.00416249 -0.00406661 -0.00532229 -0.00397668 -0.00385513 
-0.00509961 -0.00369217 -0.00355859 -0.00482506 -0.0033366 -0.00319423 -0.00439379 -0.00297952 -0.00280029 
-0.00391237 -0.00256593 -0.00235069 -0.00340324 -0.00205874 -0.00187557 -0.00282979 -0.00159269 -0.00138799 
-0.0022023 -0.00107857 -0.000847856 -0.00155364 -0.000547846 -0.000316892 -0.000877453 -4.78218e-05 0.000161195 
-0.000233282 0.000409052 0.0005762 0.000353264 0.000778807 0.000902626 0.000854655 0.00103737 0.00112154 
0.00122512 0.00117576 0.00120019 0.00145133 0.00119804 0.00117196 0.00151485 0.00111018 0.00104472 
0.00143449 0.000928413 0.000823818 0.00124364 0.000679001 0.000559107 0.000950126 0.000403083 0.000272209 
0.00060311 0.000109767 -8.84678e-06 0.00023462 -0.000160512 -0.000246896 -0.000116027 -0.000356017 -0.000426637 
-0.000401856 -0.000486601 -0.000522534 -0.000595311 -0.000538999 -0.000532194 -0.000686117 -0.000501621 -0.000465099 
-0.000672778 -0.000409067 -0.000347246 -0.000574829 -0.000254911 -0.000180505 -0.000409909 -0.0836942 -0.104151 
-0.102463 0.0868888 0.0564234 0.0660381 0.00458781 0.00461623 0.00440097 0.00345475 0.0058784 
0.0019981 0.000358375 -0.000992456 -0.00114099 0.00119019 0.000826141 0.00424066 0.00174107 0.00901488 
0.012709 0.00987833 0.0158694 0.0178324 0.0119962 0.00886728 -0.015983 -0.0162674 -0.0124715 
-0.00934996 -0.00538291 -0.00234112 -0.00759601 -5.73206e-05 0.00150355 0.00209768 0.00199774 0.00185232 
0.000634951 -0.0012493 0.000617036 -0.00479045 -0.00888207 -0.00516255 -0.0151739 -0.0244741 -0.0164181 
-0.0411269 -0.0342931 -0.0513193 -0.0337353 -0.0627308 0.025129 0.0410952 0.0449529 -0.000223802 
-0.0980694 -0.0871837 -0.0890858 -0.0794817 -0.0829277 -0.0817683 -0.0677119 -0.0729671 -0.0733765 
-0.0577986 -0.0637826 -0.0635688 -0.0487617 -0.0558774 -0.0547235 -0.0468492 -0.0397909 -0.0467169 
-0.0344168 -0.0280892 -0.0362143 -0.0195215 -0.027599 -0.0266016 -0.0142454 -0.0209602 -0.0203291 
-0.00713014 -0.0139671 -0.0134061 -0.000617084 -0.00925544 -0.0063255 0.0005764 0.00744168 0.0003071 
0.0155952 0.0107943 0.00814256 0.0223486 0.0157519 0.0153306 0.0293127 0.0227051 0.0225779 
0.0357346 0.0282563 0.0294463 0.0383606 0.0447091 0.0365601 0.0504249 0.0575048 0.047048 
0.0648408 0.0629722 0.0574355 0.0749521 0.0712736 0.0668458 0.0856386 0.0850076 0.0782479 
0.0959451 0.102226 0.110518 0.0907273 -0.0412627 -0.0317195 0.0419828 0.02608 0.0208412 
0.0437668 0.0476894 0.040172 0.0432702 0.0369356 0.0374767 0.0403492 0.0360157 0.0358144 
0.0381329 0.0354414 0.033501 0.0340835 0.0331939 0.0295898 0.0323512 0.0305355 0.0206928 
0.0251893 0.0244392 0.106355 0.0439554 0.05189 0.0318486 0.0250817 0.0589542 0.0596939 
-0.000927437 0.0156227 0.0442423 0.0383206 0.0314507 0.00168695 0.00234174 0.0575047 0.0549707 
0.0485822 0.013831 -0.0357435 -0.0538752 -0.00756067 0.0507452 0.0498755 0.0278206 0.0493878 
0.0543984 0.0395864 0.0404828 -0.0123073 -0.00814713 0.000609384 0.0244467 0.0376175 0.0124474 
0.0548291 0.0586549 0.0470615 0.0522577 0.0479584 0.045957 0.0184598 0.00919763 0.0216757 
-0.000167851 -0.00025175 -0.000399402 0.00550447 0.00366588 0.00182686 0.00148767 0.000783822 0.0291125 
0.0430354 0.0303176 0.0406376 0.000164231 -0.0301645 -0.021459 -0.00257201 0.00436257 0.0188849 
0.0170441 0.0153766 -0.0164037 -0.0141662 -0.000941808 0.0917566 -0.0355739 -0.0460365 0.028504 
-0.00488857 -0.00664041 0.00287214 0.0101698 0.0126473 0.0174336 0.0217251 -0.0274679 -0.0397454 
-0.0186382 -0.0253722 0.0403601 -0.00107289 -0.00125819 -0.00149394 -0.00170196 -0.00156572 -0.00195662 
-0.00219361 -0.0020854 -0.00249304 -0.0027048 -0.00266729 -0.00298666 -0.00318815 -0.00326615 -0.00339494 
-0.0035645 -0.00378855 -0.00369378 -0.00377759 -0.00416993 -0.00382074 -0.00380289 -0.0043718 -0.00372492 
-0.00359684 -0.00434794 -0.00343165 -0.00317486 -0.00408459 -0.00283604 -0.00242026 -0.00353362 -0.00180748 
-0.00123829 -0.00250925 -0.000545463 6.41459e-05 -0.00109262 0.000839028 0.00144211 0.000477283 0.00221776 
0.00283024 0.00214259 0.00348947 0.00394321 0.00368143 0.00434855 0.00460164 0.00484048 0.00473174 
0.00480331 0.00543522 0.00467009 0.00453398 0.00547641 0.00426255 0.00402346 0.00506648 0.00729555 
0.00725307 -0.000548721 -0.000656494 -0.000659047 0.0333984 0.0263752 0.0204852 0.0161617 0.0283037 
0.0124611 0.00928457 0.0179869 0.00604798 0.00401233 0.0104239 0.00183749 0.000474147 0.00459845 
-0.00100545 -0.00197469 0.000697799 -0.00301123 -0.00373301 -0.00200746 -0.00444754 -0.00491658 -0.00399774 
-0.00540468 -0.005638 -0.00536155 -0.00592695 -0.00605896 -0.00620312 -0.00617115 -0.00621415 -0.00665938 
-0.00623155 -0.00620622 -0.00686838 -0.00613405 -0.00602423 -0.00687193 -0.00592648 -0.00579345 -0.00670761 
-0.00564761 -0.00546106 -0.0064287 -0.00521914 -0.00497376 -0.00602118 -0.00467621 -0.00442546 -0.00546878 
-0.004099 -0.00380284 -0.00482652 -0.00345808 -0.00311482 -0.00411573 -0.00272485 -0.00239121 -0.00332039 
-0.00199017 -0.00163065 -0.00248226 -0.00120964 -0.000837004 -0.00160307 -0.000420906 -8.90274e-05 -0.000709204 
0.00027504 0.000580828 0.000125406 0.000889422 0.00112163 0.000846051 0.00135297 0.00152725 0.00142087 
0.00167021 0.00174487 0.00183018 0.00178945 0.00177987 0.00202601 0.00172909 0.00164848 0.00201093 
0.00152268 0.001387 0.00181018 0.00119352 0.00101603 0.00146518 0.000777061 0.000575609 0.00100286 
0.000326136 0.000121558 0.000474715 -0.000109073 -0.0002844 -4.57851e-05 -0.000463121 -0.000592964 -0.000482186 
-0.000714697 -0.000797181 -0.000802214 -0.000856503 -0.000878923 -0.00100301 -0.00086398 -0.000829743 -0.00105252 
-0.000746409 -0.00068135 -0.000840598 -0.000946845 0.00620966 0.00680407 0.00285566 0.00567132 0.00748414 
0.00640703 0.00930322 -0.0178453 -0.0127548 -0.0499884 -0.0730532 0.0853977 0.0799933 0.0636232 
0.000734206 -0.00134516 -0.00477062 -0.00926613 -0.004309 -0.0149657 -0.0224456 -0.0140351 -0.0297066 
-0.039594 -0.0275354 0.0298325 0.0340484 0.00256912 0.00388359 0.0257415 0.0176505 -0.0261573 
-0.0283035 -0.0758181 -0.072601 -0.0719182 -0.0669051 -0.0656781 -0.062606 -0.0577527 -0.060626 
-0.0543976 -0.0497323 -0.0529219 -0.0463174 -0.0419682 -0.0457825 -0.0369494 -0.0329265 -0.0377393 
-0.0281975 -0.0245911 -0.0294802 -0.0216384 -0.0178293 -0.0220902 -0.0146775 -0.010685 -0.0153956 
-0.0075254 -0.00359138 -0.0086552 -0.000676623 0.00248016 -0.0020149 0.00651994 0.00972905 0.00455328 
0.0133962 0.0165216 0.0112756 0.0197531 0.0237864 0.0179375 0.0269487 0.0308663 0.0246301 
0.0342536 0.038738 0.0318197 0.0432497 0.0475625 0.0396272 0.0524465 0.0573024 0.0478874 
0.0615219 0.0655769 0.0562675 0.0700343 0.0769525 0.064288 0.0815173 -0.000473354 0.0015271 
0.0533314 0.0425144 0.044094 0.0640622 0.0150586 0.0181346 0.0120283 -0.000830083 0.0309315 
0.0311121 0.0277378 0.0280219 0.0228535 -0.0744975 0.0183749 0.0249565 0.0201971 -0.00744459 
-0.00323297 -5.7389e-05 -0.00789036 0.0363378 0.0333626 0.00475038 0.00335782 0.00600113 0.0371775 
0.0390295 0.0273997 0.0309839 0.0265029 0.0279143 -0.0248361 -0.0211107 0.00527742 -0.0153983 
-0.0138242 0.00664827 0.0130713 0.0116824 0.0397708 0.0378156 0.0312026 0.023976 0.0192902 
0.0235537 0.00211057 0.0022128 0.00117719 0.0402552 0.0400094 0.0325051 -0.0632665 0.0037859 
0.00344969 0.00453273 0.00824475 0.0314068 0.00647461 0.000938029 0.011577 0.0123228 0.0116392 
0.00335863 0.00456784 0.0213592 0.0246145 0.00399202 0.00649938 0.00503181 0.00886974 0.016986 
0.002675 0.0139152 0.0228065 0.0259854 0.00611982 -0.00106358 -0.0219106 -0.0257345 0.0723358 
0.0201355 0.0184315 0.0179512 0.0296483 0.0267435 0.0252037 -0.004929 0.00190668 -0.0086231 
-0.0553003 0.00562247 0.00521998 0.027989 0.0188912 -0.0217651 -0.0158526 -0.016604 0.0093795 
-0.0130049 0.0312327 0.0313829 0.026742 0.00875745 0.00940045 -0.00209644 -0.00237715 -0.00273526 
-0.00304325 -0.00272667 -0.00341753 -0.00371144 -0.00345711 -0.00407685 -0.00432654 -0.00421893 -0.00458126 
-0.00474463 -0.0048855 -0.00487622 -0.00493891 -0.0053239 -0.00496905 -0.00488317 -0.00551953 -0.00473683 
-0.00454521 -0.00539451 -0.00439387 -0.00402557 -0.00510103 -0.00338516 -0.00269187 -0.00433286 -0.00171221 
-0.000938055 -0.00263242 1.82355e-05 0.0008883 -0.000582897 0.00195998 0.00282724 0.00153416 0.00382544 
0.00457639 0.00371579 0.00532021 0.00578503 0.00557459 0.00611839 0.00629104 0.00670012 0.00613503 
0.00603548 0.00687495 0.00579464 0.00550788 0.00650304 0.0107733 0.0113959 0.00253555 -0.00459723 
-0.00588501 0.004589 -0.00316838 -0.00708519 0.0235255 0.0190719 0.0150082 0.01128 0.0197257 
0.00794242 0.00545772 0.0119494 0.00294474 0.0012308 0.00585463 -0.000448636 -0.00175962 0.00151451 
-0.00300687 -0.00394852 -0.00166582 -0.00484302 -0.00547088 -0.0040108 -0.00603455 -0.00637872 -0.00560922 
-0.00673993 -0.00695485 -0.00661843 -0.00712917 -0.00722345 -0.00722834 -0.00727523 -0.00725317 -0.00754148 
-0.00720458 -0.00708476 -0.00759028 -0.00695403 -0.00677724 -0.00740991 -0.00656879 -0.00633421 -0.00707077 
-0.00603014 -0.00572741 -0.00656794 -0.00537368 -0.00503188 -0.00591886 -0.0046467 -0.00424954 -0.00516503 
-0.00380419 -0.00336338 -0.00429927 -0.00289141 -0.00245438 -0.00334356 -0.00194256 -0.00147731 -0.00233361 
-0.000962213 -0.000500317 -0.00127142 -1.01154e-05 0.000394629 -0.000230044 0.000815993 0.00115872 0.000716668 
0.00150705 0.00176738 0.00152113 0.00200612 0.00216867 0.00213005 0.00225823 0.00230425 0.0024753 
0.00228391 0.00221894 0.00254453 0.00207643 0.00192197 0.00236139 0.00169367 0.00147898 0.00195902 
0.00117766 0.000910444 0.00140482 0.000582558 0.000292887 0.000739492 -3.72495e-05 -0.000298073 3.63311e-05 
-0.000568761 -0.000760917 -0.000592933 -0.000945627 -0.00108567 -0.00106557 -0.00119784 -0.00126582 -0.00137227 
-0.00127033 -0.00125533 -0.00149108 0.024321 0.0209598 0.0189379 -0.00618187 -0.0146792 0.0267441 
0.025796 0.00782096 0.0110879 0.0264432 0.0265016 0.02151 -0.0432343 -0.0481836 -0.0118657 
-0.0179328 -0.0101505 -0.0239495 -0.0312426 -0.0210811 -0.0178484 -0.0175243 -0.0121083 0.00221219 
0.000125949 -0.00181117 -0.0488126 -0.0456341 -0.0443796 -0.0408694 -0.0405431 -0.0377924 -0.0336301 
-0.0365495 -0.0300776 -0.0262332 -0.0302173 -0.0227909 -0.019482 -0.0233308 -0.0163702 -0.0130091 
-0.0170258 -0.00978714 -0.00644037 -0.0107762 -0.0033613 -0.000204412 -0.00455701 0.00289076 0.00608982 
0.00143575 0.00911697 0.0125003 0.00738266 0.0155203 0.0186869 0.0132875 0.021687 0.024963 
0.0191026 0.028227 0.0319046 0.0250331 0.0353688 0.0391456 0.0314543 0.0423675 0.0463992 
0.0377847 0.0495975 0.0533358 0.0438491 0.0553587 0.0591212 0.0486408 0.0327683 0.0287274 
0.0209633 0.0302703 0.00581073 0.00657171 0.00666635 0.0243524 0.0255231 0.0202404 0.0190635 
-0.00156006 -0.00181188 -0.0020762 -0.0583731 0.0200175 0.0225268 0.017713 0.0254793 0.0237157 
0.0216796 -0.00103745 -0.0012936 -0.00152002 -0.00105698 0.00410627 0.00389231 0.023025 0.0209288 
0.0209104 0.0137258 0.0173563 0.0138996 0.00949885 0.0120046 0.00163394 -0.00133413 0.0345818 
0.0278824 0.0287907 0.0162961 0.0141282 0.0115179 0.0136984 0.0522247 0.0615461 0.0206285 
0.0101991 0.00864722 -0.00114743 0.0156876 0.012807 0.0170601 0.00355735 0.00730225 0.00659433 
0.00699627 0.017055 0.0168781 0.0106656 -0.0386425 -0.0466082 -0.013961 -0.0155281 0.00243456 
0.00430738 0.00631753 -0.00122251 0.0201405 0.0190224 0.0194873 -0.0584938 -0.0540216 0.00554704 
-0.00491549 -0.0116548 -0.0183767 0.00932363 0.00693127 0.0141079 -0.0342418 0.0124495 -0.00137777 
0.00715591 0.00787378 0.00904177 0.00743724 0.0104326 0.0120489 -0.00333829 -0.00370916 -0.00421242 
-0.00459957 -0.00404457 -0.00508182 -0.00538207 -0.0050656 -0.00568499 -0.00586516 -0.00594333 -0.00595299 
-0.00598408 -0.0063943 -0.00624411 -0.0061301 -0.00678947 -0.00602914 -0.0163603 -0.00563129 -0.0049468 
-0.00684577 -0.00349674 -0.00246806 -0.00493332 -0.00133292 -0.000286405 -0.00228349 0.000968137 0.00209755 
0.000268376 0.00347544 0.00452791 0.00291985 0.00741814 0.00778934 0.00758818 0.00973618 0.00602169 
0.0128849 0.0128233 0.0142183 0.0247419 0.0203423 0.0158766 0.0121427 0.0202396 0.00885038 
0.00608331 0.0121721 0.00372202 0.00179525 0.00626024 -1.89652e-05 -0.00148402 0.00194265 -0.00280533 
-0.00389263 -0.00137321 -0.00481997 -0.00550399 -0.00377173 -0.00610066 -0.00653684 -0.00541431 -0.0069366 
-0.00721613 -0.00648659 -0.00742703 -0.00756177 -0.00718115 -0.00761681 -0.00760115 -0.00753739 -0.00755581 
-0.0074306 -0.00760538 -0.00730285 -0.0070917 -0.00743217 -0.00684745 -0.00657023 -0.00707018 -0.00623242 
-0.0058901 -0.00651612 -0.00550578 -0.00510299 -0.00581485 -0.00466371 -0.00418928 -0.00499341 -0.00368325 
-0.00318532 -0.00402999 -0.00262355 -0.0020922 -0.00294553 -0.00151364 -0.000975796 -0.00178819 -0.000379878 
0.000138888 -0.000596608 0.000667882 0.00111377 0.000553449 0.0015761 0.00194519 0.00157244 0.00230267 
0.00255531 0.00241411 0.00272528 0.0028198 0.00295307 0.00279978 0.00277194 0.00309617 0.00261707 
0.0024468 0.00290593 0.00217478 0.0019269 0.00244162 0.00158328 0.00126677 0.00179785 0.000865947 
0.00048969 0.00103582 3.96546e-05 -0.000321669 0.000139913 -0.000711027 -0.000997223 -0.000750407 -0.00126106 
-0.00145573 -0.00142579 -0.00161808 -0.00173894 -0.00185803 -0.00175952 -0.00175971 -0.00203479 -0.0121229 
-0.0112458 0.0351838 0.0302458 0.0303317 -0.00163674 0.00181748 -0.00444366 0.0172213 0.0177064 
-0.012285 -0.0157172 -0.0118673 -0.00761374 -0.0125341 -0.0173553 -0.0232237 -0.0141819 -0.00819582 
-0.011337 -0.00482396 0.00496069 0.00273596 -0.0019247 -0.00221383 -0.0316484 -0.0281217 -0.023482 
-0.0203615 -0.0247803 -0.0171004 -0.0141831 -0.0173182 -0.0117564 -0.00859426 -0.011914 -0.0058092 
-0.00293091 -0.00684639 -0.000115541 0.0027508 -0.00146355 0.00549521 0.00831442 0.00381515 0.0109484 
0.0138576 0.00893644 0.0159578 0.0186532 0.0134929 0.0211829 0.0240942 0.0178319 0.0268504 
0.0299213 0.022737 0.0324405 0.0352492 0.0276497 0.037517 0.0401686 0.0320157 0.0415202 
0.0426698 0.00427899 0.0154873 0.0163411 0.0129979 0.0110013 -0.00256504 -0.00291404 -0.00313355 
0.018402 0.0183579 0.0146156 0.00555843 0.00601968 0.0188519 0.0183399 0.015952 0.00487015 
0.00768015 -0.000126753 -0.0036519 -0.00541941 0.00138908 0.0429146 0.0419594 0.0139388 0.00839853 
0.00592488 0.00677562 0.00804036 0.0122481 0.0114525 0.00881026 0.0096228 -0.0283912 -0.0352857 
-0.00961069 -0.0105235 0.00935467 -0.00925688 0.00518401 0.00657967 0.00822367 0.0181254 0.0165758 
0.0178507 0.00781875 -0.0241228 0.00851877 0.00721259 0.00669356 0.006779 0.00611761 0.00553332 
0.0185098 0.0178314 0.0166061 -0.002381 0.0351591 -0.034153 0.00357026 -0.00711312 -0.00780525 
-0.00707828 0.00223472 0.00528187 -0.00371383 0.00948143 0.00578864 0.0144417 0.0121633 0.0152051 
-0.00485249 -0.00538955 -0.00679738 -0.00696186 -0.00351342 -0.0022425 0.00131193 0.0027236 0.0090036 
-0.00840022 -0.00810783 -0.00814458 -0.009723 0.0053779 0.00693596 0.00887608 0.00373251 0.0154541 
0.0118542 0.00874815 0.00615832 0.0115224 0.00393855 0.00196361 0.00603884 0.000207735 -0.0012696 
0.00197802 -0.00257191 -0.00362903 -0.00119321 -0.00446397 -0.00514385 -0.00339362 -0.00572726 -0.00620577 
-0.0048696 -0.00657487 -0.00689674 -0.00589444 -0.00710576 -0.00725042 -0.00654926 -0.00737727 -0.00734989 
-0.00697862 -0.00725047 -0.00713054 -0.00704994 -0.0069791 -0.00677329 -0.00679272 -0.00652905 -0.00623062 
-0.00644392 -0.00589603 -0.005539 -0.00591504 -0.00515087 -0.00470865 -0.00523916 -0.00422404 -0.00371235 
-0.00439351 -0.00312028 -0.0025558 -0.00331265 -0.00196023 -0.00138384 -0.00213226 -0.000740672 -0.000137363 
-0.000905576 0.000490967 0.00103343 0.000364082 0.00163582 0.00210795 0.00160427 0.0026567 0.00301254 
0.00278022 0.00329701 0.00345658 0.00362504 0.00343852 0.00340435 0.00385111 0.00315477 0.00298981 
0.0035413 0.00264899 0.0023306 0.00293818 0.00178628 0.00142895 0.00194888 0.000982604 -0.0150247 
-0.00611333 0.000101861 -0.000396294 0.00046743 -0.000884739 -0.00129366 -0.000989378 -0.00170906 -0.00198041 
-0.00189012 -0.00217812 -0.00233412 -0.00251064 -0.00237226 0.0296074 0.0286013 0.0243955 -0.0199245 
0.0102748 0.011328 0.00769797 0.00519195 -0.00260162 -0.00571227 -0.00746721 -0.00639298 -0.0103622 
-0.00825075 -0.00574398 -0.0132152 -0.0132206 -0.00281544 -0.000217313 -0.00430165 0.00214796 0.00447225 
0.000703271 0.00747578 0.00985878 0.00550909 0.0116544 -0.0103749 -1.94533e-05 0.0140996 0.0162149 
0.0103608 0.0186667 0.0209664 0.0147434 0.0230286 0.0250977 0.0188164 0.0268903 0.0103667 
0.00593727 0.00720369 0.00743572 0.00667333 0.0134895 0.0140283 0.0113446 0.012107 0.0105209 
-0.0027241 -0.00311631 -0.00611035 -0.00649579 -0.00702116 -0.0059462 -0.0081295 -6.61589e-05 -0.00646402 
0.00641632 0.00663613 0.00930974 0.010215 0.00806837 -0.00715288 0.00483026 0.00429745 -0.00361908 
-0.00409069 -0.00313459 0.019828 0.00301953 0.00390014 0.00406145 0.00328698 0.0169394 0.016073 
0.0159264 -0.0134376 -0.00966196 -0.0162526 -0.00769441 -0.00640202 0.00297874 0.000102909 0.010013 
0.0083857 -0.000736208 0.00433568 0.00663508 0.0065089 0.00393156 -0.00410475 -0.0044098 0.00885915 
-0.0110041 -0.0157471 0.0221659 0.00721635 0.00826096 0.00592983 -0.0043465 0.0123347 0.00663085 
0.00433972 0.00573767 -0.00677928 -0.00783871 0.0190525 -0.0028804 -0.00732745 -0.00520764 -0.00100368 
-0.00895317 -0.00297561 0.00557391 0.0044462 -0.000799256 -0.00287152 0.0140391 0.0108187 -0.0054822 
0.00796593 0.00562861 0.0101148 0.00365037 0.00179902 0.00528726 0.000294839 -0.00110828 0.00175171 
-0.0021391 -0.00304571 -0.000838677 -0.00378363 -0.00445052 -0.00268461 -0.00494444 -0.00537389 -0.00399262 
-0.00564954 -0.00596685 -0.00476894 -0.00625273 -0.00648809 -0.00541198 -0.00634956 -0.00773131 0.0163667 
-0.00624766 -0.00613197 -0.00569174 -0.00605648 -0.00588421 -0.00555935 -0.0056588 -0.00538347 -0.00530231 
-0.00504205 -0.00471142 -0.00479915 -0.00438211 -0.00389643 -0.00420208 -0.00332307 -0.00274386 -0.00333439 
-0.00209797 -0.00154085 -0.00211439 -0.000989193 -0.000358685 -0.000953897 0.000343307 0.000966593 0.000251956 
0.00157163 0.00217367 0.0015716 0.00293235 0.00349127 0.00290204 0.00420443 0.00445793 0.00441326 
0.00425498 0.00421987 0.00496582 0.00377354 0.00345556 0.00425971 0.00303463 0.0110107 0.0180066 
0.00195322 0.00134029 0.00250232 -0.00568607 -0.00134043 -0.000499962 0.00125484 -0.0040837 -0.00442681 
-0.00274469 -0.00338091 -0.00809942 0.00780624 0.00564668 0.00177768 0.00357676 -0.00265689 0.0122149 
0.0144785 0.0146484 0.0177785 0.00438294 0.00519615 0.00352025 0.0275411 0.0582164 0.0150276 
0.01668 0.00451416 0.00245063 0.00601497 0.00125519 -0.00122764 0.0143824 0.0129025 -0.00120894 
0.0631773 0.0909788 -0.00174331 -0.00131545 0.000342404 -0.00222517 0.00220641 0.00177752 0.00300333 
0.00393455 0.0134868 0.0117398 0.0114574 -0.00124525 0.000958238 0.00292708 0.00509396 -0.00310983 
0.00750575 0.00950762 0.00856106 0.00188117 0.0061609 0.00552507 0.00334345 0.0042606 0.00819645 
0.00953354 -0.00559075 8.69346e-05 0.00189119 0.00228034 0.000990683 0.00537705 0.00646309 0.00567288 
-0.00243138 -5.982e-05 0.0045646 0.00295503 0.00296176 0.00494925 0.002586 0.00885577 -0.00379444 
-0.00422304 -0.00446377 -0.00440794 -0.00286866 -0.00461132 -0.0045945 -0.00340244 -0.0034935 -0.0032568 
0.00324103 0.00244874 0.00320137 0.00179552 0.00182628 0.0019405 0.0007884 0.0140127 0.0116708 
0.00918591 0.00615648 0.00100657 0.00215958 0.00109322 0.00282112 0.00202649 0.00170185 0.00189134 
8.63537e-05 0.000478236 0.00795189 0.0066409 0.0046251 0.00633138 -0.00374938 0.00202839 0.00184788 
0.00119895 0.00297786 0.00149136 0.0041889 0.000530858 -0.000555579 0.00165241 -0.0013633 -0.00213629 
-0.00019465 -0.00288612 -0.00337126 -0.00168301 -0.00343275 -0.00372668 -0.00253659 -0.00243099 -0.00380767 
-0.00472783 -0.0045616 -0.00415652 -0.00388457 -0.00359396 0.00515442 0.0043895 -0.00192244 -0.00134448 
-0.000342249 0.000165344 0.000852439 0.00186492 -0.00287593 0.0038778 0.010002 0.00113808 0.00444048 
0.00416126 0.00314518 0.000958474 0.000675885 0.00161878 -0.00184438 -0.00214946 -0.000213336 -0.00266148 
-0.00190326 3.06691e-05 -0.001085 -0.00264755 -0.00085181 -0.00104644 0.000361552 0.00518079 0.00457727 
0.00253506 -0.000690565 0.00163518 0.00289371 0.00194694 0.00103226 0.000152752 -0.000664201 -0.00134394 
-0.00132552 0.00031454 -0.00284213 -0.00242106 -0.00011877 0.00216994 -0.000805516 -0.000857845 -0.000528017 
-0.00117443 -0.00140213 0.000199933 -0.00162762 0.000566548 2.8913e-05 -4.24953e-05 -1.27531e-05 -0.000136283 
-0.000120237 -0.000168714 -0.000252429 -0.00022972 -0.000370892 -0.000426323 -0.000400442 -0.000640131 -0.00062797 
-0.000585952 -0.00100127 -0.000829418 -0.00079862 -0.00138552 -0.00099299 -0.000967692 -0.00174709 -0.0011321 
-0.00110231 -0.00203655 -0.0011496 -0.00115231 -0.00220252 -0.00107378 -0.00109825 -0.0021724 -0.000847797 
-0.000898772 -0.00189221 -0.000441148 -0.000539442 -0.00132135 0.000100283 -3.91783e-05 -0.000456224 0.00058454 
0.000508671 0.000536046 0.00103512 0.000960739 0.00149202 0.00142111 0.0013456 0.00228581 0.00150888 
0.00150256 0.00277761 0.00144189 0.00147488 0.00285611 0.00123529 0.00129784 0.00262414 0.000775194 
0.000913308 0.00206772 0.000224033 0.000290729 0.00112379 -6.93758e-05 0.108323 0.0528927 0.0803989 
0.0171827 0.0173111 0.0704716 0.00747074 0.00816513 0.0258827 0.00319529 0.0035325 0.0115612 
0.000931315 0.00124679 0.00454956 -0.000261082 -0.000128199 0.00104379 -0.000984589 -0.000892484 -0.000964239 
-0.00147944 -0.0014155 -0.00224818 -0.0017802 -0.00174045 -0.0030341 -0.00186246 -0.0018571 -0.00346151 
-0.00184938 -0.00185761 -0.00360137 -0.00182792 -0.00183569 -0.0035748 -0.00174424 -0.00177059 -0.00350105 
-0.00158818 -0.00160985 -0.00327831 -0.00144521 -0.00147921 -0.00300351 -0.00127325 -0.00131526 -0.00269981 
-0.00102799 -0.00106423 -0.00229856 -0.000764021 -0.000809312 -0.00181028 -0.000511824 -0.000556714 -0.00131015 
-0.000256675 -0.00029525 -0.000807448 2.43211e-06 -5.33711e-05 -0.000310605 0.000234036 0.00019455 0.00016349 
0.000423709 0.000392861 0.000591607 0.000520469 0.000511223 0.000880977 0.000542795 0.000543312 0.00101965 
0.000494141 0.000508642 0.000998756 0.000374226 0.000399187 0.000849483 0.000207535 0.000249842 0.000584978 
5.59611e-05 8.08905e-05 0.000278617 -8.64486e-05 -5.65085e-05 -1.46509e-05 -0.000170094 -0.000159376 -0.000242153 
-0.000210583 -0.000208004 -0.000372549 -0.000194477 -0.000203508 -0.000410228 -0.000121983 -0.000141294 -0.000335815 
0.135718 0.000381541 0.000266038 0.000683827 0.000622191 0.00101945 0.00139232 0.00131282 0.00195681 
0.00169669 0.00170138 0.00300496 0.00130341 0.00142017 0.00304228 -0.00167436 -0.00127046 -0.000520192 
-0.00115347 -0.00190946 0.00346619 0.00241937 0.00230663 0.00740256 0.00640302 0.00955795 0.0095592 
0.00897463 0.0149736 0.00976626 0.0100106 0.0165362 -0.00584451 -0.00430301 -0.00644364 -0.00704641 
-0.0124847 -0.00235869 -0.00344886 -0.00871615 0.000331518 -0.000165131 -0.00225691 0.00144279 0.00129554 
0.00144956 0.0010562 0.00125693 0.00230082 -0.000438638 -0.000209485 0.000364416 -0.00354284 -0.00308485 
-0.00425908 -0.00852127 -0.00847575 -0.012745 -0.0214773 -0.0178673 -0.0291339 -0.0557498 -0.0378472 
-0.0600428 -0.121972 -0.132717 -0.158717 -0.1001 -0.127604 -0.118379 -0.081465 -0.0929664 
-0.1015 -0.0653829 -0.0833147 -0.0816097 -0.0541427 -0.071003 -0.0675104 -0.0494194 -0.0586964 
-0.0564872 -0.0314154 -0.0454398 -0.0439058 -0.0196835 -0.0282038 -0.0327552 -0.0112948 -0.0262126 
-0.0220642 -0.00225614 -0.0171059 -0.0142012 0.00299544 -0.00883554 -0.00606309 0.0160033 0.00551723 
0.00440255 0.0249618 0.0113442 0.0135685 0.0338516 0.0191365 0.0217278 0.0355682 0.0271858 
0.0299206 0.0538305 0.0393203 0.0409326 0.0658989 0.0581986 0.0528951 0.079017 0.0637081 
0.0645618 0.0888503 0.0761076 0.0784968 0.110791 0.094306 0.096105 -0.0700243 -0.0129016 
0.0934297 0.0885776 0.106675 0.0832489 0.0579775 0.080686 0.0709464 0.0662856 0.0661254 
0.059163 0.0605435 0.0538889 0.0499662 0.054012 0.0460611 0.0431828 0.0480714 0.0396545 
0.0385394 0.0433471 0.0354948 0.034386 0.0404473 0.0321 0.0321637 0.0364406 0.0303569 
0.0316876 0.0329988 0.0286073 0.024839 0.0286621 0.010584 -0.0680097 -0.0738351 -0.0337311 
-0.0739615 0.0259806 -0.00312679 -0.021756 0.059398 0.0485739 0.0742818 0.0720257 0.0474764 
0.0802245 0.0811374 0.0637578 0.0812189 0.0828214 0.0711606 0.0757623 0.0800657 0.0610368 
0.0712051 0.0636482 0.0531584 0.0616741 0.036226 0.04524 0.0513737 0.0145885 0.0255839 
0.0334535 -0.0123542 0.00294371 -1.30439e-05 0.000202778 -3.9499e-05 -1.16402e-05 0.000517893 0.0011689 
-0.004364 0.00207103 0.00392866 0.0114479 -0.10033 -0.110423 0.0524933 0.0939045 -0.130103 
-0.0745064 0.114184 -0.0232976 -0.0128303 0.00634003 0.0145067 0.00311726 0.0178566 -0.0255541 
-0.0613991 -0.0054065 -0.0572893 -0.0465249 0.0696925 0.0600075 0.0127142 -0.00177204 0.0371213 
-0.000172471 0.109925 -0.000591752 -0.000469941 -0.000383451 -0.000272939 -0.000379671 -0.000590705 -0.00148252 
-0.00126747 -0.00200699 -0.00178661 -0.00205448 -0.00251662 -0.00232247 -0.00273183 -0.00289987 -0.00274901 
-0.00333978 -0.00306148 -0.00301646 -0.00374505 -0.0029643 -0.00305279 -0.00388046 -0.00248436 -0.00273305 
-0.00361464 -0.0015954 -0.00202519 -0.00286425 -0.000343076 -0.000934048 -0.00160607 0.00101063 0.000432887 
2.3873e-05 0.00228794 0.00174944 0.00172765 0.00334266 0.00292459 0.00329169 0.00385791 0.00368848 
0.00441597 0.00384124 0.00389585 0.00487364 0.00347295 0.00370072 0.00475793 0.00276408 0.00318484 
0.00426028 0.00150903 0.00211225 0.00323759 0.0164105 0.0127123 0.0147504 0.0206596 0.0295055 
0.0420926 0.0327785 0.0585097 0.092483 0.0956754 0.0601715 0.00681495 0.00975074 0.0173654 
0.00208141 0.00366276 0.00798723 -0.000686691 0.000326787 0.00240976 -0.00248971 -0.00185159 -0.000891794 
-0.00371213 -0.00325912 -0.00306805 -0.00435051 -0.00418448 -0.0045291 -0.00468566 -0.00463053 -0.00539629 
-0.00477022 -0.00474808 -0.00580539 -0.00461006 -0.00467133 -0.00584839 -0.00431669 -0.00449471 -0.00565291 
-0.00400062 -0.00415988 -0.00533773 -0.00355044 -0.00373722 -0.00487054 -0.00297375 -0.00325015 -0.00425933 
-0.00232448 -0.00261436 -0.00353701 -0.00167345 -0.0019625 -0.00272558 -0.000980708 -0.0012818 -0.00189454 
-0.000289354 -0.000571003 -0.00100089 0.000337407 6.54078e-05 -0.000144661 0.000880147 0.000658784 0.000613981 
0.00123522 0.00110175 0.00122655 0.00137642 0.0013472 0.00160136 0.00131885 0.0013777 0.00171673 
0.00105601 0.00118246 0.00155774 0.000681423 0.000852429 0.00118167 0.00025405 0.000441345 0.000680803 
-0.000121335 3.42828e-05 0.000160007 -0.000396464 -0.000292064 -0.000277483 -0.000557739 -0.000506259 -0.000587773 
-0.000581576 -0.000592449 -0.00075119 -0.000475516 -0.000546305 -0.00074667 -0.000599695 0.00422667 0.00384919 
0.00173354 0.00384789 0.00429068 0.00458951 0.00561502 0.00721827 0.00340393 0.0141712 0.000478261 
1.89907e-05 0.00309865 0.0211581 0.0193334 0.023213 -0.00661211 -0.0103025 -0.0157581 -0.016741 
-0.0137557 0.00203975 0.000984304 0.00151896 0.00203014 0.00197672 -0.00229582 -0.000353471 -0.000393501 
-0.00943822 -0.00573991 -0.00660462 -0.022793 -0.0154452 -0.0174035 -0.0467526 -0.032991 -0.0360522 
-0.0831706 -0.0619629 -0.0635717 0.0598495 0.0596967 0.013208 0.0452022 -0.0813734 -0.0800819 
-0.099554 -0.0682531 -0.0633942 -0.0694745 -0.0559489 -0.0509882 -0.0580451 -0.0418592 -0.0424212 
-0.0469565 -0.0327152 -0.0336633 -0.0364103 -0.0261012 -0.020414 -0.0266958 -0.016207 -0.0105654 
-0.0177152 -0.00624874 -0.000688326 -0.00864036 0.00257286 0.00507058 -0.000250205 0.0117005 0.0139457 
0.00841018 0.0189812 0.0242972 0.0173502 0.0289239 0.034556 0.0257846 0.0413462 0.0416981 
0.0349332 0.0513546 0.0495439 0.0446213 0.0621761 0.0607146 0.0549257 0.0744789 0.0765098 
0.066137 0.0934372 0.0876575 0.0772082 0.0828906 -0.060566 -0.0176981 0.000308732 0.0197168 
0.00305889 0.0450228 0.0446083 0.0475943 0.0451866 0.0314978 0.0486731 0.0444159 0.0374723 
0.0432078 0.0396723 0.0374411 0.0395452 0.0369425 0.0342486 0.030889 0.0287704 0.0499257 
0.034119 -0.00349407 -0.00903875 0.00147312 0.0534756 0.0465793 0.0403825 0.0282429 0.0310455 
0.0480556 0.0530363 0.055571 0.0584417 0.0473978 0.022863 0.0312394 0.0357228 0.0420534 
0.0395589 0.0303309 -0.000992505 -0.000805196 -0.000915291 -0.00143351 -0.000700481 -0.00326331 0.000514237 
0.0294737 0.0450857 0.0251471 0.0267281 -0.036454 -0.0409365 0.0597657 0.056155 0.0423169 
0.0115223 0.0185226 0.0216377 -0.0936619 0.00380473 0.00257355 0.0416729 0.0298445 0.00459952 
0.0130981 0.0122537 0.0178462 0.00763367 0.00575201 0.000633801 0.00194844 0.00156245 -0.0153586 
-0.00657085 0.00261053 0.0216329 0.026751 -0.00438346 0.0209035 -0.00402871 -0.00565426 0.00321082 
-0.0214893 0.048201 0.0502767 0.0343207 -0.0891511 -0.0585218 -0.0397913 0.0149925 0.0229429 
-0.0324532 -0.00727712 -0.0241971 0.0148097 0.0101937 0.033018 0.0297942 0.0291103 0.0357887 
0.0385336 0.0353674 0.0336206 0.00435927 -0.0536495 -0.0360265 -0.0256472 0.0073641 0.0343541 
0.00683541 -0.00475534 0.0217065 0.019531 -0.00401444 -0.00372702 -0.00252225 -0.00217171 -0.00445517 
-0.00429342 -0.00470208 -0.00456012 -0.00457171 -0.00516356 -0.00416902 -0.00443898 -0.00518919 -0.00317215 
-0.00372383 -0.00460448 -0.00157221 -0.00237551 -0.00327532 0.000462856 -0.000487227 -0.00125333 0.00244706 
0.00156622 0.00112012 0.0043299 0.00354185 0.00347819 0.00548608 0.00505222 0.00543476 0.00577484 
0.00572166 0.00646537 0.00540591 0.00558764 0.00649125 0.0049966 0.00536332 0.00621895 0.00640491 
0.00882885 0.0103265 0.00698421 -0.000855094 -0.000745155 -0.000854211 -0.0120356 0.0118089 0.0177541 
0.0241457 0.0522795 0.0687285 0.0724345 -0.000474606 0.00100826 -0.00307858 -0.00196966 -0.000427139 
-0.00480948 -0.00413364 -0.00328704 -0.00584531 -0.00548549 -0.00523166 -0.00638358 -0.00620921 -0.00638416 
-0.00649719 -0.00651476 -0.00696811 -0.00632831 -0.00644835 -0.00713108 -0.00596876 -0.00617143 -0.00695216 
-0.00541346 -0.00570155 -0.00650706 -0.00472837 -0.0050674 -0.00587214 -0.00388102 -0.00430416 -0.00508298 
-0.00295066 -0.00339842 -0.00412681 -0.00195149 -0.00241659 -0.00303778 -0.00088939 -0.00137933 -0.00186726 
4.32926e-05 -0.00038009 -0.000717914 0.00091316 0.000531868 0.000339644 0.00156135 0.00128803 0.00125769 
0.00192781 0.00179366 0.00191008 0.0019669 0.0019826 0.00221285 0.00170422 0.00186563 0.0021495 
0.00121292 0.00145375 0.00176938 0.000587428 0.000880925 0.00114224 -1.56945e-05 0.000248254 0.000420425 
-0.000486206 -0.000282647 -0.000229377 -0.000815237 -0.00068291 -0.00072845 -0.000961375 -0.000919902 -0.00104527 
0.0120322 0.0127087 0.00310917 0.00536939 0.00345344 0.00702795 0.00645707 -0.00332283 -0.00296665 
-0.00307087 -0.00396293 -0.000428537 -0.00318765 0.0187988 0.0229498 -0.00283165 -0.000362999 0.00161185 
0.00211778 4.33891e-05 -0.0236173 -0.0159352 -0.0437119 -0.0319769 -0.029845 -0.0684252 -0.0542937 
-0.0489188 -0.0775495 -0.0413474 -0.046993 -0.0614786 -0.066968 -0.0322154 -0.0369357 -0.0370764 
-0.0232392 -0.028012 -0.0285643 -0.014652 -0.0192697 -0.0203026 -0.00623396 -0.0106548 -0.0121634 
0.00222964 -0.00224758 -0.00394884 0.0102488 0.00598404 0.00401771 0.018603 0.0140366 0.0117727 
0.0268686 0.0225598 0.0196013 0.0358084 0.0307512 0.0274066 0.0446392 0.0401223 0.035579 
0.0543446 0.0491948 0.0441635 0.064784 0.0587444 0.0527688 0.0154403 0.00885577 -0.0204029 
-0.0290468 0.00232362 0.0010643 0.00219088 0.00278582 0.0315393 0.0291237 0.00860986 -0.0517414 
-0.0571262 -0.0549392 -0.0462669 0.0200248 0.0232654 0.0244938 0.0267553 -0.0109576 -0.0066254 
-0.00623352 -0.0158008 -0.0349394 -0.0258957 -0.0135381 -0.00668421 -0.0126128 -0.00172727 0.0313893 
0.0416038 0.049694 0.0315554 0.00555646 0.00304207 0.00702765 0.0404533 0.038834 0.00865388 
0.0125406 0.0183726 0.00924223 0.0418164 0.0420574 0.033319 0.0356944 0.0319525 0.0291202 
0.0271783 0.0208726 0.0135493 0.0221277 0.0388 0.0412749 0.0343241 -0.00217058 -0.00175058 
-0.00145145 0.0154973 0.0108713 -0.0296431 -0.0343323 0.00658361 0.00422042 0.00490895 0.0141459 
0.0101811 -0.000931243 -0.000974871 -0.00117148 -0.0011054 0.00534134 0.0114407 -0.00258829 0.0129227 
0.0294344 0.0269659 -0.00108297 0.021644 0.0156552 0.000943528 -0.00805763 -0.0168333 0.0184094 
0.019291 0.0201939 0.0165624 0.00942708 -0.0272757 0.0273001 0.00452302 0.005629 0.0178796 
0.0364625 0.0318406 0.0325547 0.074043 0.0691274 0.0613054 0.063379 -0.0255132 0.00707708 
-0.0192345 0.0301599 0.0228596 0.0254702 0.0296656 -0.00527126 -0.00493435 -0.0050987 -0.00559247 
-0.00343474 -0.00431846 -0.00543347 -0.000949141 -0.00218118 -0.00332368 0.00182776 0.000568756 -0.000348326 
0.00442207 0.00325242 0.00281354 0.00694707 0.00608958 0.00601764 0.00746371 0.0071785 0.00809095 
0.00713982 0.00733743 0.00819136 -0.020641 -0.0200816 -0.00856353 -0.00960459 0.0157585 0.0117775 
-0.00313961 -0.00177775 7.94985e-05 0.00191558 0.000213205 -0.00650532 -0.00604367 -0.0071814 -0.00693772 
-0.0066817 -0.00737136 -0.00734412 -0.00737626 -0.00718996 -0.00733876 -0.00758613 -0.00672781 -0.00700536 
-0.0073869 -0.00604587 -0.00639216 -0.00688386 -0.00518444 -0.00562942 -0.00614425 -0.00415493 -0.00468771 
-0.00521711 -0.00297808 -0.00356223 -0.00410103 -0.00166375 -0.00229151 -0.00278999 -0.000433324 -0.000988409 
-0.00138456 0.000697779 0.000162406 -6.95027e-05 0.00165092 0.0012436 0.00111681 0.0022837 0.00202132 
0.00206618 0.00249123 0.00244657 0.00261736 0.00229669 0.00242429 0.00269504 0.00176252 0.00204464 
0.00233816 0.000976375 0.00134743 0.00162697 0.000133009 0.000512912 0.000694446 -0.000542315 -0.000247679 
-0.000192695 -0.00103782 -0.000824469 -0.00088292 -0.00134098 -0.00122604 -0.00136584 0.00933024 0.00791267 
-0.00136458 0.0277437 0.0265572 -0.00155605 0.000954772 0.00757661 0.00599843 0.0282959 -0.00276273 
-0.049841 -0.0406404 -0.0465237 -0.0344604 -0.0257978 -0.035893 -0.0172112 -0.0211259 -0.0243708 
-0.0284235 -0.0211529 -0.0319723 -0.0362254 -0.0276169 -0.00934716 -0.0134384 -0.0142767 -0.00194153 
-0.00588555 -0.00716747 0.00554735 0.00174431 -0.000270167 0.0127572 0.00905262 0.00664652 0.0200399 
0.0162042 0.0133014 0.0269202 0.0233034 0.0196867 0.0345642 0.0304936 0.0260841 0.0423729 
0.0383227 0.0329731 0.0497551 0.0458754 0.0396097 -0.00582726 -0.00592238 -0.00647386 -0.0058117 
-0.00564343 -0.00591869 -0.00653055 0.00428938 0.0137483 -0.0228899 -0.0213575 0.00431321 0.00681687 
0.00469685 -0.00524242 -0.00439924 -0.00314537 -0.00536113 -0.0166962 -0.0056028 -0.00110295 0.0235176 
0.021006 0.0168388 0.00370987 0.00166602 0.0284428 0.0288128 0.022633 0.0169179 0.0245401 
0.0220599 0.0198722 0.000780979 0.0445518 0.0549692 0.0574435 -0.0146571 -0.0203504 -0.0173255 
0.00640971 0.00678571 0.00663782 -0.00502389 -0.00383295 -0.00925147 0.0202868 0.0219151 0.00722905 
0.0052078 0.00256247 0.0120609 0.0164231 0.0175865 0.00689963 -0.00139314 -0.0016048 -0.00140436 
0.00213134 0.00307811 -0.00348102 -0.00300922 0.00920247 0.007258 0.0127793 0.00397075 -0.00443553 
-0.00400167 -0.00391812 -0.00497556 0.00983533 0.00944142 0.027325 -0.0025193 -0.00208429 -0.00288054 
0.0048338 0.00424128 0.00570069 -0.0203109 -0.0145416 -0.0126984 0.0187096 0.0196578 0.0184229 
-0.0146523 0.0100561 0.00932276 0.0130202 0.00705774 -0.0402901 -0.0446857 -0.0405261 -0.0349043 
0.0282931 0.0234173 0.0265438 0.00703245 0.0535756 0.0286621 0.036442 0.0408903 0.0170507 
0.0226799 0.0268653 0.0167813 0.0193677 0.0157306 0.0108787 0.0157069 0.0461249 -0.00145367 
-0.00607781 -0.00689605 0.0045321 0.00282716 -0.000333696 -0.00582025 0.00383057 -0.0132871 -0.00892134 
0.000494121 0.00264337 -0.00355783 0.00396153 -0.00719858 -0.0069051 -0.00646483 -0.0059487 -0.00627845 
-0.00724286 -0.00740571 -0.00674499 -0.00704527 -0.00708701 -0.00598125 -0.00638807 -0.00655911 -0.00501824 
-0.00552605 -0.00577176 -0.00385174 -0.00445862 -0.00476732 -0.0024405 -0.00314879 -0.00349999 -0.000981653 
-0.00168179 -0.00203164 0.000360031 -0.000261844 -0.000540327 0.00161503 0.00104869 0.000890721 0.00253369 
0.00214976 0.00213534 0.00300305 0.00283862 0.00299988 0.00290389 0.00300162 0.00328974 0.00233015 
0.002631 0.00297781 0.00139357 0.00184481 0.00214577 0.000264811 0.000768431 0.000964145 -0.000678574 
-0.000280288 -0.000254018 -0.0013554 -0.00106715 -0.0012047 -0.00174015 -0.00154763 -0.00176717 0.00104721 
0.00359619 0.00953194 0.0379767 -0.00740965 -0.00738548 -0.00698968 -0.00725036 -0.0175382 -0.0206045 
-0.035474 -0.0297649 -0.0341545 -0.00530028 -0.00852248 0.0231849 0.0253148 0.0222053 0.0200334 
-0.0115469 -0.0151355 -0.0147265 -0.0220638 -0.0251546 -0.0183007 0.00579917 0.00739199 0.00495354 
0.00103082 -0.00234859 -0.00374147 0.00731455 0.00411172 0.00191552 0.0131855 0.0100849 0.00742701 
0.0187039 0.0158347 0.0124645 0.0242905 0.0212109 0.0171505 0.0300383 0.0268834 0.0217942 
0.035244 0.032557 0.0262379 0.0102638 -0.00728058 -0.00746613 -0.0081775 0.00551801 0.00817837 
0.00561747 -0.00331898 -0.00465342 -0.0062564 0.000237315 -0.00143787 -0.00291473 0.00189848 0.0091919 
0.00972938 0.0187548 0.017938 0.0164242 0.0148647 0.0132172 0.0306673 0.00722146 -0.0084165 
-0.00996624 -0.00643955 -0.00600236 -0.00225274 0.00577795 0.00603766 -0.0039194 -0.00151981 0.00055039 
-0.00299939 0.0159539 0.0164422 0.00953795 0.0082882 0.00319592 0.0142686 0.0170457 0.0178619 
-0.00501353 -0.00519963 -0.00428264 -0.00195603 -0.00217446 -0.00175015 -0.000236548 -0.00543228 -0.00949955 
-0.00411151 -0.0035816 0.0130401 0.012596 0.0154998 0.0162065 0.0178887 0.0170084 -0.00200465 
-0.0237926 0.00658678 0.00558595 0.00513835 0.00751243 0.00759251 0.0073207 0.00983335 0.010477 
-0.00529967 -0.00476492 -0.00437915 -0.00578925 -0.00305744 -0.00255853 -0.00231267 -0.00320325 -0.00170483 
-0.0143788 -0.00908032 -0.00664075 -0.0137988 -0.0154831 -0.00723431 -0.00701892 -0.00718841 -0.00816217 
0.0195533 0.0153118 0.019571 0.0105184 0.0132546 0.011306 -0.0145092 -0.0122503 -0.0238331 
0.0122628 -0.0245175 -0.0192092 -0.0148561 0.00220723 -0.00101522 0.00646099 -0.00922497 -0.00883117 
-0.00446537 4.30976e-05 -0.0303322 0.0156727 0.0136734 0.0148443 -0.00640749 -0.0108972 -0.00993869 
-0.006099 -0.00641567 -0.00668484 -0.00685302 -0.00621917 -0.00425634 -0.00480501 -0.00297178 -0.00366342 
-0.00372654 -0.00149528 -0.00223581 -0.00243264 4.97337e-05 -0.000673785 -0.000883576 0.00152594 0.000830042 
0.000715556 0.00276379 0.00223821 0.00222776 0.00357892 0.00327811 0.00345602 0.00364593 0.00365058 
0.00404081 0.00300541 0.00333864 0.00380247 0.00185234 0.00240236 0.00280648 0.00029652 0.000973422 
0.00120977 -0.00101683 -0.000455918 -0.000539464 -0.00193611 -0.00156405 -0.00182735 -0.00213862 -0.00257607 
-0.00514737 -0.0085773 -0.011448 -0.00701244 0.00274026 3.55026e-05 -0.00149517 0.0189492 0.0199069 
0.0162858 0.0156666 0.00659391 0.00406143 0.00724766 0.00806672 0.0104046 0.00349283 0.00591842 
0.00697764 0.00455239 0.00245343 0.0111267 0.00893538 0.00605239 0.0150728 0.0130356 0.00937217 
0.01879 0.0168144 0.0125391 0.0221955 0.0203992 0.0153951 0.00592174 0.00668003 0.00705466 
0.0107545 0.00960661 0.00547921 0.00849985 -0.00787657 -0.00716633 -0.00881338 0.0249364 0.023127 
-0.00530351 -0.00572307 -0.00478213 -0.00567292 -0.00515903 0.00958753 0.00753 0.00560373 0.0077668 
0.0173841 -0.00640674 0.00444042 0.0110652 0.0126682 0.0127079 -0.00289514 -0.0029244 -0.00448043 
0.000549016 -0.0081387 -0.00560598 0.000446592 0.00264109 0.00509139 0.0144649 -0.0148869 -0.0104569 
0.0111996 0.0115177 -0.00446113 -0.0036094 -0.00394852 -0.00634918 -0.00676991 -0.00669423 -0.00253916 
-0.00141079 0.00145194 0.00236744 0.0145368 -0.00588432 -0.00514387 -0.00643387 0.00632552 0.00829893 
0.00720212 0.0140353 0.0064192 0.00472911 0.00521258 0.0121405 0.00871843 0.0129133 0.012175 
-0.00969246 -0.00978891 -0.0108311 0.0041509 0.00366355 0.00398666 -0.00730957 -0.00372278 -0.00718946 
-0.0061482 -0.00516315 -0.00646117 -0.00302667 0.011123 0.00848203 0.0110099 0.00591563 0.00414091 
-0.00158072 -0.00225454 -0.00289843 -0.00343867 -0.00201688 0.00156591 0.000806322 0.00434868 0.00388293 
0.00397329 0.00429412 0.00247677 0.00320114 0.00377242 0.000161299 0.00108721 0.00144058 -0.00172594 
-0.000949202 -0.00120694 -0.00287361 -0.00237187 -0.00290807 -0.00363379 -0.00407835 -0.00279252 -0.00138792 
0.000429529 -0.00230133 0.00491946 0.00352267 -0.00427016 0.00457091 0.00563121 0.0110684 -0.0104372 
-0.00426649 0.00731207 0.00997139 0.00872978 -0.00773521 -0.00986485 0.00726546 0.00656659 0.00609605 
0.00656784 -0.00394344 -0.00437318 -0.00307169 0.00750293 0.00617106 0.00350234 -0.0135365 -0.000162527 
-0.000957705 -0.000830581 0.000691168 -0.00536584 -0.00565032 -0.0056862 -0.00602832 -0.00471866 -0.00288631 
0.000443222 -0.00154211 0.0086255 0.00391834 0.00300036 0.00455334 0.00237815 0.0028726 -0.00313029 
-0.00241657 0.00915849 0.0124749 -0.00547509 -0.0112649 0.00297381 0.00227492 0.00458294 0.00454336 
-0.00370068 -0.00176163 0.001143 0.00285485 -0.00199635 0.0195954 0.00463073 0.00356665 0.00656276 
0.00539606 0.0036415 0.00474482 0.00434982 0.00412461 0.00625227 -0.0037985 -0.00248313 -0.00434165 
0.00200226 0.00143642 -0.00388584 -0.00474553 -0.00507584 0.0071584 0.00585162 0.00325665 0.00241976 
-0.00594152 0.00256075 0.00600185 -0.00450904 0.00487598 0.00513794 0.00538515 0.00332151 0.0025989 
0.00152515 0.00193051 0.00126706 0.000260095 0.00183107 -0.000653637 -0.00121917 0.00287203 0.000908834 
0.00409865 -0.00188412 -0.00231565 0.00396202 -0.00515452 -0.00477538 -0.00352739 -0.00437167 -0.00311201 
7.59909e-05 0.00103106 0.0132217 0.012851 0.00591799 0.00585162 -0.00219584 -0.0025027 -0.000913971 
0.00359901 0.00167515 0.00145779 0.00359689 0.00307258 0.00553277 0.00615151 0.00570351 -0.00312132 
-0.00340117 -0.00140079 -0.000662418 -0.00201795 0.00251457 0.00193877 0.00585584 0.000873824 -0.00165114 
-0.00306781 -0.0546424 -0.000788238 0.0010273 0.00352689 0.00715165 -0.000318411 0.00994236 0.00133922 
0.00189471 -0.00146436 -0.000879371 0.00532043 0.00102765 0.00172892 0.000311893 0.000980909 -0.000292283 
0.000213336 0.00492123 -0.000522393 -0.00102763 -0.000318772 0.000700796 0.0017089 -0.000231057 0.00130548 
0.00263763 0.000720712 0.00039357 0.00170198 -0.00174398 -0.00220093 0.00244946 -0.000348304 0.000735626 
-0.00259856 -2.31012e-05 -0.145161 -0.0156122 -9.74949e-05 -8.85863e-05 -1.23332e-05 1.01945e-05 6.81313e-05 
9.4322e-05 0.000134919 0.000132977 0.00012391 0.000105919 0.000388338 0.000743632 0.00142393 0.00176066 
0.0012302 0.000839642 0.000443197 0.000772448 0.000732803 0.0010837 0.000168551 0.00130622 0.00186726 
0.00241664 -0.00408972 0.00118728 -0.000974895 -0.00129633 -0.000567616 -0.000960604 0.000592036 0.000807996 
-9.20892e-06 -0.00036436 -0.000842597 -0.000729632 -0.000234922 0.000129425 -0.000230492 -0.00106972 -0.00019689 
0.000101371 0.000293766 0.000364527 0.000522956 0.000460766 -0.000738399 0.139631 1.20963e-05 2.59412e-05 
0.0100657 -0.00267603 -0.00326035 -0.00314129 -0.00143818 -0.000793363 -0.000740903 -0.000487078 -0.000428594 
-0.000362869 -0.000419525 -0.000252805 -0.000274991 -0.00020016 -0.000204626 -0.000187506 -0.000174636 -7.77653e-05 
-0.00011453 -0.000127393 -0.000130262 -0.000111524 -0.000102872 -0.000104895 -8.82751e-05 -4.37687e-05 -4.60407e-05 
-5.95871e-05 -6.19504e-05 -6.6906e-05 -5.66487e-05 -7.11619e-05 -5.29689e-05 -3.50736e-05 -3.24241e-05 -3.13006e-05 
-2.07095e-05 -2.74946e-05 -1.61271e-05 -2.59973e-05 -1.49192e-05 4.9119e-07 1.8125e-05 1.82626e-05 2.8406e-05 
3.06201e-05 3.08147e-05 3.06287e-05 3.2356e-05 2.84788e-05 2.48904e-05 2.70462e-05 1.90085e-05 3.74338e-06 
2.06715e-05 3.0293e-06 -1.95172e-06 -9.41285e-06 -1.11284e-05 -1.13929e-05 -1.22585e-05 -1.14276e-05 -8.76642e-06 
-8.18428e-06 -2.44439e-06 7.41009e-06 1.51723e-05 1.82846e-05 2.77028e-05 2.82819e-06 1.8027e-06 -1.03706e-05 
-0.00033452 -0.000134793 -7.13222e-05 -3.79013e-05 -6.02037e-07 3.67518e-05 -1.22922e-05 1.09155e-05 -4.49288e-05 
-7.25e-05 1.86197e-05 3.95957e-06 -1.05364e-06 -2.92938e-06 1.41232e-07 -7.88834e-06 -4.55592e-06 -1.00745e-05 
-4.27956e-06 -2.08265e-05 -2.86329e-05 -3.92256e-05 -3.61687e-05 -3.74666e-05 -2.85001e-05 -3.05768e-05 -3.65926e-05 
-4.5564e-05 -5.82488e-05 -6.04648e-05 -6.17209e-05 -5.04737e-05 -4.686e-05 -1.46668e-05 -1.65269e-05 3.79379e-05 
3.03655e-05 3.62577e-05 3.58778e-05 4.67202e-05 4.14494e-05 5.30896e-05 5.08055e-05 6.40943e-05 7.68218e-05 
7.4917e-05 7.43016e-05 5.8675e-05 5.65705e-05 3.68826e-06 -3.11161e-06 -2.28017e-05 3.38241e-06 -6.38469e-06 
-4.15139e-05 -1.96668e-05 6.4167e-05 -0.0122389 -0.0275893 -0.0298865 -0.0366793 -0.0393246 -0.0428298 
-0.045921 -0.0492365 -0.0494643 -0.049488 -0.0505298 -0.0493729 -0.0505643 -0.0485938 -0.0473916 
-0.0453284 -0.0443319 -0.0404876 -0.0401598 -0.0326266 -0.0298092 -0.0229699 -0.0193696 -0.0189861 
-0.0273767 -0.0369421 -0.0299177 -0.0438048 -0.0396785 -0.0464314 -0.0452216 -0.049911 -0.0487086 
-0.050711 -0.0505286 -0.0493998 -0.0503284 -0.0452713 -0.0483471 -0.0407827 -0.043518 -0.0334744 
-0.0372159 -0.0238455 -0.0310009 -0.0198409 -0.0605607 -0.0253358 -0.0242253 -0.0174746 0.0102672 
0.00193224 0.0212367 0.0265796 0.0149049 0.0350726 0.0230196 0.0358802 0.0193456 0.0331508 
0.0202414 0.0138767 -0.00340769 0.00217462 0.00514501 0.00414026 -0.000688109 -0.00684759 -0.0105489 
-0.049992 -0.0518645 -0.0518616 -0.0524842 0.000432539 0.000282128 0.000255874 0.000135116 -0.0501514 
-0.0479073 -0.0516119 -0.0439917 -0.0465575 -0.0185379 -0.0379111 -0.0401062 -0.0507627 -0.0440771 
-0.0454593 -0.0501289 -0.0279284 -0.030858 -0.0358248 -0.0397978 -0.0339225 -0.046385 -0.0425268 
-0.0248711 -0.0199325 0.00590833 0.0114985 0.00729458 0.0135452 -0.0493152 -0.04864 0.0329446 
0.0552544 0.138554 0.0957678 0.101467 -0.0399999 0.0440738 -0.00626931 -0.0075938 -0.00685957 
-0.00827641 0.00316866 0.00503409 0.00814604 0.0488623 0.0496112 0.0411941 0.049328 0.0412305 
0.0133028 0.00887845 0.0116243 -0.000737653 -0.000823296 -0.00151972 0.00363113 0.00381289 0.00311891 
0.003297 -0.029679 -0.0288517 -0.0254039 -0.000576791 0.00110482 0.00220524 -0.00293857 -0.00182256 
-0.00391877 -0.00283358 -0.00283929 -0.00416684 -0.00363953 -0.00165687 -0.00225539 -0.00152518 -0.00214771 
-0.000725647 0.000687399 -0.000442187 0.000859176 0.000212895 -0.0024652 -0.00316065 -0.00265684 -0.000786238 
-0.00310297 -0.000575552 -0.00142755 -0.000618268 -0.000871484 0.0503624 0.052894 0.0514032 0.0567098 
0.0041997 0.00567376 0.00311418 0.00227437 0.00152592 0.00180291 -0.00395054 -0.0289692 -0.0304643 
0.0748589 0.0725002 0.0829164 -0.0226952 -6.71206e-05 -1.29928e-05 -0.00048887 0.00297 0.00170693 
0.00330676 -0.00233416 -0.00247389 -0.00317183 -0.00332749 0.012091 0.0109028 0.00994187 0.00889769 
-0.00261116 -0.000206421 0.000659824 0.000293113 0.00110501 -0.0296973 -0.030052 -0.0374645 0.0446557 
-0.000698547 -0.000988254 -0.00149982 0.00725188 0.00663785 0.00645061 0.0474313 0.002342 0.00184117 
0.00224643 -0.00131224 -0.00156271 -0.0013283 -0.00641641 -0.0509737 -0.0473095 -0.0417675 -0.000496496 
-0.000591477 -0.000377473 -0.00108495 -0.000815696 -0.00132441 -0.000848717 -0.00076656 -0.000293168 0.0144722 
0.00747981 0.00737095 -0.000440067 -0.000536335 -0.000849239 -0.000970159 0.00337418 0.00442235 0.00324578 
0.00430063 -0.00173095 -0.00268747 -0.00198829 -0.00285945 -0.000986726 -0.00512272 -0.00528857 -0.00462411 
-0.000737784 -0.000919463 -0.000902374 -0.0118588 -0.0100175 -0.0157887 0.00809779 -0.00541721 0.00999776 
-0.00203735 0.0110041 0.00954786 0.0126772 -0.106287 -0.102787 -0.109569 -0.101835 0.000492716 
0.000597034 0.000389992 -0.00698564 -0.00647957 -0.00713818 -0.00667704 0.0231641 0.02309 0.0293036 
0.0290941 -0.00458418 -0.00547918 -0.00345438 -0.00438284 0.0800448 -0.0051099 -0.00443212 -0.00346197 
-0.00333123 0.00753557 0.0068254 0.00735268 0.00666489 -0.0232826 -0.0208134 0.0454568 0.0437037 
-0.000424844 -0.00350864 -0.00312807 -0.00420134 -0.00378866 -0.000564215 -0.00097656 0.0704334 0.00184651 
0.00204378 0.00179799 0.00500193 0.0043192 0.00515553 0.00184507 0.00583418 0.00453351 0.00649692 
0.0062325 0.00706941 0.0956665 0.0972743 0.0317357 -0.00011083 -7.60451e-05 -0.000178709 0.00388841 
0.00413034 0.00465625 0.0231718 0.0188088 0.0196262 0.0431547 0.0469036 -8.30343e-05 -0.000223201 
-0.000141152 -0.00085442 -0.0017826 -0.00189925 -3.01817e-05 0.00142594 -0.00359498 -0.00398402 -0.00450347 
0.00578242 0.00509407 0.00493915 0.0184517 0.0114778 0.0162461 -0.00326744 -0.00355857 -0.00427542 
0.000578927 0.000653052 0.00146138 0.00152631 0.00115724 0.000621066 0.00175851 0.00883242 0.0117667 
0.0106565 0.00491223 0.00614968 0.00640701 0.0154149 0.0206011 0.00552693 0.00288943 0.00316298 
0.00231984 0.00616893 0.000692953 0.00460963 0.00649677 0.00996926 0.00601715 -0.0405608 0.0808198 
0.00018343 0.00107806 -0.0101389 -0.0141026 -0.0162826 -0.0211092 0.00544683 0.00435951 0.00230623 
0.00240198 0.00406805 0.00323846 0.0035939 0.0168524 0.0131115 0.0189571 0.00336612 0.00425589 
-0.00899657 -0.00394956 -0.00523285 -0.119594 -0.00457231 -0.00495025 -0.00491284 -0.00067924 -0.000875644 
-0.000706273 0.0104366 0.0107266 0.0139388 0.0123976 0.0169821 -0.125381 -0.0784257 -0.088688 
-0.0217458 -0.00254195 -0.00375096 -0.00352193 -0.000776196 -0.00101295 -0.000936772 -0.000715687 -0.000456817 
-0.00100692 -0.0159501 -0.0262844 -0.0388703 -0.000195776 -0.000341838 -0.0720658 -0.0691894 -0.0833557 
0.0437262 0.0382923 0.0389304 9.52672e-05 0.000275976 0.0151298 0.0972643 0.0296735 0.0348978 
0.034781 -0.0421519 -0.0473648 -0.00941252 -0.00829817 -0.00874441 -0.022871 -0.0244845 -0.0313885 
0.000405576 0.00417568 0.00588671 0.00749834 0.000931764 0.000459914 0.000908324 0.000446805 0.00514003 
-0.0201314 -0.0157065 0.000811641 0.000851539 0.000791139 0.00073415 0.000498468 0.000451467 -0.00342926 
-0.00115891 -0.00179989 -0.00146033 -0.00209782 0.00711762 0.00600112 0.00882536 -0.00289956 -0.00160767 
-0.00300361 0.00634572 0.00989517 0.00422008 0.00256706 0.00185619 0.00188654 -0.0415629 -0.0411014 
-0.037334 0.00733669 0.00778359 0.0072508 0.00265053 0.0506546 -0.0185823 -0.0190191 -0.0221872 
0.00825667 0.0107462 0.00910513 -0.00280189 0.00238683 0.00211431 0.00209968 0.000184337 -0.0010188 
0.0154406 0.000675989 0.000412187 0.0832539 0.0908209 0.0818988 0.0860621 0.0942777 0.100136 
-0.000512923 -0.000476719 -0.0004587 -0.00183325 -0.00120421 -0.00257357 0.0413831 0.0358464 0.0378521 
0.0386781 0.0340759 0.0254389 0.0178643 0.0207631 0.0137766 0.00225328 0.00197425 -0.00361749 
-0.0032374 -0.00347453 0.00183558 0.00187857 0.0301276 0.0267469 0.034224 0.00166152 0.00152271 
0.00180958 0.00209176 0.00232361 0.00107261 0.0010281 -1.79131e-05 3.03962e-05 -9.82223e-05 0.00521867 
-0.00552305 -0.00601959 -0.00587835 -0.00640856 0.0128574 0.0077952 0.00862578 0.00959584 0.00424524 
-0.00570529 -0.00516194 -0.00606479 -0.00550707 0.0494638 0.0522446 0.0506241 -0.00120181 -0.000608366 
-0.00139125 -0.00350178 -0.00338684 -0.00403433 0.0130684 0.0164145 0.0107587 0.013993 0.0791988 
0.07376 0.0809287 0.0704295 0.0567282 0.0468652 0.00688728 0.00830661 0.00607912 -0.0644469 
-0.0590535 -0.0630116 -0.00698252 -0.00676874 -0.00632747 0.00152466 0.00148519 0.00109741 0.0141106 
0.0207251 0.0173406 0.0238472 -0.0247857 -0.0459607 -0.00710127 -0.0366332 -0.00822114 -0.0215482 
-0.0263202 -0.00492955 -0.0413714 -0.00192608 -0.06652 -0.0783791 -0.00938907 -0.013385 -0.0121059 
-0.00585719 -0.00499853 -0.00558307 -0.00539296 -0.00476196 0.00749994 0.0034017 0.00294226 0.00432732 
0.00664429 0.00317867 -0.00313439 -0.00250538 -0.00353175 -0.00413017 -0.00407412 0.0503361 0.0563648 
-0.000389198 -0.000183329 -0.000213795 -0.0232988 -0.0198983 -0.0253648 0.00568425 0.00460394 0.00440856 
0.00205873 0.00316402 0.0024636 0.0137361 0.0160082 0.0615699 0.0600906 -0.00253357 -0.00138935 
-0.00250556 -0.00134513 -0.00207793 -0.00195785 -0.00508024 -0.00468692 -0.00454841 0.00822219 0.00529919 
-0.00192428 -0.00154749 -0.00231645 0.000623979 -0.00091005 0.0308416 0.0429869 -0.00264965 -0.00372095 
-0.00350609 -0.00434917 -0.00331525 -0.000840637 -0.000887859 -0.00132139 -0.00133555 -0.000723297 -0.0012018 
-0.00136247 0.00303503 0.00371055 -0.00790608 -0.00704081 -0.0075632 0.0026011 0.0020158 0.00177317 
0.00968187 0.0132584 0.0109901 0.00101294 0.00125554 0.00130004 0.00155653 0.000602923 0.0011126 
0.0302863 0.0296269 0.00838419 -0.00403807 -0.00614241 -0.00270342 -0.00075886 -0.000649724 -0.00060254 
-0.000503822 0.0366485 0.0337754 0.0351886 -0.0021271 -0.00269099 -0.0025285 0.10111 -0.0024158 
-0.00146651 -0.00271612 -0.00268721 -0.00472293 -0.000740992 0.013938 0.0130627 -0.00777031 -0.00561107 
0.000750881 0.00273846 -0.00494365 -0.001785 -0.00253228 0.00227333 -1.13715e-05 0.00196084 -0.0490569 
-0.0574291 -0.0535106 -0.024999 -0.0294682 -0.0263909 -0.00140809 -0.00101196 -0.00162321 0.0069996 
0.00822266 0.00726033 0.00839948 -0.00248241 -0.00239002 -0.00284453 -0.00274091 -0.00951161 0.000742494 
0.00153202 0.000419988 0.00140635 0.00197911 0.00269775 0.000837522 9.74187e-05 0.0014096 0.000899889 
0.00143299 -0.0046409 -0.00478093 0.00182451 0.00159093 0.00124114 -0.00524739 -0.00486977 -0.00597902 
-0.00366046 -0.00323503 -0.00300085 -0.00260283 0.00224277 -0.00191575 -0.00899446 -0.0117202 -0.00684171 
-0.0096142 -0.00174536 -0.00220332 -0.000165315 -0.0011449 0.00199769 0.00293641 0.00258948 -0.0215528 
-0.0184731 -0.0175355 0.00050275 -0.00683734 -0.00772579 0.0280041 0.0244408 0.0237724 -0.00265223 
-0.00120414 -0.000651151 0.00391493 -0.0133498 -0.00598889 -0.0339206 -0.0300713 -0.039031 -0.0350349 
0.00462611 0.00497489 0.00568767 -0.0333459 -0.0787489 -0.0145897 0.00168435 0.0028398 0.00230406 
-0.0045917 -0.00516066 0.0207947 0.0271565 0.0179945 0.0238434 0.00780737 -0.00832025 0.0600538 
0.0589317 0.0479449 0.0136817 0.00934606 0.011431 -0.0042667 -0.00237672 -0.00144218 0.00267307 
0.00125964 0.00224677 -0.0070042 -0.00652084 -0.00668291 -0.00639055 -0.00587419 -0.00597916 0.00330758 
0.00236783 -0.01119 -0.00722663 0.00156013 0.00055451 -2.30312e-05 0.0287156 0.02515 0.0311191 
0.0499306 0.0448707 0.0537538 -0.00567567 -0.0046852 0.0212042 0.0130368 0.0115815 0.0369152 
0.0417531 0.0309512 0.00344149 0.000762244 0.000586034 0.000484945 0.00889295 0.00775196 -0.00632238 
-0.00557225 -0.00561939 0.0180638 0.0212949 0.0188286 0.00250208 -0.00655236 -0.00151569 0.0050544 
0.00592646 0.0037941 0.00179631 -0.00133713 -0.000594514 -0.00209185 -0.00132484 0.000336326 0.0121301 
0.0133695 -0.0130864 -0.0995604 -0.00459222 -0.00400794 -0.00281785 -0.00272659 0.00782664 0.0117665 
0.00975627 0.0200244 0.0212954 0.0189281 0.0200407 0.0037566 0.00366187 0.00465753 -0.000161331 
0.000474186 0.000459201 0.00328801 0.00416412 0.00343686 0.0303706 0.0357114 0.0353214 -0.00152622 
-0.00116033 -0.0014924 -0.00113733 0.00622429 0.00658447 0.00761104 0.0052441 0.00940387 0.0179195 
0.0078454 -0.00313959 -0.00147029 -0.0705753 -0.069799 -0.0767014 -0.0936683 -0.0830579 -0.0100238 
-0.0110013 -0.00804638 -0.0102706 -0.00938797 -0.0169034 -0.087572 -0.00632629 -0.00569085 -0.00567337 
-0.000226697 -7.14767e-05 -0.00283504 -0.00258747 -0.0037866 -0.0037331 -0.00400663 -0.0292514 -0.00104858 
-0.00180816 -0.00199804 0.0202053 -0.00505272 -0.00394727 -0.00487427 -0.0186848 -0.0155835 -0.00123567 
-0.000509515 -0.000944693 0.0249401 0.0213437 0.0298414 0.0289925 0.028394 0.0309656 0.00392782 
0.00363028 0.00350102 0.0151336 0.0136071 0.0182292 0.00498494 0.00392144 0.00403835 0.00301218 
-0.00452332 -0.00655825 -0.00856026 -0.00456429 0.00258073 0.00214801 0.0224139 0.018379 0.0213212 
-0.0423117 0.00113216 0.00112925 -0.0174159 -0.0174487 -0.02321 0.0142159 0.00998089 0.0106489 
-0.00130846 -0.0011005 0.0128589 0.0150907 0.0132435 0.0155678 -0.0130229 -0.0094844 -0.0152362 
-5.96551e-05 0.000210335 -0.0225868 -0.0283216 -0.0285594 0.0111652 0.012409 0.0182091 0.0185817 
-0.00562584 -0.00532187 0.00290402 -0.0167988 -0.0195426 -0.0210403 0.0405231 0.0045102 0.00567507 
0.00723851 -0.00438158 -0.00351603 -0.00407639 -0.00324967 -0.0226357 -0.0236679 -0.0204102 -0.0275553 
-0.0285005 0.0013326 0.00128509 -0.00835301 0.0320109 -0.0292078 -0.0249498 0.0261725 0.0255095 
0.027621 0.0311298 -0.0124567 -0.0155168 -0.00660152 0.0244689 0.000904309 9.66715e-05 -0.0140331 
-0.0192264 -0.016497 -0.00545113 -0.00397749 -0.00563727 -0.00405455 -0.0368098 -0.0345453 -0.0915865 
-0.0843299 -0.0855592 0.0127307 0.0172874 0.0159946 0.0157161 0.0179122 0.0152903 0.0177746 
-0.00132736 0.00724303 0.0139837 0.00393333 0.00934264 0.0103158 0.0174073 0.0181539 0.0183345 
0.0190383 0.0370646 0.00140364 0.00176875 -0.00640778 -0.00626886 -0.00587308 -0.00817709 -0.0101296 
-0.00792006 -0.0702977 -0.00177738 -0.00176729 -0.00147126 0.00100884 0.00235492 0.00218916 -0.000964126 
-0.000389136 -0.000790034 -0.000669624 -0.00409884 -0.00395355 -0.0044806 -0.00410891 0.145283 0.12528 
0.117525 -0.00248577 -0.00267889 0.011868 0.00843337 -0.0072593 -0.00701697 0.00178834 0.00264444 
0.00194818 0.00273709 0.039017 -0.00570148 0.00744801 0.00652168 0.00445526 0.000184531 -0.000694848 
-0.00268504 -0.00149818 0.00550124 0.00806687 0.00495586 0.0135932 0.0144895 -0.000916279 -0.00192979 
-0.00107733 -0.0059224 -0.00603769 -0.00241502 -0.00368886 -0.0106806 -0.0088503 0.00617848 0.0169048 
0.0121075 0.0164167 -0.00619588 -0.0065343 -0.00722936 -0.00536296 -0.00277122 0.0157749 0.0126547 
0.00279987 0.0298942 0.0333205 0.027897 -0.00321871 -0.00839338 -0.00860549 0.0017455 0.00139831 
0.00164576 -0.0116523 0.00114129 0.00248316 -0.00624421 0.00105639 0.00101167 -0.000225811 4.06771e-05 
-0.0010933 -0.00107716 -0.000865237 -0.00109965 0.00337411 0.00253129 0.0024474 0.00252246 0.00342018 
-0.0452689 -0.0414409 -0.0370023 0.000457803 0.000828833 -6.92834e-05 -0.0251642 -0.00621225 -0.00587485 
-0.00603271 -0.00237233 -0.00310222 -0.0404791 0.0296712 0.0330836 0.0287951 0.0320252 0.0334466 
0.0661237 0.070336 0.0625998 0.06688 0.00298116 0.0032456 0.00267278 0.00295191 -0.00517383 
-0.0045691 -0.00541992 0.000446917 0.0264304 0.0223342 0.0253671 -0.00042499 -0.000395354 -0.00068011 
0.0116664 0.0449301 0.0390406 0.0379787 -0.000873442 -0.000103591 -0.00130424 -0.00534315 -0.00615332 
0.0113961 0.012673 0.0136861 0.0151853 -0.00454522 -0.00467414 -0.00195788 0.012055 0.00957883 
0.00973937 0.00789095 0.0087707 0.00618355 -0.00783838 -0.00446325 0.0189286 0.0173089 -0.00359539 
-0.00290752 0.00187046 0.00241369 0.000252806 0.0148035 0.00706815 0.00697838 0.00392691 0.00160385 
0.00123451 0.00154472 0.00117406 0.014873 0.018497 0.0211905 0.00122711 0.00104686 0.0166412 
0.0156033 0.0164684 0.0132674 0.0145733 0.0281073 -0.00354877 -0.00166222 -0.00364701 -0.00313364 
0.00493777 0.00520489 0.00432009 0.00450091 0.000325815 -0.0016635 0.000131104 -0.00221713 -0.00293441 
-0.00222219 -0.0113125 -0.000783474 -0.00216097 -0.000680416 -0.00142222 -0.00168076 -0.000403184 0.000610163 
0.0101483 -0.00357327 0.0121738 0.00226067 -0.0351365 -0.0379364 -0.00349257 -0.00249552 0.0287361 
0.0231804 -0.0021501 -0.0026687 -0.0013608 -0.00190759 -0.00403387 -0.00649508 -0.00568317 -0.00666132 
-0.00584341 -0.00438698 0.0012487 0.00133233 0.00103282 0.00109449 0.00131048 0.000891806 0.00313686 
0.0031745 0.00319749 0.00291648 0.030587 0.0315394 0.0504019 -0.00522119 0.000926176 -0.00704212 
-0.0401529 -0.0352337 0.00560919 0.011522 0.00631881 0.0037288 0.0020421 0.00615609 0.00682588 
0.00810652 0.0308942 0.0237265 0.0284387 -0.0174984 0.00421578 0.000107243 0.0032957 0.0386897 
0.0413343 0.0497135 -0.00490679 -0.006748 -0.00536046 -0.00393662 -0.00278437 -0.0133201 -0.00952969 
-0.00906037 -0.0113271 -0.012281 -0.000119867 0.000130378 -0.000119375 0.00345582 0.0225652 0.0188999 
0.0222995 0.0184572 0.0152649 0.0149239 0.0191529 0.00593382 0.0141178 -0.0330973 -0.0454013 
-0.0312804 0.00564408 -0.000340285 0.0268464 0.0277583 0.0215063 0.0222286 -0.000486568 -0.000558511 
-0.000684578 0.00523846 0.0071367 -0.000188581 -0.000392645 -0.00193747 -0.0146458 0.0132747 -0.00313709 
-0.00257175 0.00448156 -0.0122771 -0.0113276 -0.00862036 -0.00403177 -0.00328202 -0.00499346 -0.00431062 
0.00511225 0.00357072 0.0125081 -0.000328664 -0.000846366 0.00027594 0.0533036 0.0439351 0.0489218 
0.017231 0.00614338 0.00572485 0.00751524 0.00174678 0.00251673 0.00400255 -0.00420888 0.0176899 
0.000717852 -0.0160469 -0.0132516 -0.0159841 -0.00268481 0.00336014 0.00556741 0.00334902 0.0591979 
0.0768013 0.0474601 0.0640965 0.00144214 0.0381997 0.0418351 0.0446813 -0.00398283 -0.00252793 
0.00517873 0.00447185 0.0034168 0.0181636 0.0138572 0.0154925 -0.00456897 0.000588929 0.00064745 
0.00397139 0.00353544 0.0035197 -0.00427916 0.0585601 0.0550367 0.0517585 0.0481951 -0.0408141 
-0.00198961 -0.00201455 -0.000942134 -0.00626758 -0.00569363 0.000969495 0.00172312 0.00075123 0.000832232 
-0.00333306 -0.0028838 0.00053044 -0.000996783 0.0496987 0.0575474 0.00739618 0.00757207 0.0478596 
-0.00292037 -0.00272655 -0.00330392 0.0367717 0.0350717 0.0340079 -0.00801278 -0.00572511 0.0340833 
0.0416202 0.0422612 -0.0010698 0.050346 0.0545651 0.0105313 0.00611063 0.00742878 0.00107852 
0.00842311 0.033034 0.0276262 0.0278152 -0.00610605 0.0100482 0.0159172 0.019811 0.00125585 
-0.00596761 -0.00493284 -0.0122654 0.0714621 0.0201462 0.0171857 0.0105656 0.0105048 0.00231539 
0.000468355 -0.00190673 0.000145215 0.00190465 0.00366269 0.00301213 0.0160112 0.00167874 0.00233983 
0.00218009 -0.000359191 0.00189519 -0.00124386 0.0011288 0.000232375 -0.00102377 -0.0011984 -0.00302245 
-0.00317855 0.0239249 0.0265352 0.0303023 -0.000620798 0.00148401 0.00131617 0.00680858 0.0227487 
0.0192151 -0.00492912 -0.00304582 -0.00272658 -0.00312728 0.00106864 0.00218635 0.00135504 0.00433544 
0.00864721 0.0406268 0.034708 0.00478543 0.00270453 0.00326089 0.00302813 0.00821568 0.00916045 
0.00971466 0.00921158 -0.00269256 -0.0026186 -0.00488977 -0.00664275 0.000169037 8.65265e-05 0.00053533 
0.000771126 -0.000995961 -0.00123264 0.00395774 0.00700906 0.0046091 -0.000257868 0.000603737 -0.00265206 
0.00113947 -0.000291283 -0.000288795 -9.74349e-05 3.56082e-05 0.000284332 -0.000346081 -0.000147658 -0.000203443 
-0.00747095 -0.00725013 -0.00748239 0.00334133 0.00295911 0.00352484 0.00879474 0.0117986 0.000211303 
0.00213672 0.000886334 -0.0324929 0.00175738 -0.0569223 -0.0750586 -0.0859677 0.0121392 0.0169412 
0.0127877 0.000205433 0.00132084 0.0012193 -0.00187474 -0.00169211 -0.00346796 0.0464847 0.0510159 
0.0460631 -0.00344222 -0.00168644 -0.00342713 0.00603725 0.00558926 0.00628489 -0.00188361 -0.0226394 
-0.022472 -0.0071433 -0.00417149 -0.00601446 -0.0026454 -0.0977956 -0.105097 -0.135792 -0.15391 
0.012099 -0.0154828 -0.0104583 0.000208139 0.000156278 -1.16521e-05 0.000249573 0.001327 -0.0013489 
-0.000542304 0.00257542 0.00204787 0.0131317 0.0046805 0.00802246 -0.00164296 -0.00181492 1.00976e-05 
0.00114569 -9.02761e-05 -0.00555766 -0.00593454 -0.00562484 -8.51059e-05 -0.000229261 -3.43424e-05 -0.000166946 
-0.000456058 -0.000386176 -0.0044009 -0.00331174 -0.00321179 -0.001097 -0.000292134 0.00817491 0.00880707 
0.00472641 -0.000756757 -0.000911787 -0.00430206 -0.00414106 0.0186109 -0.00673389 -0.00647013 -0.00705788 
0.0361371 0.0268327 -0.00486902 -0.00452759 -0.0204144 -0.024601 -0.0357015 0.000268255 -4.27269e-05 
-1.7904e-05 0.00124243 -0.00400386 -0.00460667 -0.00425242 0.00238612 -0.0135826 -0.0126373 0.0257928 
0.00477788 0.00695653 -0.00394262 -0.00220237 0.000110646 0.000298448 -0.00401481 -0.00824195 -0.00527901 
0.0927292 0.0279832 0.0339469 -0.00167768 0.000372374 0.0196724 0.00783488 0.0151254 0.00681431 
0.00696397 0.00605315 0.023286 0.000523683 0.0232633 0.0234874 0.00416971 0.00328779 0.00294304 
-0.00356931 -0.0081417 0.0303681 0.0364218 -0.0112798 -0.0099742 -0.0145866 -0.0187106 -0.0193593 
-0.00144035 -0.00115522 -0.000410379 0.00205408 -0.00137386 -0.00117097 -0.0016397 -0.00346378 0.00306085 
0.00283242 -0.0054333 -0.0138429 -0.024175 -0.000422207 -2.74054e-06 -6.27364e-05 0.029072 -0.000203355 
0.00122945 0.000314893 0.000953198 0.000934086 -0.00132582 0.0160081 0.00426936 0.00423263 0.00549794 
-0.00707487 -0.006908 -0.0072636 -0.00706827 0.0221764 0.029894 0.0198231 0.00388844 0.0353807 
0.0247517 0.0264887 -0.00622983 -0.000525091 -0.000564677 -0.000865382 -0.0199176 0.00616907 0.00358115 
0.00665646 0.0038147 0.00141089 0.00105204 0.00159157 0.00151946 0.00429086 0.00448196 0.0190038 
0.0596833 0.0551935 0.0528285 -0.00185737 -0.00338575 0.000841323 0.00446741 0.0166738 0.0169566 
0.00587732 0.00280705 -0.0290807 -0.0042364 -0.0280854 -0.00565683 -0.0100709 -0.00911417 0.0695261 
0.063278 0.072835 0.0672734 0.0703082 -0.000379684 0.00190899 0.00617313 -0.00622263 -0.00235929 
0.0571263 0.103367 0.00241707 -0.05193 -0.0549312 -0.00167076 -0.00532118 -0.00583227 -0.0050935 
0.0575248 0.0101207 -0.000182184 0.000651673 0.000220462 0.00114888 -0.0430948 -0.0508087 -0.079372 
-0.0460961 -0.0619074 0.000150195 0.0567134 -0.0068619 0.00963267 0.00448813 0.00203158 -0.0199347 
-0.0223219 0.0114365 0.0104378 0.0126236 0.00795838 0.010419 -0.0183141 0.0256375 0.0494237 
0.0648154 0.0142753 0.0550411 0.0640663 0.0407354 0.00850083 0.0196881 -0.0336657 -0.0138383 
0.038325 0.0254578 0.0233345 0.0254845 -0.000209198 -0.00036618 -0.000324513 0.00164128 -0.00447295 
-0.00279553 -0.00324962 -0.00267537 -0.000399541 -0.00029364 0.01231 0.0226067 0.0208142 -0.0131556 
-0.0537449 -0.0537697 -0.000666728 -0.000705848 -0.00479397 -0.00205477 -0.00234077 -0.00229867 0.0077673 
0.00893552 -0.00255811 0.00596127 0.00609295 0.00323121 -0.00636988 0.0038604 0.00217612 0.00250442 
0.000710796 -0.00726372 -0.00692962 -0.00699541 -0.00129335 -0.00188554 -0.0020321 -0.0060462 -0.00658619 
-0.00675789 -0.006198 -0.0075194 -0.00714645 -0.00729371 0.0027562 0.00140823 -0.00414006 -0.00452169 
0.00623964 7.89206e-05 -0.0040906 -0.00403239 -0.00349647 -2.44595e-05 0.0191022 0.000658748 -0.00787957 
0.0346395 0.000265897 0.000633859 -0.000764536 -0.00140625 -0.000802403 -0.00267091 -0.0279838 -0.00228624 
0.0296981 0.0232652 0.0176595 -0.0317169 -0.0323963 -0.00341619 -0.00422371 0.0158597 -0.00499536 
-0.00450021 -0.0167101 -0.0148553 -0.000275414 1.61847e-06 0.00409433 0.00447596 0.0214428 0.0174244 
0.0603561 0.0775125 0.0846023 0.0754497 -0.00112829 0.00175303 0.0025457 0.00259376 -0.00545475 
-0.00446949 -0.0032648 0.0273098 0.00728737 0.00576111 0.00726901 0.0008462 0.00247801 -0.00154623 
-0.00223184 0.000755082 0.00206232 0.00420607 0.00291559 0.0758214 -0.00121678 -0.00145104 0.00571847 
0.0454046 0.0676776 0.00136598 0.00198857 0.00414187 0.0011457 0.0476622 0.00343213 -0.00444015 
-0.00603316 -0.000992383 -0.00515614 -0.00587581 -0.00517387 -0.00104608 0.00193199 0.00199438 -0.000977245 
-0.00553603 -0.000810423 -0.0518817 0.0065272 -0.0554744 -0.061678 -0.0550246 0.00233824 0.00204689 
0.00210648 0.0226579 0.0231427 0.0183271 -0.00399161 -0.00484517 -0.0042779 -0.00675213 -0.00684045 
0.0063771 0.00458396 0.00812093 -0.00334499 2.35583e-05 0.00190954 0.00309122 0.0121213 -0.00199495 
-0.00119474 0.000478204 0.0269134 0.0298205 0.0247493 0.0273339 -0.00181636 -0.0019718 0.000604121 
0.00785364 0.00992625 -0.00352633 -0.00578665 0.0197917 0.0246578 0.00202132 0.0330457 -0.00657435 
-0.0118954 -0.012132 0.0300871 0.0311151 0.0095186 0.032702 -0.00707412 -0.00396946 0.00431321 
0.00574635 -0.0536658 0.0241969 0.062747 0.0613747 0.00680387 0.00828657 -0.0400505 0.0169888 
0.00202238 0.00409265 0.00157397 0.021372 0.0287144 0.000633363 0.000731854 0.000906997 0.0242887 
0.0113169 0.000823028 0.0267599 0.0208732 0.0259048 0.0292716 0.0239435 -0.00482621 -0.00693284 
-0.00734038 -0.00758337 -0.00753086 -0.00220021 0.0474649 -0.00514029 -0.00552359 -0.00700723 -0.00739697 
-0.00737616 -0.00736433 0.0018302 0.00280283 -0.00650071 -0.00667677 0.00204349 -0.0158545 0.00187639 
0.00160475 -0.00756364 -0.00756963 0.00190427 0.0020299 0.00579951 0.00627838 -0.00236789 -0.00203215 
0.00223001 -0.0962012 -0.00092326 -0.00119899 -5.44147e-05 -0.00408131 0.0484239 0.0185991 0.0288552 
0.0331449 0.0356336 0.0372719 0.00408478 0.0032167 0.00296311 0.00621782 -0.00368529 -0.00379079 
-0.0260986 -0.0168726 -0.0120436 0.0436847 0.0464194 -0.00511106 -0.00482574 -0.00597557 -0.00566384 
-0.00620395 -0.00412365 -0.046578 0.00444347 -0.00201896 -0.00182445 -0.00162634 -0.00150869 -0.00157135 
-0.00131242 -0.00255349 -0.000361796 -0.00220179 -0.000508506 0.00306983 0.00191112 0.000487355 0.00403963 
-7.31613e-05 -7.76894e-05 0.0649088 0.0584844 0.0741076 -0.000601501 0.0363443 0.031251 0.0386708 
-0.000808673 0.00688434 0.00737419 -0.00210456 -0.0052451 -0.00301334 0.00435365 -0.017054 -0.0179403 
-0.0212424 -0.000674108 -0.00877136 -0.00664383 0.00102386 0.00136632 0.00129074 -0.00653429 -0.00666398 
0.000756319 0.0104818 0.0119105 0.00842597 0.0159994 0.0150541 0.00197855 0.000191879 0.000429362 
0.0042033 -0.000149608 -0.000316698 0.00334539 0.00438144 -0.00611975 0.00804309 -0.00352011 -0.00395452 
0.00439336 0.00552232 0.00505067 0.00524121 -0.00463525 -0.00603242 0.000172841 -0.000593481 -0.00130892 
0.00498391 -0.000181399 -6.82764e-05 -1.48094e-05 -0.00850492 0.00213955 0.00873561 0.0036853 -0.00559327 
-0.00451967 0.033867 0.0807556 -0.0136299 -0.0242606 -0.00220222 -0.00221127 0.0655159 0.0839576 
0.0872604 0.0655259 0.0670209 0.00113151 -0.000724758 0.00190432 0.00559849 -0.00120032 -0.000913468 
-0.000897643 0.000848969 0.000564201 -0.000166812 -0.000412589 -0.000307199 0.0169247 0.026135 0.0461899 
0.0524011 0.02005 0.0681966 -0.000523461 -0.000247661 0.102878 0.0942459 -0.000227549 -0.00184158 
-0.00431208 -0.000511175 0.0166042 0.0187057 -0.0102556 0.0305947 0.0336254 0.0195029 0.0222607 
0.0157952 -0.00159064 -0.00218985 -0.00161726 0.00116594 0.00508001 -0.00292415 0.000360649 0.0020914 
0.000163574 0.00504663 -0.000249234 0.000357134 0.0225048 -0.072433 -0.0775067 -0.0711385 -0.0776696 
-0.00532081 0.01247 0.00601107 -0.000652172 -0.0315856 -0.0070709 -0.00618145 -0.00573864 0.0430908 
0.0381321 -0.00734221 0.00898003 -0.00658041 -0.0068492 -0.00648843 0.010537 0.0135235 -0.00682632 
0.00385371 0.000500115 0.00131871 0.00193777 0.00286944 -0.00143979 0.00187837 0.00208774 -0.00507115 
-0.004525 -8.06192e-06 -5.94315e-05 -0.000568218 0.00238023 -0.0111221 -0.0121059 -0.00453192 0.0026434 
0.00257352 0.00224367 0.0296521 0.00464891 0.0452383 -0.00739357 -0.00729112 -0.000288064 -0.0170536 
0.00236392 0.0462034 0.0418291 0.0411685 0.00124914 -0.00699619 0.00865932 -0.00416637 -0.00471746 
-0.00370803 -0.00235234 -0.00635232 -0.00133394 -0.00123114 -0.00107847 -0.000795513 -0.000924425 0.000293596 
0.000391121 0.0133598 -0.000753794 0.00260914 0.0163931 0.0681978 0.0491016 0.0177316 0.017988 
-0.00448688 -0.00506168 -0.000189735 -0.054985 -0.0448921 0.0378943 0.0562883 0.0266199 0.0223769 
-0.0515047 -0.0644106 -0.0838475 -0.00106827 -0.00543833 -0.00344335 2.25055e-06 0.00507516 -0.00200986 
0.0125685 0.014248 0.00871392 -0.00540003 -0.00508616 -0.00320904 -0.00105809 -0.0021643 -0.0053596 
0.00410619 0.000821416 0.0016557 0.00199079 0.00290844 -0.00505443 -0.062263 -0.0997582 0.00075122 
-0.000414547 -0.00370186 -0.00120612 -0.0535151 -0.0574782 -0.00231194 0.0302024 -0.00146277 -0.00176934 
-0.00546151 -0.000939454 0.106587 0.115407 -0.00778496 -0.00416879 0.0674668 -0.00267612 0.041686 
0.0149388 0.00910745 0.0111573 0.0243132 0.0354387 0.00562722 0.00297274 0.0400506 0.000763883 
-0.0007772 0.0319898 0.0207602 0.0213225 0.000869696 0.000812999 -0.00139845 0.00112457 0.000862597 
0.00264446 0.00253903 0.00353792 0.00515691 0.00716654 0.0144235 0.00239211 0.00214443 0.00827976 
0.00687029 0.00626813 0.00455509 4.85877e-05 -0.000182064 -0.00240755 -0.00694704 0.000307502 0.00107073 
0.000837493 0.00100656 5.07098e-05 0.00405361 0.0016932 0.000133809 0.00298676 0.000816498 -0.00141904 
-0.00450708 0.0138931 -0.0039369 0.0211759 0.0148093 0.00037959 0.000375111 -0.0125757 -0.0141775 
-0.0100007 0.00785163 0.00917002 0.00373532 -0.00124749 0.0390084 0.0487445 0.0462974 -0.00119456 
0.000220513 8.94578e-05 0.0326684 0.0310333 0.0265907 0.0261281 0.0230897 -0.0596118 0.0149639 
0.0236961 0.00931226 -0.000142323 -0.00199133 -0.0138131 -0.000758685 0.00344737 1.76006e-05 -0.00228616 
-0.00111849 0.00594532 0.00553617 0.00457764 0.0336658 0.0311133 0.00778095 0.0105799 -0.00352811 
0.10119 0.0890074 -0.0055698 -0.00212819 -0.00522449 0.000892389 0.035346 0.0385905 -0.000320478 
0.00126825 0.00125999 0.000906792 -0.00577057 -0.00351659 0.00289251 -0.00522824 0.0203858 -0.00719661 
-0.00737692 -0.00536195 -0.00544336 -0.00720043 0.0222674 0.00831235 0.0287602 0.00701553 0.00641419 
-0.00952623 -0.00628521 0.00236631 -0.0040715 0.0196762 0.000380786 0.000489884 -0.00546728 -0.00606465 
-0.00197941 -0.00179713 -0.00158277 0.0190947 -0.00022703 -0.000588001 -0.0013175 -0.00181303 0.00559106 
0.0593927 0.0456022 0.0368729 0.0404515 0.0446422 -0.00417273 -0.00540828 -0.000798288 -0.00156594 
0.000892845 0.00121341 0.000992416 0.000569046 0.000676257 -0.000795629 0.000204372 0.000282105 0.0115828 
0.0378147 0.0113083 -0.000162876 -0.000266478 -0.000321546 0.0634395 0.0591302 0.064192 0.0118647 
0.00369825 -0.122586 -0.000166383 -0.0154317 -0.0142759 -0.00658173 0.0722553 0.0717271 0.00281407 
0.034758 0.0277785 0.00863076 0.116039 -0.00321838 -0.00405443 0.0423697 0.0415605 0.0321172 
0.0360799 0.0428431 0.00388531 0.063609 0.00067224 0.00055878 -0.00326597 -0.002723 -0.000936597 
0.000328647 -0.00207223 -0.000308042 -0.0015431 -0.00280782 -0.00301184 -0.00340691 0.00186276 -0.00202059 
0.00137723 0.00817856 -0.0254985 -0.00148452 -0.00035447 0.00266449 -0.00419177 -0.00379111 0.0667422 
-0.00626359 -0.00614676 -0.000511142 -0.0016977 -0.0221469 -0.003679 0.0297934 -0.000716961 -0.00222562 
-0.00215099 -0.0035252 -0.00302143 -0.00280163 -0.00299803 -0.00271067 0.0366654 0.0448179 0.00110009 
0.00801564 0.00349038 0.0100566 0.0302709 -0.0526453 -0.00722665 -0.00721059 0.001706 0.00183497 
-0.00297025 -0.00171425 -0.00205361 0.0688855 0.0725901 0.0752156 0.00462486 -0.0255358 0.00668086 
-0.00061238 -0.000813793 0.0153994 0.018828 0.0252543 0.0351331 0.00687201 -0.00273463 -0.00113634 
0.0405757 0.00546535 0.0550023 -0.00464108 0.00925969 0.0288198 -0.000981772 0.0298733 0.000266496 
0.0481852 -0.00502826 0.00585894 0.00587004 0.00500843 -0.0321147 0.00545464 0.00617747 -0.00759907 
0.0157329 0.0223004 -0.00419018 -0.00659085 0.00175567 -0.00146903 -0.000880177 0.00281213 -0.00242845 
0.0614605 -0.00168808 -0.00259067 0.0214151 -0.00158223 -0.00176879 -0.00139944 0.0178174 -0.00344145 
-0.00206633 0.00812891 0.039472 0.034485 0.0222737 0.0720589 0.0526586 -0.00370732 0.00443691 
0.0191742 0.00157932 0.00342363 -0.00534008 -0.000896942 -0.000585762 -0.0461173 0.0148671 -0.0598039 
-0.0641807 -0.0711624 0.0168268 0.012079 0.0594401 0.045612 0.0561802 -0.00109434 -0.00329695 
-0.0323933 0.00126581 -0.000619198 -0.00333594 -0.00274217 -0.00734188 0.00187285 0.00145347 -0.00191376 
-0.0330437 -0.045761 0.0130807 0.00107496 0.00204388 -0.0224838 0.00468153 0.00532907 0.0057095 
0.0363451 0.0418453 0.00725506 0.0108264 0.00624347 0.0135592 0.00208961 -0.00588208 0.00394192 
0.0344711 0.000442352 0.00114104 -0.00165615 -0.00386627 -0.0016106 -0.00163688 0.00115441 -0.000549688 
0.00169133 -0.00531575 -0.00505562 -0.0518671 0.00154458 -0.0221947 -0.00492166 -0.00435318 0.0363155 
-0.00146632 -0.00143663 -0.00253561 0.00309603 0.00591632 -0.00654631 -0.054611 -0.00173015 0.017613 
0.0364363 0.0150682 -0.000569295 -0.0342031 -0.0371895 -0.0603268 -0.0260332 0.0334957 -0.00407487 
0.000737205 0.0465674 -0.00672429 -0.00293363 -0.000820529 -0.00585 -0.0068203 -0.109653 -0.106352 
0.00738063 0.00180715 -0.0144616 -0.00475751 -0.00219017 0.00207484 -0.00195584 0.0249227 0.0121718 
-0.002396 -0.000135246 -0.000578171 0.00183649 -0.00986744 -0.0062147 -0.00673689 -0.00399312 -0.00365036 
-0.00414033 0.0176305 -0.00144397 -0.00402711 0.000481378 -0.000596361 -0.00192382 -0.00552886 0.00125295 
0.000773273 0.00288961 0.00432125 0.0101891 0.00159503 0.0336896 0.0334492 -0.00209582 0.0682588 
0.00576878 0.00133709 -0.00354636 0.012918 0.0112961 -0.065533 0.00236881 0.0380767 0.0256313 
0.0599963 -0.0264409 -0.00131568 0.0797196 0.00140039 -0.0655906 -0.000310088 -0.0417194 0.0646247 
0.0405583 -0.00546731 -0.00179215 0.00481715 0.000720853 -0.00479701 0.0285471 -0.00597309 -0.0022374 
-0.000966811 -0.00750246 0.00666285 -0.00162139 -0.00247733 0.00186878 -0.00380308 -0.000725466 -0.00330262 
-0.000567003 0.032486 0.00392391 -0.000824655 -0.00220085 -0.00188385 0.00157827 -0.00292179 0.000510051 
-0.00384619 -0.0331376 0.0694857 0.00263124 -0.000384242 -0.0386177 0.0627847 0.00281977 -0.0139452 
0.000116814 0.00206365 0.0444723 -0.00215943 -0.000484597 0.0102987 0.0186607 0.00339475 0.0200245 
-0.000420228 -0.00591374 -0.120468 0.000383808 0.0792259 0.0568418 0.00185083 -0.00755386 -0.00376325 
0.0889993 0.0382993 0.00138489 -0.00148222 -0.00654719 -0.0381451 0.0390068 0.00492282 0.0791876 
0.075183 0.00243947 -0.000845208 -0.0355202 -0.0270878 0.00253498 0.0014181 0.000963573 0.00370614 
-0.00222301 -0.0684754 0.011815 -0.0357451 0.000446194 -0.0151153 -0.0154913 0.00694966 -0.0714557 
-0.0375473 0.0068927 -0.00152868 -0.000535446 0.0436251 -0.000671069 -0.00697951 -0.00152679 
Strain%20xz%20component 1 9350 double
0.0347837 -2.19305e-08 -1.12122e-08 0.0379181 5.89476e-06 -1.01867e-05 -3.19112e-06 1.8438e-06 0.00575926 
-0.00311549 -0.012692 0.0126989 -0.00800612 0.00315733 0.00665736 -0.00472709 -0.00179359 0.00605429 
0.000950801 0.00078515 -0.000247352 -0.00158461 -0.000191802 0.000579647 0.000724657 -0.000626119 -0.00131624 
-0.000247999 -0.000560705 -0.00172283 -0.00348344 -0.00167387 -0.000670247 -0.0019932 -0.00282782 0.00161711 
0.00249131 -0.00247198 -0.0021358 0.00695206 0.00180375 0.0037855 0.00214919 -0.00184702 -0.00286713 
-0.000335271 0.00122704 0.00260668 8.38772e-06 -0.00242427 -0.00416617 -0.000177893 0.00242774 -0.0013031 
-0.00426616 -0.00586425 -0.00121873 0.00115152 9.39153e-05 -0.00128426 -0.00246855 -0.00392144 -0.00147409 
0.00252979 -4.53615e-06 1.46575e-06 3.23474e-06 6.10314e-06 4.78367e-06 5.39826e-06 1.36138e-05 9.54145e-06 
9.38076e-06 1.69837e-05 1.42705e-05 2.27138e-05 1.19815e-05 1.61793e-05 1.97305e-05 2.97868e-06 5.81133e-06 
-1.25064e-06 3.40247e-06 -8.30173e-06 -6.2953e-06 -1.47342e-05 -3.15157e-06 -7.12835e-06 -2.5584e-06 1.55827e-05 
-4.95683e-06 -0.0210196 -0.00108575 -0.00017735 -0.000226508 -0.000134549 -5.74155e-05 -6.53724e-05 -3.2597e-05 
-2.88758e-05 -1.37447e-05 -1.3694e-05 7.95273e-06 -3.02056e-06 -1.56696e-06 1.69262e-06 -5.56946e-07 -2.36637e-07 
5.74423e-06 5.5467e-06 1.06067e-05 7.63323e-06 7.11882e-06 9.46993e-06 1.01178e-05 7.10988e-06 8.78118e-06 
-4.66585e-06 7.34613e-06 6.71916e-06 2.51776e-06 2.37113e-06 -1.39583e-06 -3.41905e-06 -4.78454e-06 2.63135e-06 
-5.49049e-06 -5.21711e-06 -5.02915e-06 -3.06995e-06 -2.16375e-06 2.505e-07 1.46296e-06 3.30498e-06 1.39205e-07 
4.72894e-06 4.02234e-06 -4.8677e-06 -7.57695e-07 5.93291e-07 1.97404e-05 -3.62655e-06 1.41722e-05 -3.14953e-05 
-3.3264e-05 3.33739e-05 5.63943e-05 8.39136e-05 0.000102029 -6.62164e-05 -1.56113e-05 -2.20106e-05 -2.45586e-06 
9.28353e-06 2.29165e-05 2.90737e-05 3.04641e-05 0.000470561 -0.00027724 -0.00313921 -0.00754719 -0.00808154 
-0.00670782 -0.0059435 -0.00630856 -0.00706143 -0.00911428 -0.0112872 -0.0112194 -0.0172294 -0.0135277 
0.00796921 0.00586146 0.00707624 0.00822224 0.0115468 0.0121044 0.0167489 0.018814 0.0126714 
0.00923514 0.0120657 1.14818e-06 4.91429e-06 2.29263e-06 2.74317e-06 2.39107e-07 4.38506e-07 -2.40284e-06 
8.5972e-07 1.72423e-06 -7.57728e-07 -2.0031e-06 4.71592e-06 3.75788e-06 8.3044e-06 1.47686e-05 1.12244e-05 
1.13104e-05 1.33289e-05 1.65657e-05 9.29355e-06 8.52773e-06 -2.03672e-05 0.00446854 -0.000357676 3.38572e-05 
4.71289e-05 -8.17869e-06 2.2639e-05 1.58799e-05 7.3408e-06 2.65769e-06 -1.45914e-05 1.30811e-06 -3.28036e-06 
5.45892e-06 -6.21063e-06 -2.07052e-06 -2.41399e-06 -4.02728e-08 -3.74152e-06 -4.71799e-06 -5.10143e-06 -1.62028e-07 
2.61327e-06 -1.87055e-06 2.12189e-08 1.26116e-06 1.50233e-07 1.57656e-06 -2.48778e-06 -2.36835e-07 1.76125e-06 
8.73899e-07 -6.60839e-07 -1.81502e-07 -5.971e-07 -7.76477e-07 -7.80171e-07 9.73673e-06 1.41013e-05 7.46624e-06 
4.82185e-06 7.77587e-06 -5.78449e-06 -6.35744e-06 -4.8256e-05 -7.21575e-05 5.5955e-06 -2.1187e-05 -8.55091e-07 
-0.000108637 -2.39095e-05 -0.000183714 -1.71365e-05 1.08169e-05 2.8056e-06 -1.84447e-05 -5.06238e-05 -5.67727e-06 
0.000212655 -0.000203035 -0.00169592 -0.0027794 0.00801346 0.00536379 0.00528139 0.00637179 0.00881108 
0.0100016 0.00898387 0.013043 0.0122957 0.0116973 0.0133508 -0.010848 -0.0105556 -0.010674 
-0.00940628 -0.00891149 -0.00960009 -0.0117204 -0.0129246 -0.0114349 -0.0132792 -0.0146543 -2.68729e-06 
-4.61956e-07 -6.78139e-07 -9.54838e-07 -2.1012e-06 -5.50113e-07 2.33344e-06 -1.3182e-06 -2.14065e-06 -6.47588e-07 
-4.90318e-08 -2.88317e-06 6.39838e-07 2.38032e-06 1.25717e-06 -3.42383e-06 -6.10388e-06 3.44342e-06 1.48988e-06 
6.82533e-07 -2.61569e-06 8.35219e-07 -2.94816e-06 -5.94406e-06 -5.95617e-06 1.86869e-06 0.00223357 0.000743229 
2.49506e-05 1.25748e-05 4.977e-05 2.06725e-05 -5.34417e-06 -7.92452e-06 -8.51552e-06 -8.68634e-06 -2.05874e-06 
8.68892e-06 -1.93131e-06 -1.78349e-06 -4.58914e-06 -3.86517e-07 1.8721e-06 -1.51222e-06 -4.06214e-06 -4.06785e-06 
-3.07913e-06 -5.53047e-07 -7.89031e-07 -1.00772e-06 -3.64003e-06 2.84196e-07 -3.74768e-06 -1.08951e-06 -4.68455e-07 
-2.23451e-06 -9.97663e-07 -9.06338e-07 3.99764e-07 2.53851e-06 -7.49336e-07 2.12965e-06 4.70838e-07 -2.67016e-07 
1.1181e-06 7.63615e-07 -2.09112e-07 -1.26443e-06 -1.39904e-06 -1.0477e-06 -6.50945e-06 6.90219e-06 5.02712e-06 
-2.92237e-06 2.34888e-05 -5.83166e-06 -4.07805e-05 7.42904e-06 6.15129e-06 -4.51418e-05 -8.44899e-05 2.62993e-05 
0.000114884 -2.11969e-05 -3.83508e-05 -1.83218e-05 -3.63051e-06 1.25119e-07 -4.46106e-06 -3.27668e-05 4.88341e-05 
0.00386833 -0.00917327 -0.00613896 0.00516312 -0.00024635 0.00010733 0.000205262 -0.00446201 -0.000274312 
0.00448478 -0.000152227 -0.000168904 5.18972e-05 -0.00445829 0.00345186 0.00142138 0.000779036 0.0011224 
-0.00378981 -0.000286386 0.00501271 0.00151141 0.00166866 -0.00452321 0.0020399 -0.00052269 -0.00230365 
0.00485533 0.000630061 0.00063977 0.00142201 0.00116483 0.00132402 0.0022067 0.00259796 0.00572242 
0.00335985 0.00397333 0.00430771 -0.00085252 0.000996933 -0.00122516 -0.00199841 -0.00201899 -0.00250443 
-0.00149753 -0.00554136 -0.0078885 -0.00307828 -0.00235404 -0.00578692 -7.27958e-06 -0.00155869 0.00369458 
0.00132004 0.00271609 -0.00175551 -0.00491368 -2.44453e-07 -6.9073e-07 2.17303e-07 -2.01046e-07 2.38635e-06 
-7.58345e-07 2.28524e-06 -9.86944e-08 -1.55115e-06 -8.3163e-07 2.38938e-06 2.64683e-06 4.05656e-06 -3.9718e-06 
-2.72206e-08 3.12173e-06 -4.4592e-06 2.55018e-06 5.53794e-06 -3.50203e-07 -4.92676e-07 -1.62508e-06 3.04498e-06 
-6.4832e-06 0.000217593 5.76047e-05 2.17304e-05 -2.14075e-05 -4.85808e-08 -1.06747e-05 -6.74813e-06 5.98348e-07 
6.14679e-06 -5.03432e-06 8.95889e-06 2.49934e-06 -1.61e-06 3.68678e-06 -3.76971e-07 -3.08838e-07 -4.15657e-06 
-1.61545e-06 7.02075e-07 -3.52568e-06 -2.33892e-06 -4.43438e-06 -5.22788e-06 2.19553e-06 -1.67079e-07 -4.38436e-06 
-2.21449e-06 -1.08654e-06 9.68582e-07 7.2246e-08 9.78955e-07 2.65082e-06 -1.38622e-06 -1.06355e-07 1.92356e-06 
9.72861e-08 4.92448e-07 -3.9157e-07 9.81363e-08 1.44131e-07 -3.30871e-07 1.60051e-07 0.000816305 0.000355995 
-5.97477e-07 -1.52862e-05 1.41587e-05 4.38057e-05 5.09273e-05 1.75405e-05 -1.84557e-05 -0.000173216 5.6891e-06 
-3.11518e-05 -1.85881e-05 -5.54878e-06 -8.7548e-07 -2.84991e-06 -5.25532e-05 -3.15277e-05 -0.000520974 -0.000447228 
-0.000516342 0.000797326 0.000260646 -0.000204243 -0.000631101 0.000320158 -0.000301467 0.00057542 0.000196884 
-0.00022909 -0.000236817 -0.000205533 0.000578539 0.000393352 -0.000398147 -0.000726702 7.6925e-05 -0.000617135 
0.00101785 0.000567622 0.000615338 -0.00025916 -0.0011554 0.000810549 -0.000201176 8.38418e-05 2.18746e-05 
0.000357674 -5.22226e-05 0.000136887 0.000386554 -2.06484e-05 0.000247051 3.19942e-05 9.15458e-05 -0.000646959 
-2.73642e-06 7.25254e-06 0.000188069 -0.000118304 0.000196695 -0.00064139 0.000101755 -5.9112e-05 -0.000165497 
-0.000768784 0.000138887 0.00112957 -1.18323e-05 0.000546807 -0.000995337 -0.00044075 -1.89942e-06 -1.08618e-06 
8.51064e-07 1.09376e-06 -2.64658e-07 1.55766e-06 3.90801e-07 -2.34692e-06 -2.19149e-06 6.11662e-06 -1.4664e-06 
-5.99836e-07 -1.72371e-07 4.31401e-06 6.59474e-07 -4.39607e-06 4.24733e-06 2.95369e-06 2.66873e-06 -3.02611e-06 
1.86773e-05 1.06034e-06 -3.4985e-05 -1.40586e-05 -1.1273e-05 -1.53678e-05 1.72696e-06 1.36472e-05 2.99159e-06 
5.77959e-07 -1.0535e-06 1.29871e-05 -1.84577e-06 1.37037e-06 -2.95663e-06 2.17262e-06 3.8172e-07 -1.0175e-06 
1.88388e-06 2.12909e-07 -1.65229e-06 -3.98466e-06 -2.92512e-06 1.31592e-06 1.92379e-06 3.2112e-08 -4.50817e-06 
-3.4118e-07 -5.02907e-07 1.94137e-07 -4.25926e-07 3.43614e-06 -2.85868e-07 -1.26392e-06 -1.13298e-06 1.45882e-06 
-5.24359e-07 -6.5698e-07 -5.61207e-07 -7.56447e-07 -7.51021e-07 -6.33889e-06 7.53188e-05 -1.9055e-05 -3.90383e-05 
0.000339782 -0.000265112 1.27784e-05 9.1712e-06 -1.89228e-06 -1.04256e-05 -7.14423e-06 -7.53642e-05 0.000261416 
-9.07634e-05 -6.60396e-05 2.30695e-05 -2.98896e-05 2.64964e-05 8.60373e-05 -8.98938e-06 -0.000103938 -9.00114e-06 
3.46584e-05 6.27633e-05 8.91773e-05 -4.04204e-05 -4.36583e-05 -2.77388e-05 4.16697e-06 6.68571e-05 -5.17609e-06 
5.31753e-05 -1.5006e-06 1.39831e-05 -1.64368e-05 4.49551e-05 -0.000167754 -5.04687e-05 -2.65929e-05 2.35826e-05 
9.78435e-06 2.14306e-05 1.74864e-05 6.24081e-06 3.51731e-06 3.89927e-05 2.21624e-05 7.5837e-07 3.92912e-05 
4.65959e-06 5.88894e-06 7.54299e-06 0.000109148 -2.25753e-05 -0.000114057 -0.000119066 -0.000127485 -7.58951e-05 
0.000125708 1.04392e-05 -1.72539e-05 -3.24525e-05 -1.32194e-07 1.6082e-06 -1.57927e-06 2.60219e-06 3.78952e-06 
1.24032e-06 -2.12867e-06 3.25241e-06 1.22577e-06 -1.42547e-06 -4.73188e-06 4.56183e-06 8.68084e-06 -8.02012e-06 
-7.05911e-07 1.1824e-06 -1.49611e-07 -2.99683e-06 5.22979e-05 -2.33722e-05 -3.86714e-05 2.61661e-05 -2.62199e-05 
1.31406e-05 4.74067e-05 7.95895e-06 2.80393e-07 -8.27871e-06 1.06638e-06 7.98381e-06 -4.15049e-07 2.3568e-06 
3.54709e-07 2.65155e-06 -1.81976e-06 1.17651e-06 3.00845e-06 4.46063e-07 1.36168e-06 -2.45762e-06 5.29061e-07 
1.99024e-06 4.03348e-07 -6.03942e-07 -1.6156e-06 -7.43115e-07 7.55283e-07 8.06389e-07 2.82977e-08 6.75588e-07 
-1.95754e-06 -2.74231e-08 3.77046e-07 -4.29415e-07 -1.77588e-06 -1.56488e-06 -9.35167e-08 2.05729e-05 -1.1154e-05 
6.10282e-06 -5.62652e-06 9.99848e-06 -3.46026e-05 -2.64999e-05 -2.82101e-06 9.26566e-06 5.74007e-06 3.51651e-05 
1.23614e-05 1.03501e-05 -1.63881e-05 -1.12179e-05 2.3492e-05 1.17334e-05 2.89942e-06 5.26667e-07 -1.50614e-05 
-1.1458e-05 -5.75039e-06 1.65773e-05 5.59143e-06 2.24485e-05 9.77035e-06 -1.42144e-05 -0.000119276 -2.41479e-05 
9.84738e-06 -2.72852e-06 1.32717e-05 1.63629e-05 -6.28213e-07 8.01075e-06 -4.59553e-06 6.82374e-07 -7.27466e-05 
2.83756e-05 2.79125e-05 -3.20682e-05 0.00023386 2.5357e-05 8.30455e-06 -7.6474e-06 3.87867e-06 -2.28175e-05 
-1.46967e-07 3.23653e-06 -7.84279e-07 3.45214e-06 2.87813e-06 -1.5033e-06 -2.99521e-06 3.48123e-06 -1.30097e-05 
-1.36578e-06 2.23552e-05 -1.05462e-05 2.08902e-05 1.77848e-06 9.92897e-06 -4.66689e-06 3.19096e-06 1.8602e-05 
1.20729e-06 -2.02798e-06 -9.29822e-06 -1.28667e-06 5.00251e-06 7.61228e-07 -7.79032e-06 1.93259e-06 4.28948e-06 
-6.36083e-07 1.47881e-06 -1.19294e-06 1.32086e-06 2.16319e-06 6.02699e-07 1.53214e-06 -2.79661e-08 9.44721e-07 
9.44955e-07 3.06746e-06 4.62387e-07 1.29292e-06 1.64654e-06 2.10243e-06 -8.85743e-07 -4.57258e-07 -1.58787e-06 
-5.84564e-06 -3.176e-06 -1.64176e-06 4.9214e-07 2.25982e-06 2.2585e-05 -1.7955e-05 8.40776e-06 2.39403e-05 
5.18449e-06 6.50406e-06 6.0349e-06 -1.70928e-05 -1.11219e-05 1.66599e-05 2.11335e-05 -3.00804e-06 -1.02863e-05 
2.9427e-06 3.42077e-05 -1.62775e-05 -3.91883e-05 1.90165e-05 -1.83183e-06 1.46941e-05 1.26141e-05 1.30813e-05 
-1.10215e-06 3.06921e-06 -1.16018e-05 1.74055e-06 -9.05586e-06 9.85164e-07 -3.631e-07 -1.95649e-06 -7.40949e-06 
-4.4814e-06 -4.40951e-06 9.45282e-06 5.106e-06 -8.50911e-06 -2.28763e-05 -1.34255e-05 4.37537e-05 -2.36841e-07 
2.00225e-05 -2.221e-05 1.11753e-05 1.40381e-05 1.63936e-05 -2.56715e-06 1.47335e-05 -6.45073e-06 -3.01322e-06 
-4.59211e-06 2.61236e-07 5.704e-06 1.34859e-06 -9.83707e-06 3.07698e-07 1.37932e-07 8.90512e-07 1.82038e-06 
-4.56965e-06 1.29231e-06 2.11062e-06 2.53657e-06 -1.36467e-06 -7.0786e-07 -1.79657e-06 1.08412e-06 -2.2861e-06 
1.31365e-06 -7.58503e-07 6.56718e-06 1.52447e-06 -4.60975e-06 -5.26287e-06 2.62941e-06 1.50839e-06 -8.61551e-06 
4.76752e-05 2.11244e-05 3.52895e-05 1.35394e-05 -3.59213e-05 -4.85949e-06 2.03135e-05 2.69062e-05 8.92896e-06 
-1.69127e-06 3.96475e-06 7.47694e-06 -1.39297e-05 5.82263e-06 7.37012e-06 1.66143e-06 -4.11668e-06 -5.49426e-06 
1.27345e-05 -5.10672e-05 2.53442e-05 6.19006e-06 1.22516e-06 -1.17656e-05 -4.5276e-06 1.00681e-06 -7.38157e-06 
-5.47609e-06 -1.36627e-05 -4.19274e-06 -3.09606e-06 2.02823e-05 -2.04331e-05 -9.64587e-07 -1.47402e-05 -1.00953e-05 
8.5291e-06 -1.46894e-06 9.85451e-07 1.84745e-06 9.27303e-07 1.5591e-06 -7.36385e-06 -5.3857e-06 8.9459e-06 
-3.84685e-06 2.02068e-06 -4.15567e-06 -3.86933e-06 1.08472e-05 5.22991e-06 -1.78838e-07 -2.49541e-05 -1.8212e-07 
-3.4534e-05 9.95741e-06 1.61667e-05 9.50526e-06 4.88837e-05 -3.16559e-06 1.19477e-05 2.25055e-05 -6.11022e-05 
-1.63344e-05 2.8165e-06 -1.11692e-05 -9.67856e-06 -5.31424e-06 -2.02003e-06 -9.01882e-06 -9.04373e-07 -8.33303e-06 
-3.93013e-06 8.53277e-07 -2.36452e-06 -6.29429e-05 6.25767e-05 2.12327e-06 7.44668e-06 3.03795e-05 5.07625e-06 
1.52355e-06 -7.01752e-06 1.43359e-05 7.003e-07 -1.14399e-05 -2.70439e-06 -9.16118e-06 1.06726e-06 -4.62402e-09 
1.91065e-05 -2.49105e-05 -6.78831e-07 -4.99868e-07 -1.56703e-06 3.1054e-07 -3.27998e-08 -1.31502e-06 -7.04027e-07 
1.05994e-06 4.01313e-06 1.78962e-06 -2.26512e-06 2.99972e-06 4.33812e-06 -1.65915e-06 -2.6297e-06 -3.71923e-06 
-7.51876e-06 -2.79604e-06 1.97405e-06 1.32733e-06 -3.27204e-06 -0.00191998 0.000333969 -8.05674e-06 1.64434e-05 
-1.98952e-05 -5.34608e-06 -3.17582e-06 -1.65604e-06 -2.40173e-06 -1.26173e-05 7.70721e-07 3.29094e-06 -4.23417e-06 
-3.59394e-06 3.11725e-06 1.55415e-06 -2.64455e-06 4.13875e-07 7.55301e-07 1.67606e-06 -1.64494e-06 1.24705e-06 
2.63906e-07 -8.70765e-07 1.31428e-06 -1.15514e-07 -2.53109e-06 5.80822e-07 -6.58528e-07 3.09645e-07 -8.88182e-07 
-6.00127e-07 -5.67143e-07 -5.51008e-07 -1.02769e-05 4.03807e-06 -9.67155e-06 -8.01767e-06 5.42101e-07 -7.79813e-06 
-2.80803e-06 1.30066e-05 -1.74261e-05 4.26297e-05 0.000229561 -7.15774e-05 1.9249e-05 1.42944e-05 1.68726e-05 
1.41166e-05 5.63475e-06 4.66369e-05 -1.54186e-05 -4.13323e-05 -0.00017296 0.000717816 -0.00219634 -0.00217643 
0.000690751 0.000149691 0.00113656 0.000248472 0.000302076 -0.000275878 0.00045301 0.000855469 0.000956875 
-0.000633898 0.000295645 0.00170906 0.00136409 0.000375025 0.00167858 0.00092008 0.00134841 -0.00354637 
0.00108152 0.000356861 -0.00172447 -0.00267893 -0.00130158 -0.00137723 -0.00159263 -0.00167603 -0.00200657 
-0.00473435 -0.00555498 -0.00151592 -0.00145135 -0.000541313 0.00206304 0.00154846 0.00164544 0.00168151 
0.00248183 0.00876321 0.00707974 0.0012441 0.00435286 0.00283111 0.0087135 5.1939e-06 -0.000110983 
-0.00121208 0.00208685 -0.000756431 -0.000932201 -0.000471065 0.000161733 -7.77886e-07 -1.44684e-07 -2.27729e-06 
1.07781e-06 -2.90717e-06 2.15803e-06 4.25093e-06 4.07589e-07 1.79252e-06 3.91535e-06 4.21722e-07 9.80702e-07 
4.06027e-06 -1.87947e-06 -5.55392e-06 -1.3708e-06 -3.09682e-06 -2.65508e-06 7.79186e-06 -4.63511e-06 1.41205e-05 
4.79668e-05 -0.00055783 -3.65367e-06 4.39682e-06 -1.08052e-06 -4.0597e-06 -3.40198e-06 -3.90356e-06 -6.14795e-06 
-3.6901e-06 1.26368e-06 -2.41284e-06 -7.66797e-07 -1.24692e-06 1.67254e-06 -1.53099e-06 3.16186e-06 4.79374e-07 
-2.95301e-07 8.36823e-08 9.62637e-07 -3.18848e-08 -3.63252e-07 -1.08181e-06 -1.15824e-06 -5.44738e-07 -7.074e-07 
1.48462e-07 -1.52983e-07 -3.64965e-07 -6.34169e-07 -3.17241e-07 6.5025e-07 4.46998e-05 -2.99817e-05 -1.35221e-05 
-2.82303e-06 -1.36251e-05 1.18587e-05 -6.51265e-05 6.85796e-06 5.43047e-06 1.41751e-05 5.97817e-05 -4.33934e-05 
-4.54368e-07 -0.000249345 -6.91472e-05 -0.00194237 -0.000172155 -7.95111e-05 -0.00010722 9.95032e-05 -7.71682e-05 
-6.672e-05 -4.88131e-05 0.000108743 6.62843e-05 -6.5786e-05 -0.000258088 -1.97302e-05 2.00612e-05 5.98443e-05 
9.16735e-05 -0.000447439 -0.000130491 0.000699598 0.000115329 -3.86641e-05 0.000129618 -0.000183228 0.000322025 
0.000305037 -8.59715e-05 -0.00130303 -0.00042207 3.47357e-05 4.66568e-05 0.00077602 0.000447714 -0.000129976 
-0.00037748 -3.44321e-07 1.41248e-05 -6.18494e-05 -0.00084072 4.34417e-05 0.00026663 0.000832574 -0.00012259 
-6.19115e-05 6.07438e-05 0.000215817 0.000333394 -0.000198066 -0.000106737 0.000397312 2.7227e-05 -0.000245704 
-1.13761e-06 1.03108e-06 -3.16751e-07 3.00175e-06 4.99529e-07 2.43484e-06 6.63804e-06 5.65896e-07 6.00929e-07 
1.72726e-06 -4.85768e-06 -2.80372e-06 -9.04346e-07 -8.44975e-07 6.36765e-06 6.22325e-07 -6.05282e-05 9.33856e-06 
3.15124e-05 -6.65504e-06 -3.95646e-07 1.82084e-06 -1.84552e-07 -7.56034e-06 2.47998e-07 -2.51968e-06 -4.1156e-07 
-2.46654e-06 1.59032e-07 -1.50004e-06 3.09103e-09 5.6116e-07 9.68207e-07 -1.36824e-06 -2.87798e-07 1.0432e-06 
2.12208e-07 -8.66344e-07 -2.2359e-06 -1.36773e-06 1.02505e-07 -2.59186e-07 -2.24568e-07 -7.10238e-07 9.61077e-07 
1.56823e-05 -7.21825e-06 -5.59741e-06 -6.5069e-07 2.57591e-05 9.87769e-07 1.66329e-08 -1.11635e-06 7.15239e-06 
2.17733e-05 7.04137e-06 7.79639e-07 -1.33388e-06 -9.29873e-06 1.10165e-05 2.40684e-05 -1.0043e-05 -5.91285e-06 
-1.21668e-05 2.44134e-05 2.817e-05 5.73034e-06 -4.79901e-05 -8.55039e-06 5.95161e-06 2.24695e-05 -3.48554e-05 
2.49005e-05 -0.000228875 2.41006e-05 0.000132444 6.91366e-05 -2.43293e-05 -2.92278e-05 -1.2454e-05 1.88128e-05 
-2.22975e-05 4.74244e-05 -1.65027e-05 7.0202e-05 7.49874e-08 4.35352e-05 0.000146563 1.15844e-05 -1.0831e-06 
9.74677e-05 -0.000164629 -4.01261e-05 9.93515e-06 -6.138e-05 1.313e-05 -5.5946e-07 -2.83181e-07 1.28535e-06 
1.60222e-05 2.69426e-06 1.18372e-05 5.67794e-06 9.09856e-06 9.38463e-06 -1.12153e-05 4.86385e-05 2.07108e-06 
-2.80877e-05 5.4718e-07 -3.39148e-06 9.11538e-07 -2.18347e-06 5.482e-07 -1.91813e-06 -1.79455e-07 -1.35375e-06 
-8.10271e-08 -1.09327e-06 -2.3253e-07 -2.81432e-07 -2.83616e-08 -1.34658e-06 -5.15616e-07 -1.29025e-06 -1.64616e-06 
-1.18412e-06 3.41162e-07 -2.77573e-07 5.84046e-07 -2.84454e-07 -2.91738e-05 -1.7757e-05 1.76544e-05 1.71355e-05 
1.62526e-05 1.03492e-06 6.05001e-06 3.98303e-05 1.57578e-05 1.49511e-05 4.32201e-06 -6.14915e-06 -2.1324e-06 
1.79782e-05 -3.30433e-06 1.79311e-05 8.08866e-06 -1.54041e-05 1.56127e-06 -7.57806e-05 0.00010424 -1.76309e-05 
5.82e-06 5.01104e-05 1.13592e-05 1.61988e-05 -3.72542e-05 7.09019e-06 3.20467e-05 6.09127e-05 1.77755e-05 
-3.48657e-06 3.66312e-05 -6.58426e-06 1.05427e-07 -6.11324e-06 -2.18212e-06 -4.06001e-06 -2.81725e-06 1.80417e-06 
1.5096e-05 2.34653e-05 -5.6e-06 2.92716e-05 1.11549e-05 -1.38595e-05 -5.67772e-06 -1.65895e-05 3.67117e-05 
5.16881e-06 -3.48558e-05 -2.81504e-05 2.27705e-05 -1.6505e-05 -5.74102e-07 2.05663e-07 3.13713e-06 2.98823e-06 
-3.96596e-06 -1.01164e-06 1.53134e-06 -3.98513e-07 -1.75018e-06 4.71429e-07 -7.34162e-07 1.43655e-06 -1.62642e-06 
-1.07397e-06 -9.68927e-07 -3.77093e-06 -1.79443e-06 -2.18953e-06 2.63538e-06 6.94735e-07 1.16149e-06 2.3376e-05 
3.79065e-06 3.98486e-05 6.59916e-06 -1.7304e-05 1.05384e-05 5.83132e-06 2.92103e-06 -1.91092e-05 4.07615e-05 
3.73447e-05 -9.75285e-06 1.07325e-05 8.52183e-06 1.01409e-05 2.27007e-06 1.45474e-05 -1.2844e-06 -1.10184e-05 
1.52676e-05 -2.70111e-05 -1.26125e-05 -1.70529e-05 -1.418e-05 -1.87144e-05 2.32279e-05 4.09522e-06 -7.81138e-08 
-1.48482e-05 2.83318e-06 4.36318e-06 -8.44925e-06 -3.05613e-05 -1.79543e-05 1.13199e-05 8.4017e-06 -6.67774e-05 
2.12703e-06 -2.7113e-07 2.10477e-05 -3.54126e-05 1.86886e-05 -6.47966e-06 -2.03367e-05 -9.43493e-06 -6.79639e-06 
-1.16373e-06 -8.43182e-06 -3.06931e-07 2.71475e-06 4.86863e-06 5.97994e-07 -1.59143e-06 7.45103e-07 1.17466e-06 
5.41022e-06 -3.45174e-06 1.71472e-06 -9.02137e-06 -6.59977e-06 -3.63234e-06 -3.49005e-07 3.62606e-06 -3.98978e-05 
-1.22456e-05 -5.05081e-05 1.12025e-05 1.83506e-05 -6.84529e-06 -6.67531e-05 5.277e-05 -4.09726e-05 2.12388e-05 
-1.47288e-05 1.00993e-06 7.6625e-07 -1.83422e-05 1.4871e-05 1.09659e-05 1.72633e-07 3.84767e-06 2.76181e-05 
2.53242e-05 2.34919e-06 -1.57196e-05 -1.02799e-06 4.39056e-06 -6.13663e-06 4.2281e-07 -1.55985e-06 5.27846e-06 
-1.59581e-05 2.81452e-05 1.35242e-05 3.72547e-05 -2.32643e-06 1.93495e-05 -1.17395e-05 -1.43821e-06 4.75848e-06 
7.73328e-06 6.25961e-06 -1.40134e-06 -3.92326e-06 3.89286e-05 4.22755e-06 -3.0753e-07 1.18815e-05 -7.8561e-06 
-1.83252e-05 9.41201e-06 -5.35888e-06 2.0482e-05 3.40363e-06 1.72212e-06 -1.43357e-05 -3.25805e-05 5.02429e-06 
1.2509e-05 3.82444e-07 -1.64131e-06 -4.63509e-06 2.66093e-05 4.02927e-06 -1.05443e-06 5.21535e-06 1.64574e-06 
-6.51946e-07 -1.01736e-05 -4.82359e-06 1.61386e-05 1.45269e-05 -8.33833e-07 1.33726e-06 -1.69986e-06 -1.91583e-05 
4.02173e-06 1.30147e-06 2.59765e-05 1.11599e-07 -1.80745e-05 8.35884e-07 -0.000888448 0.00147847 4.56531e-08 
7.77439e-08 -8.95141e-08 -3.60209e-08 0.000918358 -3.26773e-08 -1.69539e-08 3.38852e-12 1.64136e-08 0.000412647 
-2.34336e-08 -8.54892e-09 8.06966e-09 5.05083e-09 -2.30012e-08 -3.19997e-09 1.12864e-08 2.33751e-08 2.86207e-05 
-2.66362e-08 -5.46761e-09 1.92298e-08 -0.00164161 -0.00599117 0.0222505 0.0148487 0.00116898 -3.06458e-08 
4.27102e-08 3.13207e-10 2.6782e-09 3.0884e-09 -3.96759e-08 3.01016e-09 3.72381e-08 -1.97323e-09 5.62167e-09 
1.26414e-08 -3.17548e-08 4.00391e-08 -1.94268e-09 4.6898e-09 3.57516e-09 -4.07121e-08 2.03668e-09 3.16011e-08 
-6.72907e-09 3.10371e-09 -5.64317e-08 -2.5475e-09 5.89494e-09 -1.00168e-07 -5.61864e-06 -1.70059e-06 3.44746e-07 
4.20658e-06 5.70752e-06 9.53568e-06 1.11212e-05 1.24181e-05 1.58368e-05 2.34393e-05 1.93124e-05 1.99331e-05 
3.17326e-05 2.98885e-05 1.79542e-05 1.27027e-05 7.30104e-06 1.10597e-05 -9.04197e-06 -1.93435e-05 -1.20986e-05 
-1.26441e-05 -2.5273e-05 -2.47431e-05 -7.08406e-06 1.24741e-05 1.33818e-05 3.54204e-07 0.00205642 -0.0181575 
3.91898e-05 -0.00110819 -0.000584875 -0.000315557 -9.66441e-06 -5.6076e-05 -8.15623e-05 -7.93502e-05 -7.7528e-05 
1.48782e-05 3.49114e-05 1.95962e-06 -1.13543e-05 -2.55261e-05 5.74312e-06 3.24822e-05 1.93871e-05 8.10124e-06 
-1.44689e-06 2.52005e-05 2.88573e-05 2.66722e-05 2.17647e-05 1.1426e-05 -3.59779e-06 1.14507e-05 2.03347e-05 
1.77053e-05 1.07146e-05 -7.67462e-06 -1.04563e-05 -1.1149e-05 -3.91081e-06 3.51579e-06 -1.09699e-05 -1.45542e-05 
-1.20695e-05 -6.43566e-06 1.44615e-06 2.51564e-06 5.38909e-06 6.35669e-06 4.40585e-06 -1.09923e-06 1.70982e-05 
-1.12898e-05 -2.69569e-05 -1.21305e-05 1.68637e-05 -1.27005e-05 -4.20019e-05 -0.000105773 -0.000206397 -8.33412e-05 
-1.78205e-05 8.08327e-05 0.000841823 0.000132775 -0.000432606 -0.000316647 -9.99951e-05 -2.85685e-06 7.39843e-05 
0.000167119 0.000255225 0.000433454 0.000231615 0.00307285 0.00284127 0.00814789 -0.0143576 -0.00816413 
-0.00798193 -0.00787382 -0.00685983 -0.00737267 -0.0107839 -0.00990766 -0.0132158 -0.0178483 -0.0187854 
-0.0239326 -3.34721e-06 0.0160874 0.00787001 0.00735978 0.00869341 0.0126062 0.0138175 0.0157041 
0.0194216 0.014043 0.0157871 0.0112685 0.0128573 2.33698e-06 6.73638e-06 2.8142e-06 3.32761e-06 
3.08353e-06 3.80642e-07 -2.12149e-06 -3.89175e-06 -1.08289e-05 -1.14447e-05 -6.66586e-06 -1.70134e-06 1.15363e-05 
-7.68787e-06 1.2107e-05 1.89009e-05 3.01002e-05 2.6661e-05 2.18399e-05 1.70592e-05 7.00663e-06 -1.87692e-06 
-2.24408e-05 0.00763191 0.00643166 0.000844719 0.00043394 0.000150194 0.00013565 0.000104753 5.1907e-05 
5.72094e-06 1.3008e-05 1.70964e-05 -1.91132e-06 -1.39846e-05 1.14856e-06 -4.18895e-06 -1.58238e-05 -1.5768e-05 
-1.07471e-05 -1.97966e-05 -2.29896e-05 -1.63431e-05 -5.337e-06 -1.42942e-05 -1.01622e-05 -9.71787e-07 -4.52029e-06 
4.51198e-06 9.13959e-06 3.83005e-06 8.82245e-06 8.27792e-06 2.71593e-06 1.04516e-06 -3.3089e-06 -4.528e-06 
-2.717e-06 2.52902e-06 6.02865e-06 3.72706e-05 2.27784e-05 1.59335e-05 -4.55639e-06 -3.60171e-05 -4.1436e-05 
-3.19666e-05 5.89223e-05 0.000106706 5.1794e-05 2.18878e-05 3.95143e-05 -0.000198098 -0.000219176 3.06117e-05 
0.000128301 7.93912e-05 -4.21111e-06 -9.45129e-05 -0.000166729 -8.14544e-05 0.000249734 -7.28144e-05 -0.00721728 
0.00402227 -0.0043678 0.0100377 0.00665507 0.00510684 0.00608009 0.00970288 0.0103479 0.0108806 
0.0132273 0.0155278 0.00940269 0.01385 0.0155281 -0.00217138 -0.0204753 -0.0108993 -0.0114133 
-0.0122653 -0.0089476 -0.00988771 -0.00950593 -0.0182027 -0.011923 -0.0119007 -0.0170008 -0.0107706 
-1.33531e-05 -4.7783e-07 0.0111925 0.00376791 0.00294156 -0.00682603 -2.19305e-08 -1.12122e-08 -0.00182775 
-2.8019e-08 0.0154991 -2.18985e-08 0.0026063 -0.0145554 0.015861 -0.0141504 0.016399 -0.0173527 
0.0144483 -0.0161013 0.0133249 1.05482e-09 0.00176076 -0.0127889 0.0161438 -0.0160329 0.0150534 
-0.0160923 0.0140424 -0.0166631 0.0129246 -0.0130445 0.0145784 -0.0175038 0.0142226 -0.0179328 
0.0132415 -0.0187662 0.0108696 4.0844e-10 0.00190775 -0.0170583 0.0141784 -0.0180035 0.0140226 
-0.0186698 0.01313 -0.00349829 -9.62413e-10 8.18913e-09 0.00169372 -0.00128941 -7.81241e-05 -0.00172041 
0.000439655 -6.09739e-07 -1.58032e-06 -3.26989e-06 3.92444e-06 2.12856e-06 -1.78145e-06 2.11892e-06 2.74543e-06 
-1.00197e-06 2.36678e-06 -1.56971e-07 -3.51071e-07 -2.52031e-07 -6.96116e-06 1.38586e-06 4.99468e-06 8.54192e-07 
-3.99558e-08 9.19319e-06 6.75956e-06 -1.22208e-06 4.26965e-06 2.97774e-06 2.36176e-06 1.5859e-06 -6.49101e-06 
4.51456e-06 1.09879e-06 -5.2972e-06 -3.65329e-06 6.74275e-07 1.49772e-06 -4.80172e-06 -6.08681e-06 -7.24678e-09 
-7.1342e-06 1.07091e-06 4.87941e-06 4.67401e-06 8.10571e-06 1.74642e-05 3.0273e-06 -1.63555e-06 9.65428e-06 
-1.80475e-06 -1.52758e-05 9.33244e-06 -3.98276e-06 -2.12966e-05 -6.87027e-06 -4.41757e-06 -1.67075e-06 3.94402e-06 
1.75044e-06 5.7858e-06 2.1957e-05 -7.67353e-06 2.78083e-06 1.32622e-05 6.30433e-06 -6.76845e-07 3.70369e-06 
5.41266e-06 9.15106e-06 3.50336e-06 7.0921e-06 2.53818e-06 -2.09479e-06 -8.30008e-06 -4.85679e-06 -1.71065e-05 
-5.75077e-06 3.90147e-06 -8.63236e-06 -3.60127e-06 -5.30262e-06 7.73152e-06 7.94143e-07 2.98117e-06 -0.00690617 
6.67545e-06 0.0163301 -0.0161453 -0.000395809 -6.79323e-05 0.000210212 0.00421817 -0.0002326 4.31749e-05 
0.000194857 -9.05393e-05 -3.17339e-05 -2.96444e-05 -7.70921e-05 3.76187e-05 -3.77872e-05 3.73751e-05 1.9518e-05 
-1.83827e-05 1.62382e-05 3.78974e-05 7.53254e-05 4.19985e-06 9.97711e-06 6.45047e-06 -1.54373e-05 1.21292e-06 
-3.66259e-05 -3.6575e-05 -1.49514e-05 -6.09853e-05 8.8641e-06 6.07624e-06 -2.49159e-05 1.83658e-05 2.17381e-05 
2.61902e-05 3.68582e-06 9.29431e-06 2.03305e-05 -1.28864e-05 -1.86374e-06 -1.42273e-05 -1.70223e-05 -1.21353e-05 
-1.83672e-05 8.75144e-06 -2.58142e-06 -1.28404e-05 5.71453e-06 1.27644e-05 1.14119e-05 -1.1517e-06 7.84057e-07 
1.11633e-05 -8.66629e-06 -1.91553e-07 -9.47676e-06 -3.61201e-06 -4.64817e-06 -1.75352e-05 -7.79498e-07 7.03277e-06 
8.25872e-07 5.78586e-07 1.98112e-06 9.16865e-06 -1.61272e-06 -1.15001e-07 2.67804e-06 -2.13335e-06 -1.78689e-06 
-1.76845e-06 -1.50661e-06 -4.3018e-06 -3.84949e-06 4.71618e-06 -7.72617e-06 -6.71819e-07 -5.93974e-06 -2.35172e-06 
-5.52265e-06 -1.57449e-06 -8.27945e-07 -4.24202e-06 3.99978e-06 2.19007e-06 3.17851e-06 3.03874e-06 -6.13225e-08 
4.09406e-06 -2.79198e-06 -5.19512e-06 -5.9338e-06 -2.69176e-06 -3.34929e-06 -5.652e-06 1.06305e-06 6.01936e-07 
-2.35627e-06 2.78621e-06 4.46249e-06 4.5935e-06 3.43766e-06 -2.11813e-06 4.9364e-06 9.71842e-07 -1.081e-06 
-1.16259e-06 -7.12866e-08 6.65441e-07 -5.38493e-07 -7.65313e-07 -2.47468e-07 -7.3527e-07 -1.75165e-06 8.74029e-07 
-1.80959e-06 8.23186e-07 1.78534e-06 2.51962e-06 3.58987e-08 4.41781e-07 1.75801e-06 -4.87655e-07 5.87266e-07 
-5.53269e-07 5.72623e-07 -1.9403e-07 -3.43907e-06 -2.26211e-06 4.62862e-06 -1.32621e-06 -4.52531e-06 -6.18885e-06 
8.48372e-06 -3.4862e-06 1.85463e-05 1.22115e-05 4.36641e-06 1.04193e-05 4.12431e-05 -0.000101958 -1.09316e-05 
4.5427e-05 -7.54999e-05 -4.23183e-05 -1.42813e-05 1.82828e-05 -0.000165645 -4.96819e-05 7.64344e-05 -6.51559e-05 
-7.51817e-05 0.000198768 1.93799e-05 -1.99396e-05 4.66192e-05 0.000124087 4.20313e-06 -0.00017254 -4.01518e-05 
-8.95598e-05 0.000120259 -0.000324577 0.000148203 5.37873e-05 -0.000112694 -8.6282e-05 2.0051e-05 -0.000296254 
-6.28353e-05 1.48473e-05 -0.000142722 1.09892e-05 2.94019e-05 9.44505e-05 -4.07102e-07 2.87935e-05 8.59217e-05 
3.54707e-06 4.04061e-07 8.16691e-05 3.25307e-06 -3.72202e-05 3.30779e-05 4.81469e-05 -0.000178703 1.09241e-05 
0.00046216 0.000376283 0.000167883 0.000542749 -0.000929876 -9.43093e-05 0.000981897 0.00840898 0.000722451 
-0.0178092 -0.00756258 -0.00520302 -0.00140747 0.00292058 -0.0030006 -0.00169141 -0.000964386 -0.00105744 
0.00428006 0.000109464 -0.000466805 0.00161771 -0.00148337 -0.000771081 -0.000286539 -0.00205027 0.000358595 
0.00156289 0.00349461 9.74883e-06 0.000924334 -8.06643e-05 0.000636825 -0.00231009 -0.00156549 -0.000810694 
0.00172598 1.39535e-05 0.000319862 0.000276119 -0.00226008 -0.000636459 -0.00206837 -0.00421005 0.00126424 
-0.000227257 0.00270333 0.00113269 -0.00375835 -0.00129182 0.000587118 0.0019766 0.000514988 -0.00139478 
0.000574098 -0.00305664 0.00083792 -0.00100689 -0.00326627 0.00166746 0.00102122 0.00269052 0.000383768 
0.000256696 -7.72566e-05 0.000414119 -0.00199714 -0.0013281 -0.000791235 0.00234449 0.00121916 -0.000968637 
0.00137268 -0.00034362 0.000767434 0.00556198 0.00258521 -0.00126708 -0.00130317 -0.00123893 0.00227649 
-0.000636208 -0.00906149 0.00012519 0.00620942 -0.0109841 -0.00518146 -0.00602987 -0.00541648 -0.00429626 
0.00141745 -0.0043458 -0.00573167 0.000828501 -0.00514365 -0.00346175 0.00166238 -0.00568535 -0.0049834 
0.00147154 -0.00718434 -0.00515565 0.00171484 -0.00698722 -0.0054308 0.00252273 -0.0106683 -0.0065227 
0.00332652 -0.00425876 -0.00243853 0.00432669 -0.0111919 -0.010515 0.00455692 -0.00938522 -0.0123272 
0.00264166 -0.0102101 -0.000993441 0.0093971 0.00572856 0.00476822 0.00882642 0.00612505 -0.00117324 
0.00671189 0.00646575 0.00724177 0.00724095 -0.00199848 0.00826619 0.00680034 0.00782438 0.00659099 
-0.00287682 0.0074019 0.0117882 -0.002972 0.00823841 0.00441395 0.0079182 0.00515132 -0.00686693 
0.0099655 0.0126092 -0.00751902 0.00906499 0.0122153 0.00995669 0.0105382 -0.00454644 3.35884e-06 
0.00430801 4.99805e-06 -4.87902e-06 -0.00128397 -0.00497414 0.0135519 0.0032099 0.000122369 0.00377012 
-0.0065331 0.00419822 0.0030345 -0.00304666 0.000644497 -0.000380522 -0.00433396 -0.00247841 0.00154815 
-0.00376027 -0.00164355 -0.00113506 -0.00265126 -0.00481575 2.26905e-05 -0.00173625 0.00383912 0.000543026 
3.08095e-06 4.7127e-07 -7.63253e-07 -2.89394e-06 7.17601e-07 -1.96481e-06 -6.72237e-06 -7.78623e-08 -3.87932e-06 
-8.5367e-06 -1.14629e-06 1.42776e-06 -1.2484e-06 9.07996e-07 -5.84529e-06 -1.01985e-05 -1.28916e-06 -6.40952e-06 
-6.30595e-06 3.40766e-06 -5.2334e-06 -6.06228e-06 1.60919e-06 -4.37453e-06 -3.82167e-06 -4.93101e-06 -5.65828e-06 
-5.01997e-06 -5.85024e-06 -5.84435e-06 -1.06992e-06 -3.72224e-06 -3.64994e-06 -3.51185e-07 -6.03934e-07 -6.06853e-06 
6.04451e-06 2.19512e-06 -1.23198e-05 -8.86937e-06 -2.44955e-06 -7.9528e-06 7.73286e-06 4.71739e-07 7.10815e-06 
1.92798e-05 -2.50513e-06 1.0885e-05 8.17895e-06 -4.67297e-06 4.71758e-06 6.89579e-06 3.16829e-06 7.55371e-06 
9.13055e-06 8.75432e-06 3.51959e-06 6.33615e-06 7.72936e-06 5.58022e-06 1.68102e-06 3.24062e-06 -1.07021e-06 
-1.82349e-06 1.80334e-06 3.58081e-06 -2.1649e-06 -5.33802e-06 -4.74551e-06 3.27154e-06 -1.72796e-06 0.000940018 
-0.000134321 7.10221e-05 0.000162763 -0.000103966 3.50914e-05 7.50912e-05 8.84534e-05 2.06932e-05 1.94043e-05 
-3.25182e-05 0.000120971 3.57634e-05 2.67803e-05 1.04411e-05 1.08043e-05 2.51739e-05 -1.49935e-07 -2.31367e-06 
-2.21056e-05 -2.66504e-05 5.84291e-06 -4.90295e-05 -9.57031e-07 -2.03542e-05 -1.04858e-05 1.42539e-05 1.05927e-05 
-1.50309e-05 1.40473e-05 1.74055e-05 1.85214e-05 -8.30899e-06 1.28819e-05 1.77481e-06 -3.55355e-06 -1.43949e-05 
-3.4012e-06 -6.25125e-07 -1.28785e-05 -1.22687e-05 7.74329e-06 4.89381e-06 1.2815e-05 -8.3068e-07 9.6482e-06 
5.62281e-06 -7.60858e-06 -1.11862e-06 -1.16871e-07 -5.81595e-06 -1.32437e-05 -7.78314e-06 3.05773e-06 -3.6705e-07 
-7.27119e-06 -2.68204e-06 5.68584e-06 1.78602e-06 1.73699e-06 3.72279e-06 -7.54266e-07 -2.62219e-06 -4.55447e-07 
1.14989e-06 -3.15921e-06 -7.70779e-06 -7.06372e-06 -2.65707e-06 -2.491e-06 -4.14676e-06 -3.46501e-06 -3.90587e-06 
1.05645e-06 -3.99084e-06 -1.49299e-06 -4.02283e-06 2.02241e-06 -3.98097e-06 -6.19318e-07 -6.08235e-07 1.63929e-06 
-1.5203e-06 -8.51498e-07 -6.28275e-07 4.28351e-06 -1.23088e-06 -1.4331e-06 -3.66826e-06 3.02649e-06 -2.52903e-06 
1.12967e-06 3.01119e-06 2.11256e-06 8.79917e-07 1.5837e-06 2.8722e-06 3.58305e-06 -5.52386e-07 1.88737e-06 
-2.77002e-06 2.50775e-06 -9.00404e-07 8.59943e-07 4.26319e-07 -4.09635e-07 -1.01245e-06 -5.07386e-07 1.98704e-06 
-4.82097e-07 -1.2453e-06 9.42159e-07 -7.15764e-07 2.60253e-07 3.2828e-07 1.46322e-06 2.49424e-07 -1.36849e-07 
1.17767e-06 -7.86513e-07 -2.12588e-08 5.10203e-08 -5.49455e-07 9.93191e-07 -1.47991e-06 0.00143775 -0.00317051 
-0.0003308 0.00308694 8.83362e-05 7.6706e-05 4.03555e-06 4.57138e-06 5.352e-06 4.65286e-05 -9.86367e-06 
2.78973e-06 1.65508e-05 6.70032e-05 -2.09939e-05 -2.90796e-05 7.20228e-05 1.6313e-06 -2.08223e-05 -7.55818e-05 
-5.80592e-06 5.72539e-05 -4.45181e-05 -4.70036e-05 2.91945e-05 -1.41595e-05 -0.000211318 -7.39185e-05 1.5809e-06 
-6.92914e-05 2.0124e-05 -7.0304e-05 0.000110619 -8.06936e-06 -2.15443e-05 2.78691e-08 1.78108e-05 7.49252e-05 
5.27043e-06 3.5899e-05 6.50558e-05 2.08615e-05 2.07612e-06 2.15968e-05 0.000256217 -4.2185e-06 8.25065e-05 
5.96554e-05 5.48724e-05 1.88989e-05 -1.00861e-05 0.000109616 0.00136434 0.000778214 0.000424841 -0.00116658 
-0.0027977 0.00188923 0.000850347 0.00153808 0.000208117 0.000414724 0.000537383 -0.000353168 0.000614841 
0.000420355 -0.000635616 3.96096e-05 -0.00015237 -0.00155501 -0.000552618 -0.00130292 0.00074175 -0.000109967 
-0.00133033 0.00135078 1.11e-05 0.00183421 3.58068e-05 0.000111017 0.000212304 -0.00022867 0.000436949 
0.000333061 -7.8226e-05 -2.37468e-05 0.000376352 -0.0011195 -0.000444128 -0.000861712 0.000737847 -0.000508118 
0.000731198 0.000271822 -2.37139e-05 0.00169532 0.000109164 0.000635531 0.000754429 -0.000717221 0.000268824 
-8.18554e-05 -0.0017403 -0.000502743 -0.00139969 0.000544141 -0.000243117 -0.0016283 0.000572355 -0.000327348 
0.000934886 -3.20118e-05 -5.69702e-05 0.000955304 0.00060308 0.000887451 0.00051981 -0.00394692 0.000469883 
0.00220412 0.00113112 -0.000105961 0.000926791 -0.000725706 0.00112617 -0.000830742 0.00293315 -0.000341272 
0.0004351 0.000227401 0.00188309 0.00113494 -0.000125002 0.00235863 0.00150658 0.000106716 0.00207482 
0.00196268 0.000123436 -0.000142788 0.000594485 -1.14079e-05 0.00220843 -0.000520962 5.284e-05 0.00323352 
0.00286501 0.000290393 -0.000136142 -0.00163886 -0.000925061 -0.00295074 -0.00267333 -0.00197966 -0.000673648 
-0.000384729 -0.000750501 -0.00235535 -0.00428665 -0.000396893 1.16305e-06 -3.43458e-06 -0.00108471 -0.000619268 
0.00015813 0.000536858 0.00188631 0.000158738 0.000250109 0.00165411 0.000744561 0.000282252 0.00111611 
0.00132706 0.000187244 -1.1729e-05 -0.00151648 0.000298933 -0.00021491 -0.0013651 -0.000682911 -7.15008e-05 
-0.00178154 -0.000928623 4.20841e-05 -0.000750305 -0.000805932 -0.000130461 -0.00350113 -0.0060418 -0.000116032 
3.56728e-07 1.4391e-06 -6.89488e-07 3.81819e-05 1.71239e-05 -6.38604e-06 -9.87594e-07 -4.08901e-06 -0.000249405 
0.00166629 0.00033175 7.01892e-05 -0.000806715 0.00139791 3.15553e-05 0.000914116 2.49389e-05 3.67706e-05 
0.000167786 0.000281071 -0.000200875 0.000242157 8.82828e-05 1.79194e-06 -0.000277593 -0.000192534 6.39325e-05 
0.00101265 -4.82717e-05 -0.000399015 -0.00470549 -0.00294819 -0.000734414 5.30475e-05 -0.000188049 -0.00133448 
-0.000680803 0.000728561 -0.000215423 -3.43773e-06 8.07974e-07 -2.81629e-06 -2.94239e-06 -1.77647e-06 -1.10566e-06 
-1.64067e-07 -1.55848e-06 -4.43822e-06 -3.61332e-07 -8.58166e-07 5.39015e-07 6.21446e-07 4.46441e-06 2.87618e-06 
3.24569e-06 1.93661e-06 4.94193e-07 2.09585e-06 2.24104e-06 -7.3862e-07 1.6408e-06 -9.46121e-07 8.22809e-06 
3.5942e-06 -1.61342e-06 5.76461e-06 1.90456e-06 -2.44411e-06 -3.36695e-06 4.15779e-06 2.86738e-06 8.41871e-06 
-2.64772e-06 -3.88487e-06 3.43279e-06 -4.43515e-06 4.63276e-06 5.59443e-06 6.41034e-06 2.60179e-06 2.937e-06 
-5.49471e-06 2.98025e-07 -5.88162e-06 -8.187e-06 2.74953e-07 5.14875e-06 -2.86714e-06 3.08096e-07 1.31051e-06 
-5.45941e-06 3.22628e-06 -5.40539e-06 -1.57336e-06 6.41517e-06 -1.59577e-05 -9.59255e-06 -4.15945e-06 1.37564e-05 
1.24639e-05 2.88061e-07 1.86538e-06 -9.45218e-09 -4.70551e-05 0.000234554 5.66334e-05 0.000120653 4.47545e-05 
9.90136e-05 -3.35547e-05 -1.35013e-05 1.37318e-05 5.87475e-07 2.0627e-05 1.33561e-05 1.68385e-06 6.40512e-06 
-1.32959e-05 2.30736e-05 -3.27702e-05 1.07264e-06 1.24042e-05 1.08801e-05 2.17021e-05 -9.91262e-06 -1.34261e-05 
1.03279e-05 8.25973e-06 2.29055e-05 4.71017e-06 2.29159e-05 8.69858e-06 -4.32219e-06 7.07598e-06 6.54344e-06 
6.586e-06 -8.88518e-06 -5.24636e-06 1.49397e-05 -4.62221e-06 -8.67087e-06 3.12e-06 5.69395e-06 8.48798e-06 
-5.40572e-06 7.61531e-06 1.02602e-06 -3.43118e-06 -1.81117e-06 -8.48285e-07 -1.34061e-07 -1.07683e-05 -4.07368e-06 
2.75821e-06 -1.79213e-07 -4.34427e-06 8.42537e-07 -1.49454e-06 2.53251e-06 -3.79911e-06 5.87457e-07 -4.7792e-06 
-4.07069e-06 -2.38605e-06 -3.42434e-06 -2.30829e-06 -3.05975e-06 -2.14797e-06 1.71983e-06 -2.75322e-06 1.84378e-06 
2.43236e-07 -2.11629e-06 -2.04654e-08 -1.38272e-06 -3.52373e-06 -2.99896e-06 1.13195e-06 -4.43348e-06 -3.80445e-06 
-2.06739e-06 2.18533e-07 2.27076e-06 -5.91827e-07 1.62548e-06 -4.54594e-06 1.80477e-06 -1.57859e-06 -9.86917e-07 
3.93955e-06 -2.26395e-07 3.27984e-06 2.1259e-06 4.8568e-07 2.02313e-06 -2.67896e-06 2.25933e-06 1.10331e-06 
-9.99949e-07 4.65749e-07 -2.51301e-06 1.8802e-06 3.39363e-07 -2.00024e-06 -8.85802e-08 1.24481e-06 6.95326e-07 
4.62218e-08 2.2587e-06 9.93372e-07 -1.88095e-06 2.79077e-07 -2.45894e-06 -6.48436e-07 -9.6684e-08 3.63098e-07 
2.37559e-07 -9.66834e-07 -9.87665e-07 -6.19664e-07 2.93353e-07 2.41754e-05 -0.000136572 4.07324e-05 -6.83254e-05 
7.47863e-05 -2.18131e-05 -0.00011365 -0.000113317 -0.000104148 0.000834051 -0.000506751 0.000587945 -0.000110091 
1.09804e-05 2.49884e-05 5.45139e-06 2.82752e-05 5.94424e-05 0.000154497 -6.41639e-05 6.44672e-05 2.51661e-05 
5.14384e-05 3.8485e-05 1.77754e-05 -0.00016977 -2.42834e-05 0.0001661 -2.42256e-06 0.000491297 0.000228558 
0.000220703 -0.000734821 -0.000135491 0.000243511 0.000300728 -4.78545e-05 -3.35236e-05 4.32894e-05 -5.03904e-05 
-0.00013085 -0.000133376 -8.10822e-05 -0.000206955 0.000248118 7.33814e-05 0.000104388 0.000168402 2.33878e-05 
-0.000141153 0.000132856 -2.95649e-05 0.000138736 0.000190501 -6.38998e-05 -2.99741e-06 0.000106513 1.34854e-05 
-0.000130775 -8.04875e-06 2.15692e-05 -5.92807e-05 0.000147109 8.40976e-05 -0.000133953 -0.000190681 1.72508e-05 
5.18898e-05 0.000259282 -5.95698e-06 0.000180051 -3.57615e-06 -8.74334e-05 -0.000193339 -0.000148462 -2.44692e-05 
-0.000190186 0.000174651 6.92493e-05 -0.000110461 -6.91632e-05 -1.05241e-05 -0.000201613 0.000184399 7.48434e-07 
0.00018443 0.000149368 8.25782e-05 0.000224975 -0.000124589 -0.000100592 8.36975e-06 2.58754e-05 -5.61833e-05 
0.000202632 0.000149749 0.000104389 -0.000304571 -1.09948e-05 2.11329e-05 -0.000632393 1.25926e-06 -1.32117e-05 
-4.5091e-05 -9.27871e-05 9.7342e-05 6.34705e-05 0.000562479 7.61776e-05 -0.000122039 -7.98633e-05 0.00015559 
-0.000102706 7.52216e-05 -5.81687e-05 9.55383e-06 -0.00010584 -2.66926e-05 9.30391e-06 -0.000164373 5.27887e-05 
-0.000117165 -3.26866e-05 -0.000179612 0.000104409 3.722e-05 -0.00085197 6.12804e-05 5.86339e-05 -8.1238e-05 
1.94246e-05 0.000149662 -5.60327e-05 -9.63321e-05 -4.44406e-05 -0.00011862 3.55548e-05 1.95699e-05 -0.000292937 
3.31287e-05 1.18729e-05 -1.00011e-05 5.66618e-05 9.00971e-05 -0.000193467 2.14269e-05 0.000276889 -1.07225e-05 
-4.46192e-06 1.14994e-06 4.42984e-05 -7.7027e-06 8.54147e-05 0.000808961 -0.000330334 7.74581e-05 -0.000111692 
-2.79114e-07 8.81783e-06 -8.2019e-06 8.24263e-05 -0.000208441 -0.00010923 4.95948e-05 -6.04454e-06 -1.96241e-05 
6.22362e-05 0.000240026 -1.39213e-05 -0.000130924 -3.96196e-05 -1.56117e-06 -0.000360941 -0.000205708 3.18701e-05 
1.60063e-05 -3.95037e-05 -0.000472854 2.45161e-05 9.26811e-05 1.31388e-05 0.000208061 0.000217988 -0.000390933 
1.1604e-05 -1.65988e-05 -1.53299e-06 -0.000204811 0.000208004 -0.000233651 -7.61543e-05 9.05522e-06 0.000494776 
0.000245745 8.35791e-05 -7.87917e-06 -2.32286e-05 -1.08677e-05 4.11462e-05 1.94871e-06 4.15047e-06 -1.88217e-06 
5.57616e-06 1.49298e-07 -3.67982e-07 -8.29867e-07 3.177e-06 2.87399e-07 6.92748e-06 4.12771e-06 5.13372e-06 
1.06175e-05 6.60778e-06 4.56164e-06 8.63644e-06 5.22507e-06 5.44228e-06 1.77586e-06 -2.7575e-06 1.3934e-05 
7.06689e-06 8.01816e-06 1.0307e-05 7.54366e-06 -5.75582e-06 8.36476e-06 -5.36106e-07 3.36149e-06 1.67039e-06 
-1.36393e-05 -9.92406e-07 7.54324e-06 1.74451e-06 1.35625e-06 4.25092e-06 6.07113e-06 7.04828e-07 -2.23075e-07 
-1.43535e-05 -3.98532e-06 -3.18661e-06 -1.71339e-05 -4.48589e-06 -1.58748e-06 -1.03454e-05 -6.42563e-06 -8.64251e-06 
-5.15906e-06 -1.054e-06 -8.29601e-06 -1.13327e-05 1.09507e-06 6.71698e-06 -2.99303e-05 3.23528e-06 0.000244487 
-0.000111235 9.85144e-05 1.67986e-05 7.10228e-06 8.77097e-05 -3.26534e-05 1.14391e-06 -3.29093e-05 -4.43969e-05 
-1.80086e-06 -1.55195e-05 7.62872e-05 2.3293e-05 3.9922e-05 4.41263e-05 6.55947e-06 3.43929e-05 2.43112e-05 
2.12444e-05 3.57422e-06 -2.28992e-06 9.28169e-06 1.85597e-06 -1.02811e-05 2.95026e-06 7.92752e-06 1.50121e-05 
-2.36117e-06 2.52727e-05 8.12554e-08 5.76332e-06 4.10769e-06 2.45851e-06 8.90021e-06 -7.61593e-06 -3.2887e-06 
8.52129e-06 -3.99018e-07 1.317e-05 -1.9625e-06 4.77388e-06 3.33294e-06 -8.65241e-06 5.57576e-06 -4.1361e-06 
2.39837e-06 -8.98424e-07 -1.7587e-06 4.11204e-06 -6.87271e-06 -2.44036e-06 2.19565e-06 -1.9625e-06 5.8393e-06 
-2.53717e-06 1.86471e-06 1.56307e-06 -3.77948e-06 -1.05495e-06 -2.80154e-06 -1.66684e-06 -1.54403e-06 -2.94195e-06 
1.12648e-07 -1.16201e-06 5.45808e-07 2.54472e-06 -1.62153e-06 1.3844e-06 1.84977e-06 -3.16907e-06 3.30338e-07 
6.298e-07 -4.14083e-06 3.3069e-07 -1.57035e-06 -3.50614e-06 -2.8771e-06 2.05222e-06 1.46171e-06 4.43954e-06 
1.4811e-06 7.37878e-07 -2.58556e-06 3.52989e-06 -1.01326e-06 2.33409e-06 2.62194e-06 -2.14153e-06 -1.42192e-06 
-2.52429e-08 3.92002e-07 6.62332e-07 -3.67227e-06 2.04403e-06 -4.15907e-06 1.87551e-06 -5.65217e-07 -2.99034e-06 
9.36136e-07 -2.21118e-06 7.65989e-07 -5.55298e-07 1.45807e-06 -1.92485e-07 -3.31327e-07 2.40551e-06 7.19788e-07 
-2.14087e-06 -7.98808e-07 -3.05793e-06 0.000126246 -5.00482e-05 1.15064e-05 0.000170614 -2.41295e-06 1.94048e-06 
-5.80716e-05 1.30507e-05 -3.46411e-07 4.24464e-05 -1.15974e-05 2.60637e-05 -2.52228e-05 -0.000115524 2.36793e-05 
-2.25619e-06 5.3296e-05 8.65811e-05 -6.35867e-05 7.53253e-05 0.000207682 -1.79149e-05 -8.19416e-05 4.31475e-06 
8.78005e-06 3.9633e-05 7.66451e-05 2.56228e-05 2.63913e-05 7.58168e-05 6.50207e-05 3.38836e-05 2.97485e-05 
6.26621e-07 -4.37153e-08 -1.41999e-06 4.23959e-07 -3.22269e-05 -1.68378e-05 1.59782e-05 1.68097e-05 8.89244e-06 
2.23296e-05 3.53594e-05 3.47474e-05 7.27631e-06 1.89419e-05 3.05482e-05 4.73471e-06 4.70934e-06 5.07513e-06 
5.42699e-06 -2.19275e-05 -2.19819e-05 -9.97238e-06 -3.145e-05 -2.48967e-05 -1.67524e-05 7.91059e-06 5.39593e-06 
-2.85983e-05 3.81456e-06 4.51532e-05 -1.77953e-05 -3.19934e-05 3.04797e-05 1.16998e-05 -5.85988e-05 5.10309e-05 
1.09006e-05 -2.02081e-05 3.54115e-05 4.23702e-05 0.000183397 0.000140862 -2.9256e-05 0.000264969 -0.000125008 
-0.000154442 -2.37091e-05 -2.46703e-06 5.56115e-05 -1.19082e-05 6.40833e-05 -8.84836e-05 1.53328e-05 -1.48641e-05 
-3.10689e-06 4.85864e-06 -1.59555e-06 0.000130972 8.5075e-05 -6.51833e-05 -4.92104e-06 -2.28185e-05 6.1485e-05 
1.74866e-05 -1.45198e-08 5.14923e-07 -1.76274e-06 -1.63224e-06 -9.02477e-06 -1.05917e-05 -2.42004e-05 2.35899e-05 
2.54528e-05 2.89141e-05 -5.67498e-05 -2.45124e-05 -5.68997e-05 -0.000215493 -1.53758e-05 8.74542e-05 7.04855e-06 
0.000106415 -4.47067e-05 5.97693e-05 -0.000166056 0.000177155 0.000179447 -3.27822e-05 0.000128507 7.19062e-05 
0.00022481 -9.50505e-05 -5.98466e-07 -0.000183993 0.000150104 3.37116e-05 2.67805e-05 -0.000266561 -2.80951e-05 
-2.33927e-05 -5.44173e-05 7.0179e-05 0.00016705 -3.81341e-05 -4.23379e-05 -9.40384e-05 1.1289e-05 3.86219e-06 
-2.67248e-05 4.28106e-05 1.06188e-05 0.000113368 -2.37926e-05 1.26535e-05 -0.000128192 -0.000121421 0.000348313 
-0.000137291 -0.00391145 -0.000258438 -7.17084e-05 1.11192e-05 0.000110217 3.98862e-06 2.12618e-05 1.38485e-06 
-5.01375e-06 -4.8122e-07 6.17856e-06 -1.33972e-05 -3.1955e-05 9.5772e-05 1.43077e-06 2.1816e-06 2.32904e-06 
4.52706e-06 8.05401e-06 3.37554e-06 1.06163e-05 3.41108e-06 1.05535e-05 1.62832e-05 -3.60094e-06 5.8676e-07 
-2.42228e-07 -4.6444e-06 -1.16332e-05 -8.16254e-06 -3.15268e-05 -3.29075e-06 0.00076244 8.44502e-06 -1.58225e-05 
-2.43815e-05 -6.90587e-06 -2.90179e-06 4.20133e-06 1.05013e-05 -1.61651e-05 1.53778e-07 9.80517e-07 2.2475e-07 
-2.22358e-05 1.07274e-05 -1.30088e-05 1.75377e-05 -2.97479e-05 -1.47289e-05 -6.17505e-06 5.67818e-05 -4.1512e-06 
3.11222e-05 5.26919e-05 -4.06348e-05 2.02228e-05 4.02983e-06 -1.743e-05 5.54021e-05 -3.94301e-05 -1.76501e-05 
4.89721e-05 -2.40043e-05 -7.81798e-07 5.26823e-05 2.32008e-05 1.09365e-05 2.37703e-05 2.19589e-05 1.32235e-05 
1.88718e-06 -5.23579e-06 2.75188e-06 -1.47566e-06 -7.14006e-06 1.81575e-06 5.94086e-06 6.60283e-06 -5.95419e-06 
1.08873e-05 -9.60288e-06 2.40612e-06 -1.22469e-06 9.40291e-07 1.0331e-05 -1.87815e-06 -4.49441e-06 1.71216e-06 
3.22228e-07 3.13532e-06 -6.49645e-06 9.1545e-06 -2.47974e-07 -1.58692e-06 1.54997e-06 1.90316e-06 2.36762e-06 
-4.66952e-06 -1.22621e-06 6.62694e-06 -8.45168e-07 -2.55754e-06 6.83191e-07 7.10702e-07 2.41671e-06 -4.19025e-06 
5.99186e-06 -7.67694e-07 1.60479e-07 6.83364e-07 6.39469e-07 4.76981e-07 -4.24475e-07 -5.83208e-07 4.61753e-06 
-4.54862e-08 2.57508e-06 3.45256e-06 -1.70737e-06 1.52221e-06 4.05223e-06 -3.51461e-06 2.4534e-06 8.90445e-07 
-4.14896e-06 3.04767e-06 8.0811e-07 -3.45206e-06 -6.81656e-07 3.62363e-06 2.74904e-06 5.58458e-06 1.21572e-06 
8.57282e-07 -1.19183e-06 -6.99932e-07 -1.94181e-06 5.55911e-06 5.34446e-07 -2.04002e-06 1.49183e-06 -6.60613e-06 
2.23924e-06 -4.33865e-06 2.88531e-07 -2.82511e-06 -4.5389e-06 6.2664e-07 -5.30286e-06 7.41237e-07 1.40387e-06 
-5.11372e-06 -4.20897e-06 -6.40277e-07 1.20339e-06 -6.55376e-06 -4.08984e-06 2.92308e-06 -1.34164e-06 3.4811e-05 
2.86426e-05 5.27548e-05 -3.09687e-05 8.82956e-05 -1.1458e-06 2.2319e-05 -1.47498e-05 7.46666e-06 7.66512e-06 
-8.25545e-05 -7.18811e-05 -1.99829e-05 -0.000128344 6.01172e-05 -0.000148568 5.02525e-05 -4.91705e-05 8.78412e-05 
-4.0814e-05 2.10508e-05 -1.70341e-05 1.18898e-05 -7.51132e-07 8.78978e-07 -3.11445e-05 2.71372e-05 -1.53086e-05 
-2.33553e-05 1.21156e-05 6.85131e-06 -6.2204e-06 5.28372e-05 2.46856e-06 1.46026e-05 -5.75599e-06 -8.94825e-07 
1.65266e-05 -1.47799e-05 -4.04532e-06 2.38956e-05 3.05588e-05 7.4815e-06 -8.38874e-06 1.94503e-05 -2.1778e-05 
2.43088e-06 2.92056e-05 8.84688e-06 1.57896e-05 -6.0433e-05 2.93014e-05 5.22929e-05 -2.31476e-05 4.80508e-06 
2.51032e-05 -1.68038e-05 -4.66459e-05 2.70667e-05 2.88201e-05 -1.83715e-05 4.16334e-05 2.74285e-05 -5.94965e-05 
-6.21205e-05 -8.56924e-05 4.05689e-05 3.57801e-06 1.92904e-05 -4.43278e-06 1.8726e-06 6.92837e-06 2.09744e-07 
2.11205e-05 -5.22645e-05 7.79456e-06 5.7554e-06 7.56845e-06 -3.66803e-05 1.49372e-05 2.93308e-05 6.95582e-05 
1.97357e-05 -1.98529e-05 4.50801e-05 -2.39768e-05 5.61302e-06 6.01572e-05 -3.23723e-06 1.0531e-05 1.42452e-05 
-1.24919e-05 -1.81721e-05 -5.95638e-06 6.47476e-05 -1.62262e-05 -2.90727e-05 6.28259e-05 -4.27294e-05 6.28877e-06 
-3.59632e-05 5.05771e-05 -2.82618e-05 -6.14964e-05 -7.31682e-06 7.83491e-06 -1.55286e-05 7.14544e-05 -6.24424e-06 
-4.68207e-06 5.54222e-05 1.35858e-05 -1.76756e-05 1.85035e-05 -1.91385e-05 -6.69635e-05 -1.79131e-05 8.69796e-06 
5.00707e-06 -1.88127e-05 1.00392e-05 -1.63421e-06 1.27237e-05 3.47491e-05 -0.000381895 -0.00538328 -0.000117175 
2.73467e-05 3.62322e-05 6.77107e-06 -0.000154501 3.49827e-05 8.42233e-06 -3.20549e-06 5.60218e-05 6.82358e-05 
-7.05366e-06 1.45835e-05 3.12862e-06 2.08468e-05 -8.05888e-06 -3.95777e-05 -3.27174e-07 3.34476e-06 1.87877e-07 
3.01782e-05 -2.80031e-05 2.36272e-06 -2.4617e-05 0.000100602 2.75519e-05 -5.65164e-05 -1.87886e-05 3.46796e-05 
5.44123e-05 -1.85014e-05 8.92097e-06 -1.69882e-05 9.12648e-06 2.74896e-05 5.34485e-06 -2.631e-06 2.04764e-05 
3.83126e-06 3.9436e-06 3.60429e-06 -6.0174e-06 5.79779e-06 -4.57201e-06 2.12691e-05 -1.22977e-06 1.99527e-06 
7.89539e-06 -4.05641e-06 -1.10794e-07 -9.69765e-06 -1.19013e-06 -1.25983e-05 -1.74982e-07 9.33617e-08 -2.32078e-06 
-1.08235e-06 2.60472e-07 2.92893e-06 -9.28931e-06 -2.02356e-06 6.61374e-06 -4.07208e-06 1.29956e-06 -7.73845e-07 
1.92743e-06 1.08551e-06 -9.11241e-06 1.56486e-06 3.17321e-06 4.2316e-07 -3.79859e-06 6.24261e-07 3.26626e-06 
-1.95808e-06 -1.661e-06 3.85712e-06 -2.34172e-06 1.41163e-06 1.24322e-06 -1.83376e-06 3.14715e-06 -8.51557e-07 
2.27998e-06 4.79244e-06 1.69062e-06 2.64939e-06 4.31707e-06 -6.08172e-06 1.11041e-06 8.55679e-06 8.10864e-06 
5.49677e-06 7.86166e-06 -4.61793e-06 -1.58914e-05 4.64783e-06 -1.98051e-06 -1.5563e-06 1.36676e-06 5.78189e-07 
2.99597e-06 -3.35642e-06 6.9945e-06 1.08185e-06 -1.31239e-06 -5.11506e-06 6.42037e-06 2.70039e-06 -0.00151941 
-0.000847084 -8.51643e-06 -4.82989e-06 1.26368e-05 1.04939e-06 -4.3623e-06 1.0878e-05 -9.91624e-06 2.0937e-06 
1.55409e-07 -7.88439e-06 4.17141e-06 1.59386e-07 -4.21663e-06 4.07511e-05 4.7316e-05 8.68119e-06 2.58388e-05 
4.21146e-05 -6.1191e-05 -8.0038e-07 2.29062e-05 3.29617e-05 1.41993e-05 5.06271e-05 -2.98795e-05 1.8661e-05 
3.24136e-05 2.50113e-05 0.00114747 -0.000899156 -3.56509e-05 -9.87357e-06 9.39857e-05 1.12779e-05 -6.25225e-06 
-7.51112e-06 -2.6087e-05 -2.42571e-06 -2.92405e-05 1.01743e-05 0.00181511 -0.000216291 -1.87004e-05 1.49707e-05 
0.000117821 3.96955e-05 -2.68412e-05 1.13131e-05 -5.18789e-05 -1.09398e-05 4.18394e-05 -6.85948e-07 -6.83138e-05 
2.70211e-08 -4.15814e-05 4.47245e-05 4.26184e-05 -1.2193e-05 -2.7378e-05 1.29314e-05 -3.74542e-05 1.47622e-05 
1.25687e-05 7.65976e-06 6.41602e-06 2.31839e-05 -1.60311e-05 7.38317e-06 -1.25248e-05 1.68251e-05 0.00165168 
-0.000474447 -1.61737e-05 1.79563e-05 1.66399e-05 -5.75912e-06 6.05585e-05 1.009e-05 3.06472e-06 9.45917e-06 
4.87901e-07 -8.29309e-06 7.99132e-06 -6.32835e-06 3.50658e-06 8.54555e-06 9.61534e-06 3.24592e-05 2.51868e-05 
2.98113e-05 -4.40603e-05 -2.57307e-05 -6.57001e-05 -8.23148e-06 9.74893e-07 -6.86367e-05 6.33302e-05 1.24359e-05 
-2.41021e-05 3.64684e-07 2.62926e-05 1.91065e-05 1.7011e-05 -1.16086e-05 -2.28276e-05 -7.0039e-05 0.000117566 
-6.31355e-05 -4.60923e-05 2.28216e-06 3.25236e-05 6.24149e-06 4.14039e-06 -3.06174e-06 1.64802e-05 3.30869e-05 
2.73774e-06 3.16811e-05 5.73749e-05 3.2573e-05 -3.26862e-05 -0.000104808 2.29064e-05 9.92771e-06 -3.03972e-05 
7.04392e-05 3.16391e-06 1.00659e-05 5.40408e-06 4.05616e-05 -1.86825e-05 1.1718e-05 6.43108e-05 1.06809e-05 
-8.99749e-06 -1.37296e-05 2.9679e-05 3.67333e-05 1.4471e-05 -1.8846e-05 -2.14781e-05 1.43237e-05 -6.89332e-06 
5.94959e-06 -2.48907e-05 2.33528e-05 -3.10548e-06 -6.67156e-06 -2.58138e-05 -9.06971e-06 -8.23276e-06 -1.47255e-05 
2.49967e-06 -5.41786e-06 -1.74771e-05 -2.08592e-06 -1.47633e-06 -5.50298e-06 1.68818e-06 0.000738945 -0.000754114 
1.89138e-06 1.87155e-06 1.19293e-06 -2.05551e-06 2.14616e-06 1.10327e-05 -1.38094e-06 -8.46041e-07 2.01712e-06 
9.7145e-07 -1.60431e-05 5.5564e-06 6.48462e-07 -7.77794e-07 -7.0334e-06 -2.98619e-07 5.24753e-07 -1.07109e-05 
1.25126e-06 6.02083e-06 -1.70312e-06 6.51182e-07 -1.22474e-06 -3.88527e-06 9.25632e-06 7.29085e-06 8.52082e-06 
1.89996e-06 -2.71788e-06 7.41627e-06 1.52019e-05 -8.96145e-06 1.13362e-06 2.1057e-05 -7.61874e-06 2.06744e-05 
2.02735e-05 -6.22016e-06 -9.07337e-06 6.82251e-06 8.33598e-06 -1.00429e-05 1.32663e-05 0.000439897 -0.00207385 
-3.07707e-05 -1.07367e-05 -7.9804e-06 -0.000108902 7.56616e-05 1.36363e-05 -8.52271e-06 5.68095e-06 -5.01529e-06 
-1.39058e-05 1.32129e-05 -4.56591e-05 -3.42683e-05 2.52713e-05 -5.03707e-05 -1.09385e-05 4.57877e-06 3.66062e-05 
1.95957e-05 -4.22711e-05 7.53026e-05 3.07629e-05 1.00134e-05 -1.85419e-05 -0.00213513 -0.000200788 6.13183e-05 
2.77262e-05 -7.25972e-07 5.69865e-05 -2.94827e-05 -2.09681e-05 2.6652e-08 3.69567e-05 -1.355e-05 1.36167e-05 
0.00295234 -0.00395405 4.6288e-08 1.19915e-05 -1.1185e-05 -1.30899e-05 2.2467e-06 -1.55611e-05 -1.0634e-06 
-2.81115e-05 8.1435e-06 -4.34816e-05 4.23672e-05 -7.99955e-06 8.01019e-05 9.66755e-05 -9.94416e-05 0.00486204 
-0.000132787 -6.08697e-05 -2.25506e-05 5.44983e-05 2.16441e-05 -2.45711e-05 -7.37096e-06 -9.33004e-06 2.90447e-06 
-5.11459e-05 -7.89909e-05 -1.05275e-06 2.29167e-06 -2.21837e-05 -5.01566e-06 -1.6381e-06 2.92803e-05 -1.81547e-05 
1.0706e-05 1.96854e-06 4.1711e-05 6.74636e-07 -4.66578e-05 2.91874e-05 -4.36504e-05 1.99028e-05 -4.20217e-06 
-2.26984e-06 1.64248e-07 -9.75987e-06 1.25112e-05 1.42534e-06 2.18948e-06 -1.32756e-06 3.76093e-06 -2.00765e-06 
8.19808e-06 2.7924e-06 7.83271e-06 -9.04433e-06 8.10285e-07 6.84646e-06 7.90044e-06 -2.59563e-05 -1.45562e-05 
2.11733e-05 3.70834e-06 -7.18382e-05 -1.157e-05 4.55503e-05 2.71516e-05 3.99078e-05 3.59164e-05 2.64245e-05 
1.01908e-05 -8.40795e-06 4.204e-05 1.23484e-05 -4.15684e-05 -2.88771e-05 -1.11616e-05 -0.000118252 -6.81617e-07 
3.15354e-05 1.57221e-05 4.22859e-05 1.68792e-05 -1.03945e-05 -1.92333e-05 1.45419e-05 -1.11427e-05 -5.82124e-06 
5.77484e-06 -1.47492e-05 6.23927e-06 3.45634e-05 1.21966e-05 1.30333e-07 -2.738e-05 -3.26925e-05 -6.28417e-06 
-2.90704e-06 1.98204e-06 -9.64016e-06 -1.12689e-05 -1.69049e-05 2.24059e-05 8.00546e-06 -2.2246e-06 -4.10745e-06 
9.44255e-06 2.01874e-05 -4.33692e-06 -1.51228e-05 -1.28371e-05 -4.5547e-06 -2.71216e-05 4.84374e-05 9.11572e-06 
-8.90524e-06 -8.76607e-06 3.25023e-05 2.60682e-06 -1.41991e-05 7.14231e-06 -1.48929e-05 -2.4048e-05 -3.01097e-06 
1.99673e-05 -1.35919e-05 -3.81101e-06 2.54292e-06 -3.29994e-06 -2.50729e-05 1.1354e-05 -1.06882e-05 -7.30968e-06 
-3.95719e-06 -9.72725e-06 4.76364e-05 4.03831e-06 -2.23696e-05 3.94416e-05 -1.36999e-05 -1.455e-05 3.18397e-06 
-3.60636e-05 1.38261e-05 1.01394e-05 9.32746e-07 -7.26241e-06 -2.14398e-05 6.41876e-05 7.07169e-06 -1.3294e-06 
-3.9955e-06 -1.96637e-05 4.09078e-05 7.92673e-06 -2.43992e-05 2.97773e-06 9.43627e-07 5.15171e-06 3.54587e-06 
1.06625e-06 -1.80137e-06 1.06241e-06 -1.63724e-06 -1.97842e-06 -6.86026e-07 -1.15294e-06 -2.80198e-06 -7.60163e-07 
1.51162e-06 8.50794e-07 1.67653e-06 1.29241e-06 -2.07334e-06 7.91493e-07 1.68073e-06 -9.21842e-07 -6.01496e-06 
4.2671e-07 -3.28933e-06 -5.7778e-07 -3.98851e-06 1.63409e-06 1.88236e-06 2.6364e-07 2.07391e-06 -3.10798e-06 
2.00818e-06 -3.70062e-06 -2.07847e-06 -8.0642e-06 2.44172e-06 8.31738e-06 -1.25622e-05 4.70206e-06 1.60429e-06 
4.24365e-06 -3.69975e-06 1.01473e-06 4.31991e-06 -7.4969e-06 1.39214e-05 2.88532e-06 9.66416e-07 6.34953e-06 
1.05377e-05 -4.78975e-06 1.47651e-06 3.53979e-06 -5.25786e-06 3.71897e-06 5.99342e-07 2.01716e-06 -1.62012e-05 
4.91119e-06 -3.37927e-07 -4.35507e-06 -1.57099e-05 4.18081e-06 -6.21599e-06 -0.010097 -0.00100482 0.00550386 
0.00036647 -0.000272436 -0.000946479 6.51004e-05 -0.000161047 -0.00021314 -3.73288e-05 -1.98745e-05 -3.52886e-05 
3.87567e-05 3.58974e-05 -2.63664e-05 8.18124e-06 -1.84464e-06 2.44926e-05 -1.07235e-05 -7.17834e-06 9.68485e-06 
-1.73022e-05 -6.53838e-06 -2.53133e-05 4.04148e-06 3.77566e-06 -8.01307e-06 8.52363e-07 -1.99028e-06 3.04056e-07 
2.36244e-06 1.76618e-06 1.56008e-06 -9.09322e-07 -4.26084e-06 4.6216e-06 -8.65986e-06 -4.71777e-06 -4.39639e-06 
2.39353e-07 3.13729e-06 -2.02911e-06 1.0038e-06 -1.27189e-06 4.98678e-06 -2.24238e-06 -4.82869e-06 3.16404e-06 
4.65463e-08 4.37366e-06 1.84608e-06 4.92744e-07 1.34767e-06 9.11407e-06 4.08395e-07 -4.96645e-07 5.3171e-06 
3.37183e-06 -2.13318e-06 4.12131e-06 -7.89032e-06 -9.86682e-06 -1.76338e-06 -6.26057e-07 3.98156e-06 -1.74239e-07 
3.29306e-08 -6.02581e-07 4.80824e-06 -1.68019e-07 1.7672e-06 1.8705e-06 -4.84119e-07 -1.76399e-06 -2.49267e-06 
8.154e-07 1.06407e-06 1.60393e-07 -2.0727e-06 -6.01221e-08 -3.19466e-06 5.06309e-06 3.72953e-06 -1.97607e-08 
1.00167e-06 -2.06496e-06 -9.23398e-07 -3.0839e-07 -4.82187e-07 -3.46815e-06 5.30027e-07 -1.18156e-06 -3.35667e-06 
6.22618e-07 -4.53794e-07 7.74528e-07 -6.87578e-08 -1.19869e-06 9.72942e-07 -1.43769e-06 -1.5245e-06 2.16002e-06 
-0.00206153 7.8992e-06 8.16173e-06 -3.65608e-06 2.25137e-06 -8.52413e-06 -4.7129e-06 -3.95426e-06 -1.58433e-05 
-1.34392e-06 1.44019e-06 1.60115e-05 -3.78811e-05 3.51371e-05 3.44542e-05 -2.26555e-05 -9.10624e-06 3.49345e-06 
-3.54302e-05 3.61718e-05 7.75645e-05 -4.14679e-05 -0.000142727 6.42021e-05 3.24598e-05 -0.000117373 2.41724e-05 
4.03524e-06 9.88027e-05 0.000138307 -5.20019e-07 2.17683e-05 -0.000303309 8.81876e-05 3.17206e-05 5.69745e-06 
-0.000106414 3.31192e-05 -6.28197e-05 -0.000195255 1.73919e-05 -3.41466e-05 -0.000105169 7.45516e-06 2.1528e-05 
-2.27948e-05 3.78918e-07 5.53434e-05 2.46445e-05 7.76234e-05 9.82477e-05 6.92006e-05 7.57715e-05 7.96868e-05 
0.000141822 -0.000143072 0.000594607 0.000158908 0.000242202 -0.000559329 0.000427919 -0.00113358 -0.00170653 
0.000626659 0.00628334 0.00281892 0.00268252 0.00654675 -0.00131894 -0.00159016 0.00255739 0.00802291 
-0.00318303 0.000514531 0.00361278 -0.00061409 -0.00191117 0.0016042 -7.79698e-05 -0.00566648 -0.00154686 
0.000979303 0.00523494 -0.00412693 0.00127432 0.00194819 0.00652312 -0.00208609 -0.000368073 0.00252634 
-0.000545671 -0.0021684 2.40457e-05 0.000167631 -0.00153105 -0.000584136 0.000595 0.00188604 0.00417093 
-0.000598516 -0.000994317 0.00207142 -0.000665479 -0.00292464 0.000250277 0.000232168 -0.00665701 -0.00235518 
0.001402 0.0054609 -0.00523728 0.0022102 0.00216853 0.00719048 -0.00144951 -0.000550908 0.00158442 
0.000222562 -0.00489168 -0.000211548 0.00113574 -0.00153819 -0.00400915 0.00186003 0.00674731 -0.00450621 
0.00948881 0.00619514 0.00767987 0.00459217 -0.0028822 0.00325258 0.00161175 -0.00189361 0.00493262 
0.00474006 -0.00224413 0.00571838 0.00521766 -0.00241098 0.00590121 0.00564754 -0.00199402 0.00729791 
0.00670062 -0.00226597 0.00922311 0.00832918 -0.00266873 0.00545121 0.00394656 -0.00557332 0.00336492 
0.00497018 -0.00459546 0.0132913 0.0191649 -0.00415468 0.00955803 0.00541057 0.00795134 -0.0112222 
-0.0112302 -0.00776262 -0.00548707 0.00263369 -0.00793445 -0.00657 -0.00895667 -0.00715045 0.00255597 
-0.0100035 -0.0079638 0.00289448 -0.00928772 -0.00851009 0.00343492 -0.00538085 -0.0031001 -0.00455467 
-0.00328924 0.00715361 -0.0128978 -0.0133475 -0.0092647 -0.0136612 0.00270851 -0.00668079 -0.00791888 
0.00379021 0.000258979 -0.0033682 -1.52024e-06 1.70795e-05 -1.08853e-06 1.70364e-05 -5.45697e-05 3.36836e-05 
0.00041517 -4.06627e-05 -0.000177182 -0.000399531 -0.00169098 0.00062419 0.00310669 0.00259855 0.0104949 
0.00215981 0.000165805 -0.00310916 0.00430057 0.00437493 -0.00346963 0.0100482 0.00261015 0.00331163 
-0.00123035 0.00388608 -0.00186821 -0.00242584 0.00558233 0.00750079 0.00517708 7.29312e-05 -8.23093e-05 
1.32016e-06 -0.00439932 2.81215e-06 -3.95899e-06 -8.49039e-07 3.11093e-07 -1.70007e-06 -1.59543e-06 -5.50906e-06 
4.60128e-07 -3.51388e-06 6.07929e-07 1.16626e-06 -4.71917e-06 -6.95876e-07 -4.86707e-07 -3.00376e-06 -4.67729e-06 
-9.13732e-07 -9.59941e-07 6.54574e-07 3.72676e-06 -9.52374e-07 -2.70077e-06 4.94446e-06 -7.04122e-06 -7.79282e-07 
3.2016e-06 3.92237e-06 -1.50834e-06 6.42025e-06 6.09713e-06 -4.64092e-06 2.69716e-07 5.0539e-06 -3.0401e-06 
4.23797e-06 1.02448e-05 1.12652e-05 -3.37406e-06 7.36131e-06 8.80938e-06 7.16065e-07 1.01278e-06 -3.38323e-06 
-5.37578e-06 3.61076e-06 3.08716e-06 -2.95703e-06 4.31896e-06 2.37272e-06 -8.521e-06 -8.33726e-06 4.82381e-06 
-7.46532e-06 -5.8945e-06 7.2718e-06 4.60748e-06 3.20161e-05 3.7562e-05 6.29067e-05 0.000193964 -0.00018604 
0.000272775 -0.000157197 -9.95758e-05 8.84176e-05 -0.000756149 -0.000122943 7.63409e-05 8.89626e-05 -6.16263e-05 
9.28418e-06 -1.04687e-05 5.51854e-05 -4.56431e-06 8.11284e-06 4.34785e-06 -9.66153e-06 3.18659e-06 -2.84663e-05 
-4.69255e-06 1.55759e-05 -8.90862e-07 7.05997e-07 -3.21856e-06 -2.03301e-05 3.52306e-06 -1.04908e-06 -2.27768e-06 
1.97775e-06 9.33993e-06 8.75257e-06 3.01574e-06 5.9438e-08 -4.00827e-06 -9.53519e-06 -1.25447e-07 7.44512e-06 
4.60764e-07 -2.75784e-07 -4.07207e-06 -4.86685e-07 1.47023e-06 5.20988e-06 -3.87814e-06 -2.9388e-06 -2.42239e-06 
-1.14642e-06 2.66676e-07 1.15737e-06 -3.56671e-06 -5.22649e-06 4.28445e-06 7.0201e-07 -2.06831e-06 6.35361e-06 
-5.89923e-06 -6.05059e-06 1.09368e-06 -5.13318e-06 8.80733e-07 -2.61948e-07 -2.06625e-06 -1.21515e-07 1.32186e-06 
-2.03594e-06 -2.72968e-06 -3.70004e-07 -1.59916e-06 -1.69432e-07 2.74332e-06 1.27928e-06 2.03993e-06 -1.94159e-06 
-1.09845e-07 1.92492e-06 1.91664e-06 1.40728e-06 1.44426e-06 -1.55368e-06 3.43651e-06 -4.32917e-07 -2.27999e-06 
1.16133e-06 -6.88473e-07 -1.11105e-07 -5.9027e-07 1.03435e-06 -3.21285e-06 1.09144e-06 -1.88976e-07 -1.77255e-06 
-6.37085e-07 -3.03264e-07 1.52357e-06 1.05234e-06 -1.82644e-06 -1.98364e-06 9.21888e-07 2.64567e-05 -1.86617e-06 
3.33757e-05 -0.000138785 3.04177e-05 -3.71387e-05 2.29017e-05 2.07699e-05 9.77733e-05 -9.81524e-05 -4.34156e-05 
-9.90171e-06 0.000179244 4.16527e-05 1.46703e-06 -9.18322e-05 5.60869e-05 -8.11739e-05 0.000106096 0.000170961 
-9.92746e-05 1.45141e-05 3.83875e-05 3.0876e-06 4.89711e-05 2.34604e-05 5.70751e-05 3.04555e-05 6.45353e-05 
6.56706e-05 -9.06412e-07 8.46701e-05 -6.85665e-05 0.00011831 4.27933e-05 7.76111e-06 -1.75541e-05 8.65663e-05 
0.000707995 -0.00100627 3.81682e-06 0.00272332 0.000910215 -0.000801896 -0.000959988 -0.00199957 0.000545261 
-0.000434315 -0.00116423 0.000852043 0.000151827 -0.000632486 0.00153518 -0.00011323 -0.000217494 0.000458315 
1.95822e-05 -0.000462826 -0.000133698 5.19407e-05 -0.00135841 0.000407379 0.00010953 -0.000442758 0.000827506 
-9.81176e-06 -0.000182311 0.00185554 7.51292e-07 -0.00011182 0.000417147 -5.21526e-05 -0.000634623 0.000208505 
0.000182197 -0.000799243 0.000872511 -0.000184251 -0.000537399 0.00229822 -6.9156e-05 -0.000247476 0.000760477 
-0.000125457 5.08801e-05 0.000220647 5.51039e-05 -0.00051797 0.000345468 0.000118511 -0.00103092 0.00062563 
4.79992e-05 -0.0010078 0.00040193 7.09759e-05 -0.000423132 0.00127108 0.000939856 -0.000501492 0.00123177 
0.000221837 -0.000865086 -6.74984e-05 -4.7199e-05 -0.000334384 0.000100426 -0.00133089 -0.00128177 -0.000102609 
-0.000348499 -0.000519683 0.000150533 -0.000497257 -0.000700873 0.000314895 -0.000432993 -0.000534447 -0.00433572 
-0.000873664 0.00101937 -0.000894545 0.000392724 0.00190422 0.000726118 0.00170312 0.00033853 -8.75604e-05 
0.00350257 0.000330877 9.05205e-05 0.00367535 0.000448848 0.00133063 0.000622059 0.00137998 0.00111317 
-9.54341e-06 -0.00036511 1.36333e-06 2.71459e-07 -2.07963e-06 -1.44723e-06 2.38373e-05 2.93069e-05 -3.79993e-05 
-0.00159281 -0.00210716 0.000244504 -0.000941637 -0.000870096 -0.00320302 0.00233877 0.000651632 -0.000159225 
0.00253845 0.000948705 -1.42826e-05 -0.00150822 8.52224e-07 6.85459e-06 -0.000489878 -2.36514e-05 -5.36017e-05 
-0.000162412 0.00183525 1.81077e-06 5.70116e-05 6.14386e-05 -2.02672e-06 1.77129e-05 -1.82805e-06 -2.03669e-06 
0.000231705 2.56395e-06 -1.25065e-06 -0.00010753 -7.299e-05 -3.02383e-05 0.000384731 0.00111797 0.000157062 
-0.000674779 -0.000122583 0.000447254 0.00035917 -0.000281892 0.00237588 0.000522536 0.000103746 -0.000523655 
-0.00191213 6.53404e-05 -0.00043627 -0.000889011 -9.94786e-05 -0.000331664 -8.50882e-05 -4.91383e-05 -0.00262832 
-0.000886214 -0.000677668 0.000192285 7.00368e-05 0.000836621 -0.000347844 -0.00150023 -7.69646e-05 0.000288965 
-0.000736085 9.82003e-05 0.000318013 -0.000377345 2.89788e-06 1.0773e-06 1.13635e-06 5.11424e-06 1.60421e-06 
3.03176e-06 1.90732e-07 1.50195e-06 4.67461e-06 6.13193e-06 -1.04085e-06 -5.207e-07 4.67839e-06 1.39661e-06 
-1.59561e-06 8.4581e-06 1.81044e-06 -7.43529e-06 -3.18391e-06 1.02268e-06 -4.625e-06 1.3573e-05 -1.96141e-06 
1.99854e-06 2.76822e-06 3.29369e-06 2.6559e-06 -7.15597e-06 7.83789e-07 -4.45421e-06 -5.66555e-06 1.73706e-06 
-1.49537e-06 -9.71782e-06 9.25465e-07 -2.34781e-06 -7.88168e-06 -2.31845e-06 -6.86109e-06 -1.33256e-05 -0.000160542 
-7.4183e-05 -1.44769e-05 0.000125705 -3.51846e-06 2.33528e-06 7.90467e-08 0.000690026 -0.000398097 4.5148e-05 
7.78552e-05 0.000200809 -0.00011192 0.000145033 -5.66712e-06 1.98332e-05 5.8099e-06 1.49692e-05 1.44522e-05 
1.16258e-05 3.31792e-06 -3.69651e-06 -6.94718e-06 -4.16548e-07 1.09614e-05 3.12589e-06 6.0294e-06 1.78135e-06 
2.11085e-07 1.66967e-07 3.93493e-06 2.70543e-06 -3.46934e-06 -7.34896e-06 -8.77692e-06 -9.36654e-07 4.35471e-06 
-1.78594e-07 3.82135e-06 -4.14755e-06 3.2669e-07 -2.08011e-06 -4.83517e-07 -3.75875e-06 -4.88991e-06 -3.607e-06 
-4.09356e-06 -2.57212e-06 1.82978e-06 -1.09507e-06 2.99765e-07 -4.21849e-06 6.92544e-07 -3.19792e-06 1.51448e-06 
-4.56786e-06 -3.94057e-06 8.33826e-07 -2.3919e-06 1.88011e-06 -4.73018e-07 -4.14706e-06 1.56082e-06 1.6905e-06 
-1.53689e-06 2.07477e-06 6.36752e-07 -2.00078e-06 8.35249e-07 -2.84674e-06 -4.39029e-07 2.70641e-06 6.41261e-07 
-5.71856e-07 -9.24275e-07 -1.70776e-06 8.68723e-07 1.79697e-06 4.27767e-07 4.159e-06 -1.57634e-06 -2.00441e-06 
-7.16273e-08 -1.00018e-06 6.37478e-07 1.90721e-06 -3.81234e-07 -3.10331e-06 1.62727e-06 -5.06518e-07 -8.60888e-07 
0.000151496 3.66493e-05 -9.39086e-06 2.94661e-05 -2.58916e-05 2.20192e-06 1.32196e-05 -1.37313e-06 1.9569e-06 
-2.90698e-07 3.37609e-07 -2.70806e-06 3.54953e-05 0.000116295 -2.8398e-06 1.88038e-06 3.30743e-05 -7.01069e-06 
4.25478e-05 7.09676e-05 -3.60866e-05 7.44616e-05 -0.000137359 7.9802e-05 6.28653e-06 -0.000133453 -6.01784e-05 
7.12692e-05 -0.000159472 -2.9212e-06 4.81389e-05 -4.89852e-05 0.000158567 -5.52242e-05 4.82766e-05 -2.32305e-05 
-1.85493e-05 4.47836e-05 2.06199e-05 -0.000183499 0.000189736 8.15683e-06 -0.000164022 0.000136854 8.15494e-06 
-3.82527e-05 2.15929e-05 3.27552e-05 -7.45204e-05 4.51132e-05 2.15152e-06 -7.59684e-05 3.08474e-05 6.11213e-06 
-0.000163536 5.79075e-05 -3.17036e-05 -1.57857e-05 4.30695e-05 -4.13438e-05 8.96501e-06 2.37637e-05 4.84626e-06 
1.80379e-05 -5.00416e-05 4.40622e-05 -8.95121e-05 -3.885e-05 3.74414e-05 -0.000173242 -0.000127125 -0.00172412 
-0.000670338 -5.03719e-06 3.7458e-05 3.8271e-06 3.41233e-05 -0.000222249 1.78803e-05 -2.24174e-05 -0.000282883 
0.000267991 -1.09782e-05 5.69532e-06 0.000267018 9.40638e-05 -0.000627529 0.000611361 7.76138e-06 -6.39054e-06 
8.05192e-05 -2.8622e-05 0.000158033 -0.000343923 -2.20786e-05 2.81335e-06 -6.12543e-05 3.62149e-05 5.46152e-06 
9.45423e-05 3.53723e-05 -5.33746e-05 -5.55772e-05 -0.000176526 0.000164529 -0.000257111 -1.14416e-06 1.00327e-05 
1.36707e-05 3.70458e-05 -4.06897e-06 1.09156e-05 -5.97878e-05 -6.40634e-05 -0.000148985 -6.78902e-05 2.57141e-07 
-0.000148043 -8.60246e-05 7.84366e-05 7.63399e-05 0.000253663 0.000199923 3.41679e-06 5.60749e-07 -7.08022e-07 
1.01709e-06 0.000415991 -0.000518665 -0.000377415 6.83353e-05 7.64193e-05 1.2045e-05 0.000378735 -6.06687e-05 
1.11311e-05 1.50837e-07 -2.45477e-06 1.2534e-06 -7.21554e-07 0.000164785 9.05965e-05 0.000209786 0.000183017 
2.33419e-05 3.60182e-05 -2.87555e-06 1.20929e-05 -8.45262e-05 5.05691e-05 0.000600046 -0.000417249 3.0421e-05 
0.00020939 -3.38307e-05 -0.000142948 7.09998e-06 0.000232903 -2.34266e-05 1.30626e-05 3.76929e-06 -0.000170975 
0.000330477 3.31035e-05 -5.10352e-05 -0.000147373 -2.23663e-05 -6.26282e-05 3.51833e-05 7.54494e-05 1.15954e-05 
-0.000283238 2.34511e-05 9.38821e-06 8.68518e-05 -3.76668e-05 3.80907e-06 1.35831e-06 -1.61032e-07 8.98318e-07 
7.65669e-06 5.4147e-06 -2.65237e-06 -6.37664e-07 -5.10549e-06 -6.0733e-06 5.96759e-06 -4.03842e-06 1.07364e-05 
1.89481e-06 8.47309e-06 1.84464e-05 -1.48343e-05 -1.1777e-05 3.52344e-06 -8.98295e-06 -6.29834e-07 -2.33183e-05 
-1.56336e-05 -2.65695e-06 1.00707e-05 0.00031677 -0.000201717 -0.000515214 0.000245297 -5.84355e-05 3.38353e-05 
2.19034e-06 6.10359e-06 2.29868e-05 4.25543e-06 9.64564e-06 -7.74491e-06 -1.89165e-06 2.1096e-06 -2.31373e-06 
-7.66349e-07 3.48395e-06 -2.53365e-06 2.15992e-06 -1.18568e-06 9.57907e-07 3.89318e-06 -4.67046e-06 -4.73746e-07 
6.01108e-07 4.99297e-07 2.07256e-06 2.85456e-06 9.17251e-07 -3.7248e-06 -1.72093e-06 -1.90094e-06 -1.17186e-07 
2.70744e-06 -3.12688e-06 -7.16516e-07 -3.46741e-08 -2.11024e-07 1.07486e-06 7.13316e-07 -1.25171e-06 -2.62863e-06 
8.01117e-07 -3.54427e-06 9.60966e-07 -3.10506e-07 -4.17582e-06 2.52097e-06 1.51865e-06 -5.45196e-06 3.35655e-06 
3.29133e-06 -2.70832e-06 2.1229e-06 1.47534e-06 -3.0745e-06 3.24872e-06 -2.11557e-06 -1.28287e-06 1.414e-06 
2.82399e-06 -4.16736e-07 1.96569e-06 1.37501e-06 2.63385e-06 -1.53311e-06 -3.3619e-06 4.38426e-07 -1.78193e-06 
8.4763e-07 2.54817e-07 1.66127e-06 -3.47996e-06 2.6071e-06 -1.43885e-06 -4.2667e-06 -1.50508e-05 1.46403e-05 
-1.36138e-06 -0.000103451 2.74025e-05 -2.46299e-05 3.20535e-05 1.02489e-05 -4.21138e-05 4.98039e-05 0.000608552 
0.000162501 4.60332e-05 -4.63751e-05 -6.5414e-05 8.67658e-05 4.12638e-06 -5.51188e-06 1.44176e-05 2.23615e-05 
-2.88942e-05 -3.55193e-06 3.19975e-05 -1.69822e-05 3.5357e-05 -1.18677e-05 2.66773e-06 3.47268e-05 4.99846e-06 
1.21913e-06 5.31807e-05 7.69e-06 4.62363e-06 3.8739e-05 -2.1432e-06 -6.17323e-06 -5.31105e-06 -4.25577e-06 
-1.69521e-05 3.77294e-08 -7.71583e-06 1.67776e-05 -1.67332e-05 1.83675e-06 1.64337e-06 -3.46295e-05 5.21797e-06 
-1.58286e-05 4.73913e-05 5.11038e-05 -2.79527e-05 4.29138e-05 -3.60665e-06 -9.80383e-07 6.43223e-06 1.78183e-06 
5.9382e-06 4.78696e-06 -5.97106e-06 4.5988e-05 8.47573e-05 0.000355765 6.46279e-05 -3.49659e-05 1.24649e-05 
-1.48429e-05 1.41133e-05 9.16871e-06 -7.0526e-06 6.26929e-06 0.00016448 -0.000130894 7.50292e-05 -1.45468e-05 
-0.000383856 5.45888e-05 -8.14692e-05 -6.76466e-06 -3.05398e-05 2.87751e-05 -3.17122e-05 -0.000992059 -6.72491e-05 
1.37939e-05 -7.60882e-05 -0.000154791 7.72646e-05 3.22382e-05 -4.16765e-05 -0.000134748 3.85319e-05 2.30038e-06 
6.21157e-05 7.80381e-05 4.44083e-05 2.59945e-05 5.46061e-06 8.50034e-07 2.76216e-05 2.39979e-05 0.000230532 
0.000287959 6.04173e-05 0.000103761 3.84751e-06 7.47506e-05 0.000219179 2.11628e-06 -9.54449e-07 -2.88745e-06 
5.04361e-05 -1.84694e-05 5.92642e-08 -8.42083e-07 -6.70113e-05 5.5788e-05 -5.98725e-05 1.95211e-05 3.85717e-06 
3.7592e-06 -3.39024e-06 -2.43326e-06 -4.85673e-05 -5.13034e-06 -4.68479e-05 3.36346e-06 1.3191e-06 2.59353e-08 
-6.32899e-06 2.00389e-05 4.47269e-05 -2.36015e-05 -1.63758e-05 4.21338e-05 5.9128e-06 3.53343e-05 -2.76107e-05 
7.35269e-06 2.55767e-05 -2.11908e-06 7.14477e-05 8.98895e-06 -6.09545e-05 8.21056e-06 -2.9736e-05 4.28242e-05 
8.26478e-05 -2.55887e-06 -2.18217e-07 3.81394e-05 8.28655e-05 -4.08365e-05 -2.31764e-05 2.65152e-05 -1.95347e-05 
4.89829e-05 0.00012596 -4.83516e-05 8.01174e-06 -5.03201e-05 5.64242e-05 -1.49374e-05 6.68618e-06 2.29547e-06 
4.30157e-06 -1.42474e-05 4.14592e-06 -2.91382e-05 0.000126552 -6.40321e-05 -0.000128374 -3.27277e-05 -2.13637e-05 
1.86894e-05 -3.21929e-05 -1.9473e-05 -3.76479e-05 -3.32877e-06 -4.96537e-06 -4.56523e-06 -4.55345e-07 -5.14911e-06 
-2.69711e-06 9.57257e-08 -1.04192e-06 2.35694e-06 -3.29337e-06 -1.07789e-06 -2.0268e-06 9.11064e-07 2.4446e-06 
-1.0664e-06 -1.31965e-06 -1.90194e-06 -8.58656e-07 -4.86361e-07 2.57794e-07 1.70569e-07 -1.22079e-06 5.16215e-08 
-9.11403e-07 2.02202e-06 -1.38176e-06 -1.84136e-06 -1.19096e-07 -3.31588e-06 1.66567e-06 4.62113e-07 -1.26421e-05 
4.90857e-06 5.38374e-06 -4.44062e-06 3.96455e-06 -9.3929e-06 -2.19712e-06 -9.57865e-08 6.34372e-07 -4.98802e-06 
3.8101e-06 1.73903e-06 -9.44864e-07 3.02865e-06 1.05198e-06 2.85066e-06 3.31568e-07 1.54473e-06 2.12009e-06 
-1.16083e-06 -1.88415e-06 -7.57446e-07 3.04183e-06 7.20087e-07 1.87297e-06 2.42574e-06 -5.77961e-06 -1.6695e-05 
3.55213e-05 -5.11453e-06 -1.08191e-05 4.41728e-06 5.64367e-07 -5.6752e-07 6.99128e-07 7.01229e-06 5.49301e-05 
-3.39989e-05 9.59066e-05 -2.66783e-05 -3.57655e-05 -1.94842e-05 4.45395e-05 -1.84056e-06 -3.50785e-05 -3.03794e-06 
-3.94681e-05 1.04504e-05 4.71331e-05 3.07445e-05 -1.49749e-05 -2.47941e-05 -2.91114e-05 1.08571e-06 6.19273e-05 
-2.12776e-05 -7.72365e-06 5.28755e-05 1.7381e-05 1.0219e-05 7.32125e-05 1.2161e-05 -2.37026e-05 2.15492e-05 
1.82926e-05 -6.72979e-07 5.79105e-05 -1.5971e-05 3.63692e-05 -2.14788e-05 1.02377e-07 -1.03324e-05 3.94504e-05 
5.40671e-05 -6.59277e-06 6.93281e-06 -2.36799e-05 1.10708e-05 -1.67296e-05 1.71688e-05 3.39622e-05 -2.51579e-06 
2.38035e-05 1.16223e-05 9.0699e-06 -7.74716e-06 1.24744e-05 9.44908e-06 -2.21422e-05 -4.91395e-05 -1.23773e-05 
8.0429e-05 -3.10491e-05 -1.6824e-06 -3.11186e-05 2.38321e-05 -3.39622e-05 9.61651e-06 -6.12174e-05 9.90619e-05 
-1.8427e-05 2.66195e-06 1.29496e-05 2.36486e-05 3.07758e-05 2.78817e-05 2.57153e-05 6.46913e-06 4.04278e-06 
2.3983e-06 -2.20487e-05 1.50816e-05 4.41731e-05 2.37585e-05 1.96545e-05 -2.75144e-07 1.28414e-05 2.1373e-05 
7.88575e-06 6.65054e-06 1.07095e-05 -4.67731e-07 3.75177e-06 -4.17258e-05 3.36017e-06 4.75082e-05 3.70072e-05 
-8.98957e-07 4.06928e-06 -3.77814e-05 6.85686e-05 -1.34991e-05 -1.06678e-05 -2.20905e-05 -6.51252e-06 -1.48814e-06 
-8.78237e-05 -5.632e-06 -1.11745e-05 2.85439e-05 6.65872e-05 8.47399e-05 -2.30078e-05 -4.46788e-05 0.000221045 
8.29164e-06 7.65891e-06 -6.60028e-06 -5.0525e-07 1.44264e-06 -2.85499e-06 1.60672e-06 -2.51363e-06 2.32553e-06 
6.64603e-05 -8.71757e-05 -1.19642e-05 -1.68162e-05 -6.80094e-05 5.4672e-06 3.71857e-05 -2.73237e-05 3.55706e-05 
4.25176e-05 7.52736e-07 -1.03777e-05 -4.38034e-05 -2.80379e-06 7.34839e-06 4.58673e-05 7.58294e-05 -8.64052e-06 
1.63276e-05 2.57786e-05 -6.61168e-05 3.68195e-05 -5.53897e-05 1.07414e-05 -1.66519e-05 -1.28369e-05 -2.48271e-05 
-1.11661e-05 -4.78198e-05 -5.80337e-05 6.48267e-06 -3.60124e-05 1.71176e-05 -9.4694e-05 5.6171e-05 -1.04063e-05 
1.16269e-06 -1.45815e-07 1.22438e-06 5.17889e-06 5.12058e-06 3.14428e-06 2.90337e-07 -4.72557e-06 -1.59488e-06 
-2.73016e-06 -1.26121e-06 -2.56879e-06 -1.50103e-06 1.38758e-06 -2.52059e-06 -2.4395e-06 2.40489e-06 5.09279e-07 
6.67201e-06 -6.47226e-06 6.88372e-08 -3.65193e-06 -1.34439e-05 1.71609e-05 1.80015e-05 -2.37026e-06 6.38889e-06 
-9.00193e-06 -7.27361e-06 -1.14528e-05 -1.05916e-05 -3.48677e-06 8.11328e-06 1.22041e-05 9.00436e-06 3.31288e-06 
-2.2693e-06 1.41963e-05 -6.07983e-06 -1.36296e-05 2.62751e-06 -1.20397e-05 -1.68611e-05 -4.79591e-06 7.0898e-06 
-5.2484e-05 -2.21884e-05 -2.32586e-06 1.38029e-05 -2.19279e-05 6.52858e-07 -6.39946e-05 -1.85852e-05 -2.88987e-06 
-2.58475e-05 -2.42342e-05 5.46303e-05 -2.72809e-05 -2.17794e-05 -1.83015e-05 4.70007e-06 -2.03556e-05 -3.65624e-05 
-0.000114781 -7.09172e-05 3.31942e-05 -5.54531e-05 -5.02509e-05 6.73387e-05 -7.09124e-06 4.26346e-05 -2.40276e-05 
-4.64081e-05 -5.05063e-06 -1.12506e-05 -2.66283e-05 3.29684e-06 -2.6082e-05 1.86674e-05 1.92628e-06 -5.30974e-05 
-9.15992e-06 -5.25207e-06 3.90755e-05 1.52522e-05 -3.0419e-05 2.71146e-05 -1.03318e-06 4.86746e-05 -1.59898e-05 
-1.47541e-06 -2.09954e-06 3.88327e-07 -4.85146e-06 2.41534e-06 3.80229e-05 -2.47944e-05 3.18866e-05 7.69536e-06 
-2.32942e-05 4.74485e-05 2.75456e-06 -1.14013e-05 -5.72367e-05 8.34085e-06 -1.20365e-05 1.1773e-05 -3.99427e-05 
7.54696e-05 -1.73707e-05 4.00751e-06 8.12757e-06 -1.95865e-05 1.44159e-05 -9.47162e-05 3.18169e-06 -4.297e-05 
-3.82185e-05 2.34196e-06 -9.29889e-06 -5.57957e-06 1.21504e-06 -5.51252e-06 7.24452e-06 2.2754e-06 -5.45199e-06 
4.52294e-05 -7.84771e-06 3.93266e-05 -5.34213e-06 -1.6139e-06 1.23419e-05 2.48349e-05 -1.58418e-06 -4.58175e-06 
1.42012e-05 -5.54606e-05 8.83074e-06 9.64419e-06 9.77954e-06 3.44319e-05 -1.44818e-05 5.00906e-06 -5.14645e-06 
-1.74645e-06 1.73252e-06 -2.28417e-05 1.28819e-05 1.8433e-05 1.29695e-05 1.9249e-05 -9.81893e-05 5.63979e-05 
-3.64716e-06 -1.47736e-05 -9.23797e-06 1.78147e-06 2.49838e-05 -2.8288e-05 8.05193e-06 -2.52657e-05 4.22345e-05 
-1.37297e-06 1.75267e-06 1.51105e-06 -1.0583e-06 1.11797e-05 -9.66109e-06 -8.06054e-06 -2.81471e-05 1.53948e-05 
-1.12913e-06 2.36926e-05 -2.41455e-05 3.10065e-05 -1.91402e-06 4.19516e-05 8.6733e-06 -4.02549e-05 3.63704e-06 
-2.28117e-05 -7.8324e-06 5.5062e-06 -2.75499e-05 2.06865e-05 3.8967e-06 -9.87072e-05 -3.03926e-06 1.14866e-05 
-1.75006e-05 3.76937e-05 -8.61285e-05 -0.00010987 1.83088e-06 2.05048e-05 2.47514e-05 4.4267e-05 1.35035e-05 
-1.39673e-05 -2.24916e-05 3.18824e-05 1.27388e-05 -2.11145e-05 -7.89795e-05 2.67055e-05 -4.49773e-05 -4.37074e-05 
9.17558e-06 -2.11164e-06 -8.04784e-06 -1.82346e-07 8.58439e-05 1.47415e-06 7.10305e-05 -4.02974e-05 1.16437e-06 
-3.52335e-06 -9.83619e-06 9.40021e-06 7.53099e-06 -3.86813e-06 -2.29622e-05 -4.34323e-05 -1.51334e-05 4.97541e-05 
0.000129264 -6.87861e-05 -1.37357e-05 -9.74736e-07 1.8526e-05 3.85514e-05 1.34322e-05 2.08683e-05 2.08807e-05 
1.22299e-05 -1.21232e-05 -1.31078e-05 -2.35316e-06 5.22842e-05 1.35537e-06 -5.3548e-06 -1.79889e-05 2.91104e-05 
2.77953e-05 -1.54888e-05 0.000100184 3.22515e-06 0.000179552 -8.34257e-05 1.4204e-05 2.27419e-05 1.80859e-05 
1.20609e-05 2.02651e-05 -6.54987e-06 1.6203e-05 -1.68938e-06 -1.55477e-05 -7.47232e-06 1.48452e-06 -3.01287e-06 
5.92031e-05 -0.000111871 -8.98045e-06 -1.27904e-06 -6.37444e-06 2.53022e-05 7.10905e-06 -1.05952e-05 1.88123e-05 
-6.38805e-07 3.63382e-05 -1.33172e-07 -5.66138e-06 -3.26864e-06 2.09972e-05 -2.36654e-05 1.4137e-05 -5.30312e-05 
-5.55979e-06 6.17688e-06 9.1972e-06 7.69471e-06 -1.59683e-06 1.19695e-05 8.90141e-06 6.1098e-06 -2.33459e-05 
2.69335e-05 9.27992e-06 -2.06465e-07 8.3626e-06 -5.20397e-06 9.13862e-07 3.12995e-06 -3.10957e-06 -9.54518e-06 
-0.0001376 -3.7902e-05 2.13721e-05 1.67622e-05 -2.4621e-05 3.83907e-05 -7.27757e-06 -1.54109e-05 4.27919e-06 
7.05089e-05 -1.92923e-05 -1.76979e-06 -2.16585e-05 7.69489e-06 1.04764e-05 -1.00953e-05 -5.26263e-05 9.53889e-06 
4.16423e-06 -1.95632e-05 1.08525e-05 2.33846e-05 4.94552e-07 -8.52294e-05 -1.29416e-05 1.60633e-05 -6.3444e-06 
-9.43377e-06 0.00338375 -6.2961e-06 -5.97068e-06 -1.48017e-05 -6.40768e-06 -3.70209e-06 1.12407e-06 -3.34321e-05 
0.000175914 -2.21047e-05 -2.52971e-05 -9.29717e-06 1.78248e-05 -3.98886e-06 5.41424e-05 -2.74339e-05 2.07365e-05 
-3.15057e-06 -1.49573e-05 -6.94981e-06 -3.87874e-06 -5.80671e-06 5.3025e-06 -3.11289e-05 -1.35034e-05 1.11959e-05 
-6.92376e-06 -5.51434e-06 -1.35215e-06 -1.21585e-06 5.06295e-06 -7.59279e-06 2.16422e-05 -2.44719e-05 2.10651e-06 
3.04405e-06 5.72799e-07 0.0106249 -0.00658679 -4.60263e-06 5.94732e-07 1.26464e-05 -7.16934e-06 2.47668e-05 
-1.71521e-05 2.81267e-05 -2.29317e-05 6.155e-06 -4.25589e-06 -6.34996e-05 -0.000116527 3.96702e-05 5.70582e-05 
1.4797e-05 -9.46776e-05 4.56633e-05 -0.000106404 -0.000111644 -0.000216356 3.05119e-05 0.000153173 -3.97713e-05 
-0.000171653 0.00407183 -2.66735e-05 -7.40728e-05 -7.46606e-05 -0.000161493 0.000154076 -0.000135883 -4.49082e-05 
-3.62848e-05 0.000110163 -0.000122518 1.88315e-05 -9.8251e-05 -3.61885e-05 9.58762e-05 0.000122836 8.42231e-05 
-4.01207e-05 -4.4805e-05 5.36447e-05 -0.000126505 9.64374e-05 -5.31759e-05 0.001036 8.2162e-07 2.68011e-06 
-0.0172641 0.0088768 -0.00127218 -0.000925589 -0.000347813 -0.000170951 -8.49074e-05 -2.37818e-05 -6.9128e-05 
-1.40227e-05 -7.1596e-05 6.9607e-06 -5.15267e-05 1.97404e-05 -3.55149e-05 2.59965e-05 -1.6516e-05 -2.27775e-06 
-1.99157e-05 -1.06811e-06 -2.46916e-05 1.62321e-05 -1.91198e-05 1.84726e-05 -3.02979e-06 -4.41422e-06 -5.96113e-06 
7.5748e-06 -1.03047e-05 1.47439e-05 -6.97563e-06 1.59207e-05 -1.33427e-06 5.20702e-06 -3.63933e-06 7.19072e-06 
-1.70823e-06 7.5836e-06 -6.93776e-07 6.00485e-06 2.6795e-06 -4.4487e-06 8.08481e-06 4.08491e-06 7.10906e-06 
-1.87629e-06 3.99132e-07 -7.05656e-07 3.69586e-06 -4.17202e-06 2.40804e-06 -6.11448e-06 -1.86544e-06 2.71317e-06 
-6.25e-06 -3.24625e-06 -1.76413e-06 -1.03184e-06 3.09805e-08 -2.84395e-07 -9.55845e-07 1.30371e-06 5.54694e-07 
2.01402e-06 1.07562e-06 2.46613e-06 -4.52833e-06 2.00124e-07 3.84787e-06 -6.69451e-06 -2.44847e-06 -1.42888e-06 
-9.21525e-05 -3.42199e-06 6.91159e-06 9.68058e-06 1.0596e-05 4.26841e-06 -3.27748e-06 -1.93255e-06 -1.44283e-05 
-2.37992e-05 -5.00805e-06 3.55251e-06 1.52459e-06 1.62253e-06 4.27721e-06 4.73685e-06 5.07576e-06 6.0908e-06 
6.34249e-06 1.24049e-05 3.13213e-06 3.51184e-06 4.71918e-06 7.09599e-06 1.50959e-05 1.64171e-05 2.00672e-05 
2.00302e-05 7.8333e-06 8.20451e-06 8.24892e-06 9.44054e-06 2.47812e-05 1.1348e-05 1.72326e-05 -1.86641e-06 
1.01056e-05 6.90336e-06 6.62618e-06 4.27331e-06 -5.41726e-06 -9.89423e-06 -1.05885e-05 -1.373e-05 3.18452e-06 
3.0683e-06 3.28639e-06 4.25327e-06 -5.51309e-06 2.38649e-05 3.20796e-05 1.38998e-05 5.04353e-06 1.8673e-06 
1.82084e-05 7.28541e-06 -1.02834e-05 -0.00511232 0.00053636 0.000135622 -0.000724127 -9.70621e-05 -0.000481794 
-0.000128514 -0.00023324 -0.000329215 -0.000251345 -0.000463284 6.82068e-05 9.27661e-05 0.000114351 -0.000287468 
-8.84774e-05 2.87195e-06 0.00012602 -5.91165e-05 -0.000465019 -0.000496284 0.00019655 0.00343635 0.00578241 
0.000606843 0.000889597 0.000325345 0.00056311 0.000221119 0.000242546 0.000382262 0.000251838 -9.90445e-05 
0.000206287 0.000111522 -0.000727916 0.000334155 -0.000175277 0.000108315 0.000279611 -0.000279786 0.000138726 
-0.000469065 -0.00178779 -0.000203951 -0.00400254 -0.00269799 -0.000627387 0.00230309 0.00329609 -0.001785 
-0.000741436 -0.00134119 -4.70092e-06 -0.000852213 0.00106311 -0.000481439 0.00144599 -0.00131972 0.00163062 
0.00533745 0.00463608 0.00141797 -0.0037182 -0.000424845 -0.00242547 -0.00383862 -0.00410551 -0.000938801 
0.00117681 -0.00153209 -0.00146323 -0.00156481 -1.686e-06 -1.19599e-06 5.45234e-07 -1.7542e-07 -0.00132485 
-0.00135768 -0.00106948 0.000704342 0.000901721 0.00573619 0.000364874 0.000779109 -0.00108535 3.15263e-05 
2.59548e-05 6.9432e-07 0.00367523 0.00091793 0.00219093 0.000847649 0.00244646 -0.00194066 -0.00178851 
0.00275599 0.00375468 8.97342e-05 -0.000107318 -9.29077e-06 6.78947e-05 -0.000555073 0.000452914 0.00185185 
0.0090612 -0.00148714 -0.0110372 -0.000544146 -0.000928559 0.00582368 2.54059e-05 -2.84011e-05 4.59844e-05 
3.66023e-05 0.000129134 -4.05376e-05 -4.65901e-05 0.000206109 0.000121958 -0.000146732 9.63634e-05 0.000143999 
-2.53904e-05 0.000112335 -0.000126866 -1.54182e-06 5.56626e-06 1.25528e-06 -7.1106e-06 -2.39669e-05 5.41539e-06 
1.59911e-05 9.1529e-06 -1.76149e-05 -5.54817e-05 9.75254e-05 4.12699e-05 -4.73337e-05 1.76846e-05 1.20703e-05 
-4.83091e-06 -4.38241e-06 7.14769e-06 1.37087e-05 -2.65396e-05 1.74978e-06 3.02265e-06 4.55702e-07 4.32608e-07 
1.05687e-05 1.13487e-05 -1.95341e-05 -3.2512e-05 -2.39592e-05 -2.01326e-06 1.47769e-06 -2.18882e-07 -7.00391e-05 
-8.60785e-05 -3.78478e-06 3.06508e-06 2.22911e-06 6.76889e-06 -0.000812774 -0.000633859 0.000521327 0.00852612 
-1.60059e-05 6.71498e-06 -1.598e-05 2.5473e-06 -7.69858e-06 -1.1561e-05 0.000538651 0.00111487 -1.22809e-05 
-0.00084283 0.000690313 -0.00871376 0.00268427 1.09216e-06 2.58619e-06 5.91475e-06 -1.22424e-05 1.27609e-05 
1.73978e-05 -2.8715e-06 -4.31241e-06 5.67482e-06 8.16783e-06 0.000116665 -0.000116046 2.98554e-05 -0.000104017 
-4.52804e-06 -1.37863e-06 -6.47375e-06 6.13506e-06 6.42419e-06 -2.93112e-05 0.000456054 -9.30544e-05 -0.00473239 
3.12872e-06 -3.2759e-06 -3.29464e-05 -4.01658e-05 3.1583e-05 -1.58194e-05 0.000738484 -2.22546e-06 2.95226e-06 
-3.48559e-06 2.42976e-07 1.44697e-06 -1.38737e-06 0.000176409 -6.96904e-05 0.000151802 5.03843e-05 -1.01903e-06 
-1.94272e-06 -1.02899e-06 7.04338e-07 7.11002e-06 7.15175e-07 -1.50737e-06 5.10703e-07 1.07151e-05 0.000126021 
-9.77236e-05 -4.96824e-05 2.88259e-06 2.79042e-06 -1.61838e-06 -1.92602e-06 3.68957e-06 -9.40503e-06 6.31609e-06 
-4.61811e-06 4.14606e-06 8.82401e-06 6.06337e-06 -2.35103e-06 -3.32515e-06 -3.18831e-09 -3.31521e-06 -1.72573e-07 
-1.07766e-06 5.7772e-07 -6.44846e-07 -0.000132379 0.000199131 -0.000274965 -7.85815e-05 0.00030855 0.000962342 
0.00379693 5.67067e-06 -1.04301e-05 5.43976e-06 0.00239222 0.00365222 -0.0033443 0.000563185 7.86181e-07 
-3.67795e-07 -1.64718e-06 5.07649e-06 1.14632e-05 2.29494e-06 -3.72506e-06 -4.72656e-05 -3.43855e-05 -4.4049e-05 
3.38418e-05 -5.5816e-06 -1.76914e-05 3.59397e-06 -2.59851e-06 0.00687495 1.79287e-06 -8.30921e-06 -3.73239e-06 
-7.48587e-07 3.15121e-06 7.68975e-06 -2.20389e-06 1.89777e-06 0.00101204 0.000318633 -0.00319685 -0.00148388 
-1.76899e-06 1.44485e-06 -4.69498e-06 2.97872e-06 -2.37697e-06 1.33796e-06 4.26954e-06 -0.000868419 -2.87749e-06 
1.25185e-05 -4.40469e-05 8.26467e-06 -9.24407e-06 3.67731e-06 -0.000100858 4.92256e-05 -0.000162886 3.75713e-06 
3.87343e-06 -1.89509e-06 -0.00576102 -0.00889375 0.00483606 1.16018e-06 5.03778e-07 2.63089e-07 6.45872e-07 
-8.44156e-06 4.00849e-06 -0.000872608 4.78246e-05 -0.00724093 0.000588988 0.000138025 8.53601e-07 -1.52715e-06 
2.34396e-06 -3.73307e-07 6.23524e-06 6.32174e-06 9.83258e-07 -2.59103e-06 4.09927e-06 9.56476e-06 -6.27491e-06 
4.68471e-09 5.23671e-06 5.80841e-06 -0.000194292 -0.000548348 0.00893114 2.9588e-06 1.70348e-06 2.73484e-06 
2.36012e-07 -4.7802e-06 -5.27078e-06 -2.98692e-06 -9.73615e-07 5.2336e-06 1.11136e-05 9.46758e-06 -1.18451e-05 
-1.80994e-05 -5.80884e-06 2.56884e-05 3.77889e-05 0.000304117 -0.000228149 1.27693e-05 -4.07481e-05 -9.88449e-06 
-1.39811e-05 -5.96666e-06 4.1872e-05 8.19687e-06 -2.40947e-05 -3.43091e-06 2.72067e-05 -0.00255257 -0.00780778 
4.23158e-05 3.08429e-05 0.000144285 0.000357993 -0.000241911 0.000163077 -1.07357e-06 -3.19984e-06 -3.04214e-05 
-4.81656e-06 6.27066e-07 -4.49417e-06 -5.7544e-06 -2.82633e-05 -8.20989e-06 -1.22664e-05 -4.68361e-06 -8.6886e-06 
0.00016868 -6.18228e-05 -6.95123e-05 9.92909e-05 5.00466e-06 -1.02507e-05 -3.96695e-07 -9.93278e-07 -8.12762e-07 
7.85463e-07 -7.02602e-05 -2.16078e-05 4.79961e-05 -1.21064e-05 -1.43029e-05 -0.00451335 0.000983486 -0.000179664 
-0.00168792 -2.49169e-06 -8.35933e-06 -9.96788e-06 -1.53139e-07 5.48358e-07 1.1752e-07 3.28472e-07 9.34576e-07 
1.16565e-06 0.000172437 0.000185927 0.000476423 -3.77639e-08 1.15906e-06 -9.18092e-05 0.000286002 -0.000382292 
0.00129393 -0.00124645 -0.00133003 -4.40099e-06 -1.81668e-06 -1.53528e-05 0.000804194 -0.00525297 -0.00155279 
0.00866543 -0.000502774 -0.00706395 -1.83171e-05 -1.62801e-05 -1.97432e-05 6.01427e-06 -0.00024561 -9.28318e-05 
-7.4224e-07 -6.17844e-05 0.000180458 0.000185565 -9.42604e-07 1.64007e-06 -2.01406e-06 -5.94501e-07 7.24466e-06 
0.000203184 6.1342e-05 2.58326e-06 -2.47881e-07 2.00239e-06 4.881e-07 -1.87463e-06 -1.79332e-06 1.82078e-06 
-2.91373e-06 -1.22902e-06 -5.15368e-06 5.70154e-06 -1.40165e-05 -6.95341e-06 4.31766e-05 6.49418e-06 -6.58813e-06 
-9.70227e-06 -9.87935e-06 3.43859e-05 0.000162255 -8.24083e-06 4.28568e-06 4.04126e-06 4.02763e-05 0.000243105 
0.000110852 2.57479e-05 8.22324e-05 -1.12253e-05 6.33597e-06 0.00159714 1.11698e-05 -3.98104e-06 -1.92102e-05 
2.70745e-05 -1.82831e-05 1.55763e-05 1.42633e-06 -2.81904e-06 1.08821e-07 -2.67048e-06 -3.9104e-05 3.79655e-05 
-9.29675e-05 -7.51686e-07 -2.89331e-07 0.00990572 -0.00952268 -0.00150592 0.0014186 0.000587362 -0.0026276 
-1.1892e-06 6.23193e-07 6.76381e-06 -1.45387e-07 -1.37327e-05 3.30216e-06 0.00456237 -0.00134863 -0.00336699 
0.00698237 0.000292736 -0.000114314 -0.000196707 0.000494892 0.000398344 -9.33926e-07 9.09627e-07 1.69711e-06 
1.92951e-06 -8.06629e-06 -2.2499e-06 -3.07218e-07 -0.00104112 -0.00115283 -0.00358007 -2.77379e-07 -2.16775e-07 
-3.62351e-06 -2.53264e-06 -1.44995e-05 4.99616e-06 4.07541e-06 1.06583e-06 -8.88973e-07 -8.78101e-09 1.07601e-05 
-1.0579e-05 -4.61568e-06 -7.70445e-06 2.72386e-06 -4.92831e-05 -0.000103108 -0.000131239 0.000333562 -0.000205515 
1.65333e-06 -1.19108e-06 2.94269e-06 -2.95377e-07 -0.0011957 0.000536627 0.00533618 1.7027e-06 8.44187e-07 
2.95934e-06 7.23087e-06 1.27188e-06 -7.1938e-06 -8.12042e-06 3.9191e-06 -1.40633e-05 1.49728e-05 0.00709237 
0.00125045 -0.0094853 0.00487243 -0.000811646 4.97661e-06 -4.21404e-05 -1.48964e-06 -1.25946e-05 0.0082349 
-0.00663247 -0.000204625 4.22665e-06 -3.00597e-06 4.46927e-06 3.58893e-06 -1.33137e-05 -2.58387e-06 -1.71934e-05 
-6.33861e-05 1.36784e-05 5.51274e-05 -0.000718428 -0.000212528 -0.00132151 -0.00465508 0.0001027 0.000601846 
-0.00021826 -0.00578771 0.00435971 2.03959e-05 0.0045077 0.000763636 3.00424e-05 0.000178946 8.44843e-06 
-1.31223e-05 2.35672e-06 2.08038e-05 -2.92562e-06 -8.05829e-07 0.000192059 1.29842e-05 -1.09782e-06 -5.28249e-05 
0.000164942 -0.000171177 8.83954e-06 -3.6426e-06 7.23325e-06 -3.63678e-06 -6.4883e-06 2.97582e-05 -0.000180074 
4.17078e-07 -2.65595e-07 -1.06475e-06 0.000130462 -4.6167e-05 -9.23318e-05 -7.55348e-06 4.4388e-06 -7.60072e-06 
2.87916e-06 -7.10034e-06 -8.58742e-06 -0.000170711 -0.000128434 0.000678847 -0.00891925 5.17979e-06 1.28221e-05 
-2.85334e-06 -1.42662e-05 -5.59192e-06 -7.19248e-06 1.77345e-07 1.80852e-06 -9.74851e-07 5.05075e-06 1.83795e-06 
6.05811e-07 -5.44341e-06 8.67938e-06 7.36678e-05 -0.00011075 0.00243672 3.95022e-05 1.08262e-05 -3.1396e-06 
5.9813e-07 7.16772e-06 -1.28067e-06 2.36309e-06 1.14181e-06 -8.88164e-07 1.61538e-06 -3.55196e-06 8.97765e-07 
7.0552e-07 5.82932e-06 -8.78109e-06 1.88494e-05 1.66485e-05 4.91723e-05 -5.22355e-06 -4.55587e-06 1.79252e-06 
-1.33903e-05 -1.74166e-07 -9.36337e-06 -8.17248e-07 2.07296e-06 9.67185e-07 1.45152e-06 6.94418e-06 -2.36023e-06 
-0.0119578 -0.01142 4.05213e-05 -3.4844e-05 0.000132639 8.65171e-05 -1.51315e-07 1.36305e-06 1.91587e-07 
-2.93436e-07 -0.00141585 0.00027365 0.000462817 -5.95737e-06 3.33279e-06 -6.12793e-07 0.000261107 -1.73157e-05 
1.76738e-05 1.14525e-05 8.38613e-07 3.62671e-06 1.07586e-05 -7.35043e-05 2.88316e-05 6.66301e-05 -0.000133016 
-0.000350769 -2.94869e-05 -2.84962e-05 0.000103929 4.40377e-05 -1.6118e-05 -1.39261e-06 -2.35343e-06 5.98236e-05 
-1.38419e-05 -5.58385e-05 0.000187319 0.00678827 -0.00793371 1.76218e-07 1.80498e-06 1.55141e-07 -1.22237e-05 
-1.22123e-05 7.39534e-06 1.44786e-05 -4.62795e-06 1.86418e-06 -7.86808e-06 3.40452e-06 -0.000221577 -7.06685e-05 
-0.000151065 3.96083e-05 4.45858e-05 -4.89523e-06 1.64827e-05 -5.94553e-08 -1.39122e-05 1.94943e-06 -5.07141e-06 
-3.24684e-06 3.79095e-06 2.73624e-06 5.95918e-06 0.000169523 3.53828e-05 2.17205e-06 -6.52829e-06 7.64734e-06 
-2.34913e-06 7.60319e-07 -4.59342e-07 1.37279e-06 -3.51735e-05 -9.90844e-05 0.000220936 0.000479206 -0.000744523 
0.000584799 -2.30648e-06 1.63308e-06 -3.11154e-05 1.28531e-05 -4.64311e-05 -8.97448e-06 -4.04078e-05 -8.3978e-07 
-7.99008e-06 -6.49975e-06 -4.4024e-05 -2.32626e-05 3.34883e-05 3.2839e-05 -0.000112636 8.69577e-05 2.91906e-06 
-1.80377e-05 0.000205488 2.93854e-05 0.000151393 0.000189796 3.78825e-05 4.02441e-05 -1.73693e-05 1.37272e-06 
-8.95488e-06 4.32469e-05 -2.42702e-05 -0.000224666 0.00437656 -0.000130025 -3.71067e-05 1.67315e-05 1.10353e-05 
-3.93649e-06 -6.56689e-06 -2.27016e-05 -4.52731e-05 5.77519e-06 0.000166414 -0.0100929 -0.00780813 0.00173929 
-0.00153752 -0.000112188 0.000262201 -9.29358e-05 -9.99589e-05 -2.11386e-05 7.39618e-05 -6.43931e-06 1.59219e-05 
3.38509e-06 2.29032e-06 3.5203e-06 -3.57876e-06 -4.1693e-06 4.93984e-06 -3.35317e-06 8.25248e-07 -7.99255e-06 
2.99433e-05 0.00793536 -0.006135 -9.71262e-06 -4.3095e-06 -2.99952e-05 -0.000205507 -7.97578e-05 0.000376774 
-0.00330734 0.00170312 -0.00516094 5.90762e-06 -1.20909e-07 -0.000486294 0.000112095 0.000137349 0.000174047 
-0.000141851 -0.000117123 4.92105e-05 -1.23572e-07 -2.07648e-06 -1.59389e-06 -3.88289e-05 -4.08335e-05 -3.15425e-06 
3.72077e-06 1.79733e-06 -0.00020276 -0.000231795 0.00110083 5.31592e-05 0.000130235 -0.000274669 -4.23714e-06 
1.99933e-06 -1.60713e-05 -1.1471e-05 4.94698e-06 3.13867e-06 4.95313e-06 4.21615e-07 -0.00903553 -0.000237864 
-0.0112892 -0.0075141 -0.000314738 0.000414553 9.8761e-06 -8.97775e-06 2.37045e-05 5.56114e-05 -0.00285303 
0.00399514 0.000216393 1.70893e-05 0.000205186 -0.00011977 1.39371e-06 6.70776e-06 5.174e-06 -6.6256e-06 
-2.46783e-07 1.11326e-05 -5.21366e-06 4.90889e-06 7.17936e-06 3.07771e-05 0.000253276 0.000139515 -5.4852e-07 
2.86756e-06 -1.884e-06 1.86394e-07 9.2893e-06 1.72426e-06 -5.24561e-07 -3.67842e-06 -9.26772e-05 -6.61516e-05 
0.000123298 4.69412e-07 -3.73112e-06 -0.000137079 0.000240479 -9.25425e-05 0.00718427 0.00501652 5.02321e-06 
-2.31703e-05 -7.71123e-07 -0.00012171 7.94733e-05 9.27224e-05 -0.0074043 -1.45315e-05 6.84758e-06 -1.04298e-05 
2.19856e-07 4.97822e-07 -3.1267e-06 -5.38547e-06 2.53766e-06 7.93962e-07 7.05785e-06 -7.75211e-05 -5.55944e-06 
9.9359e-07 -5.11472e-06 0.000153682 -8.77556e-06 -7.28281e-07 5.89839e-06 6.06345e-05 4.5853e-05 -6.08898e-07 
2.05911e-06 1.90924e-06 -4.35087e-05 0.000194604 -6.46459e-05 -4.05773e-05 -0.000697364 8.47474e-05 -2.75525e-06 
-7.51034e-06 1.3266e-06 -5.6178e-08 -2.96584e-05 -0.000217522 -1.94631e-05 -2.19516e-05 1.36131e-05 1.33055e-05 
-6.48223e-06 -6.12676e-06 -2.10812e-05 9.40542e-05 4.54997e-07 7.54928e-07 1.92244e-05 -4.22096e-05 -3.48908e-05 
-0.00125621 2.398e-05 7.42562e-05 8.10621e-05 -1.65672e-05 9.08461e-05 2.24302e-05 -2.82737e-05 2.55085e-05 
-7.86834e-08 -3.57228e-07 1.90465e-05 -3.80748e-06 1.19215e-05 -2.24138e-05 -0.00010244 3.92599e-05 -1.05916e-05 
-1.77598e-06 5.69649e-06 -1.49079e-05 2.24945e-05 -7.38876e-05 -3.20142e-07 5.73536e-05 0.000119538 4.34865e-05 
1.19582e-06 7.17428e-06 -3.61965e-06 3.74296e-05 3.024e-05 -0.000124988 -0.000996772 3.10507e-05 4.60321e-05 
-3.32131e-05 3.88288e-06 7.17739e-06 4.8181e-06 -3.21689e-06 -0.000172474 -9.61024e-05 8.66385e-05 0.00041353 
-2.62011e-05 -2.03009e-06 -2.78356e-06 -4.57269e-05 -0.000269932 -8.69157e-06 -5.15026e-05 0.000644948 0.00897956 
-9.76384e-06 9.67038e-05 2.63918e-05 -0.000137342 -2.79877e-05 0.00269982 6.80084e-06 -6.01649e-06 -2.04152e-05 
1.19712e-05 0.000144989 -1.84528e-05 2.03917e-06 -1.52899e-05 1.38845e-05 0.00262521 0.000599221 -0.00143011 
0.000402153 0.000658181 9.8282e-05 -6.9786e-05 -6.72924e-05 2.93429e-06 1.39452e-05 -2.1653e-05 2.61785e-05 
-0.00143439 0.00573711 0.0027815 -3.70713e-05 -0.0105162 0.00116446 -4.72478e-05 6.59117e-06 -5.43363e-05 
-3.60571e-05 -0.000140031 -1.48897e-07 -1.01335e-06 4.61516e-06 -7.35043e-06 3.42606e-06 3.05267e-05 -3.87014e-05 
1.97936e-06 -0.00496204 2.85145e-06 -5.92389e-06 -1.41913e-06 8.06689e-06 -6.91807e-06 -5.82138e-06 5.15991e-06 
-1.31549e-06 3.38287e-06 -2.34179e-05 3.62443e-05 2.95308e-06 -6.75755e-06 -6.98017e-06 0.00176421 0.00192656 
-0.0018484 3.58951e-06 -6.86641e-07 1.05915e-05 3.41581e-06 2.07459e-07 -9.36853e-06 -2.36512e-06 -8.08279e-06 
3.93368e-06 6.909e-06 -0.00567069 1.82371e-06 -6.6312e-06 1.3302e-05 -1.26306e-05 7.36995e-06 5.52984e-06 
-1.83178e-06 1.65278e-05 5.17633e-06 -5.00987e-05 -3.84559e-05 1.06176e-05 2.34486e-05 -2.94309e-06 9.09966e-06 
4.60696e-06 -5.46163e-06 -5.27755e-06 -8.95971e-06 -4.42632e-06 5.20402e-05 -8.71478e-07 -7.95322e-06 -1.68756e-05 
-1.95871e-05 2.04033e-05 -3.06843e-06 2.95842e-07 1.66466e-05 -4.0898e-05 -9.11712e-06 -0.00804404 0.00444922 
0.00367506 3.99554e-05 7.9121e-06 2.18707e-05 2.23035e-05 3.28446e-05 -9.99264e-06 1.37951e-06 2.16124e-06 
-8.465e-07 -1.48387e-05 7.82665e-06 -1.22385e-05 1.15484e-05 -7.94252e-07 -1.88151e-06 3.21802e-08 1.18942e-06 
1.39298e-06 3.13351e-06 -1.02377e-06 -1.52833e-06 3.29382e-06 -1.55905e-05 -1.14862e-05 -1.21562e-05 3.48326e-06 
6.49648e-05 3.67417e-05 -4.93013e-05 5.4331e-06 8.58355e-06 -1.56004e-05 -1.12232e-05 6.52711e-06 -1.90597e-05 
7.75232e-06 2.43775e-06 2.27243e-06 -3.37143e-09 3.70736e-06 -3.95301e-06 2.58054e-05 6.69585e-05 9.53046e-05 
-2.91391e-05 4.68112e-05 2.44421e-05 -7.90292e-05 -8.86028e-07 -3.48691e-06 1.9732e-06 -1.34276e-06 3.33444e-07 
-7.90376e-06 -2.03981e-06 -9.74884e-07 -2.75016e-05 2.39568e-05 8.19244e-06 -2.85564e-07 2.17694e-06 3.74363e-07 
-0.000465922 0.0008103 -0.000207947 -0.000114104 4.21608e-06 -1.63359e-05 5.59584e-06 4.45727e-06 -1.64117e-05 
5.15209e-05 -2.89324e-05 1.86255e-05 6.36549e-06 4.68093e-06 -1.05844e-05 1.00733e-05 6.97572e-05 4.0427e-05 
-4.53886e-05 -1.34279e-05 2.418e-05 1.08139e-05 -8.24508e-05 3.86553e-05 -3.60171e-05 1.19845e-05 -3.38589e-06 
5.86279e-06 -2.0999e-05 2.12929e-05 -1.66349e-06 6.62927e-05 5.55422e-06 1.17097e-05 -5.00198e-05 1.00233e-07 
2.54946e-07 9.97618e-07 -1.75825e-07 -1.18686e-05 3.94714e-05 5.52125e-05 -1.97648e-05 -2.11197e-05 -7.56445e-05 
-9.84781e-06 4.55622e-05 3.86411e-05 -1.06631e-05 0.000370453 -4.10572e-05 -5.96488e-05 -2.12158e-06 -5.62901e-07 
-1.82244e-05 1.62282e-05 1.91399e-05 8.34347e-06 -6.47376e-05 3.31353e-07 1.94548e-05 1.7435e-05 1.17536e-06 
-8.21594e-07 -2.24449e-05 2.91876e-06 -7.09874e-06 -9.20905e-06 2.80329e-05 -1.99721e-05 9.28941e-06 1.98463e-06 
-1.84874e-06 1.58921e-06 0.000230585 2.94578e-05 0.00143774 0.000250896 2.7826e-06 -2.66651e-06 8.56496e-05 
6.77044e-05 -8.74496e-06 2.58283e-07 6.27965e-06 -1.07594e-05 -1.59185e-06 3.9451e-06 3.78616e-07 -7.87559e-06 
-3.21058e-06 7.26639e-06 -3.08129e-06 -4.86976e-08 3.67178e-07 -5.15422e-07 -8.331e-07 -3.20088e-06 5.19995e-07 
-3.75785e-06 2.45869e-06 -1.78018e-07 0.000450971 -0.000595149 -0.000711986 1.09242e-06 1.24825e-07 2.97944e-05 
5.36059e-05 -2.15459e-05 5.46855e-06 8.57654e-05 -0.000324677 4.41882e-05 -2.008e-05 3.86638e-05 5.48085e-05 
-1.68881e-06 -3.82182e-06 -4.17304e-05 7.49771e-06 0.00127326 4.33356e-05 -4.46376e-05 9.43227e-05 0.000120595 
0.000153723 -0.00081694 2.60031e-05 2.86233e-05 8.26106e-05 1.95262e-06 1.70745e-05 2.1674e-05 2.04888e-05 
7.50805e-06 2.21494e-05 3.18116e-05 -1.02384e-06 -7.66558e-07 -2.17791e-06 3.03646e-05 -2.9914e-05 -1.56517e-05 
-3.07268e-05 -1.78476e-05 -8.7866e-06 -9.87216e-06 9.51874e-06 4.12953e-07 -3.01353e-06 6.76617e-05 0.000374943 
-0.00154745 -2.91573e-05 9.04974e-06 -3.7798e-05 6.23778e-05 1.69658e-05 8.86462e-06 -3.65503e-07 1.00308e-06 
-7.66382e-07 2.96959e-05 -3.18055e-05 -9.98121e-07 -2.04756e-06 9.38167e-07 -4.48566e-05 1.54328e-05 -1.96797e-06 
-3.84408e-07 1.4618e-05 -1.49396e-05 8.30905e-06 -3.81495e-06 5.22271e-06 8.4163e-06 -9.10649e-06 -2.87648e-06 
-3.43628e-05 -5.75662e-06 2.17136e-05 -7.97415e-06 2.57497e-06 2.03412e-05 -0.000409524 0.000183204 -0.000966245 
0.000185358 -1.20348e-05 1.46669e-05 2.52249e-05 2.30887e-05 -1.56449e-05 2.05795e-05 -3.19046e-05 -1.4792e-05 
-9.99443e-05 7.72875e-06 -9.4904e-06 2.4191e-05 -2.62534e-05 -3.10491e-05 5.45485e-06 8.46267e-06 9.40929e-05 
-0.000524368 0.000128368 -0.000310319 -1.59974e-05 -2.97892e-05 5.28403e-05 5.5231e-05 1.07075e-05 3.12494e-05 
1.66689e-05 -1.78268e-05 -5.67801e-06 6.42916e-06 -3.33527e-05 1.23059e-05 -3.09479e-08 2.60498e-06 1.70927e-08 
-2.88886e-06 1.48356e-06 7.90411e-06 -4.35043e-06 -8.35641e-06 4.16597e-05 -8.41463e-06 2.84408e-05 0.000715962 
8.46917e-06 1.08612e-05 -9.74214e-07 -3.08178e-06 -2.93064e-06 0.000119079 -1.04109e-05 4.03981e-06 1.20711e-05 
3.7134e-06 -1.80757e-05 3.94735e-06 -5.46412e-05 -0.000105014 3.38716e-05 -4.3904e-05 2.42727e-05 -8.70255e-06 
5.0586e-06 6.66062e-06 -6.99351e-06 -0.00261654 0.0012824 -0.000166165 5.17785e-05 -2.89091e-05 -0.0057278 
0.00116263 -0.000917305 3.07982e-05 9.64437e-05 2.52616e-05 1.90693e-05 -2.47453e-05 -1.42433e-05 3.51904e-06 
-2.74813e-05 2.85437e-05 -2.79056e-05 -8.18117e-06 -1.6227e-06 2.71754e-05 -2.05166e-05 -1.52184e-06 3.28007e-05 
-0.00021727 -8.63612e-05 0.00018363 -0.00762454 -4.99656e-06 -2.28739e-05 -3.92515e-06 -5.2968e-06 1.43552e-05 
8.96675e-06 8.5677e-05 -1.442e-05 9.31788e-05 -9.63274e-05 -4.66636e-05 -7.35443e-05 1.14276e-05 7.54207e-05 
-3.77297e-05 -2.6193e-05 -0.000125431 3.64486e-05 -5.24636e-06 2.10884e-05 1.19953e-07 -3.99306e-06 -5.69698e-06 
-3.60041e-06 -3.58417e-05 -3.21941e-05 3.02777e-05 9.38399e-06 -1.2414e-05 -1.22066e-05 3.04009e-06 -1.14652e-05 
-2.20413e-05 4.4781e-06 -4.12914e-06 5.64772e-07 3.92474e-07 -5.22909e-05 -8.74427e-05 1.21569e-05 1.18883e-05 
1.2477e-05 -0.00112124 0.000216289 -4.33428e-06 -4.30898e-06 6.32315e-06 7.06617e-07 1.55044e-05 -8.48341e-06 
-4.21354e-05 5.7099e-05 -3.6835e-06 -7.28059e-07 1.82843e-06 1.03507e-06 -8.64079e-07 -8.45335e-08 -4.62503e-06 
-1.88945e-06 -1.57808e-06 -2.21272e-06 0.000120041 -4.49394e-05 -0.000113268 1.74944e-05 1.8497e-05 -2.61253e-06 
-7.12941e-06 1.93497e-07 1.78007e-06 2.45964e-06 6.10758e-06 1.66934e-06 8.07028e-07 4.2971e-07 -7.87602e-07 
-2.89707e-06 2.50629e-06 -3.33911e-07 -4.58985e-06 -4.52372e-06 -6.66993e-06 -3.90521e-05 2.12685e-05 1.65813e-06 
-1.11017e-05 5.96156e-06 4.71794e-06 -6.67803e-05 0.000322798 0.00161049 0.000899175 -0.00156983 -0.000716729 
0.00282495 4.11121e-07 -1.69452e-05 6.7482e-06 1.83619e-06 8.83846e-07 -2.14939e-05 -3.66453e-05 4.49935e-06 
2.01238e-05 1.10825e-05 -1.8062e-06 -5.14303e-06 -5.16488e-05 -0.000140228 7.91133e-06 -1.49742e-05 -0.000262933 
0.000350354 0.000105076 -2.84434e-05 -8.7179e-05 -4.4893e-05 -0.00812813 -0.00191729 -0.0048761 0.00226681 
-5.62995e-06 1.5951e-06 7.27721e-05 6.56688e-07 2.80055e-06 2.30274e-06 -1.04995e-06 -1.5161e-06 -1.84902e-06 
2.92346e-06 -6.76548e-06 7.51782e-06 5.28212e-05 -7.1498e-06 -4.49697e-05 -1.71203e-06 1.67868e-06 -8.30779e-06 
-1.73982e-05 -5.17185e-05 1.83146e-06 -1.7818e-06 1.63999e-06 2.13439e-07 -1.45479e-06 -1.6645e-06 6.09275e-07 
-2.75761e-07 1.04993e-07 1.1743e-06 -9.77735e-07 -3.29929e-06 -1.17323e-06 1.62276e-07 -2.27713e-05 -4.33871e-05 
-2.15251e-05 -2.22183e-07 1.12196e-06 -1.36898e-06 -3.16068e-06 0.000152815 6.59504e-06 1.17208e-05 9.14643e-07 
0.00827108 0.0100414 -1.86632e-06 1.45859e-06 -0.000420706 3.45265e-05 -0.000211901 -1.24916e-06 7.03199e-07 
-2.52936e-06 -4.6406e-06 -4.54533e-07 3.49564e-06 8.62113e-07 -3.6915e-06 -0.000870545 -0.00188407 -1.66219e-05 
-0.0024014 8.96602e-07 0.000327934 0.000569067 2.30779e-06 3.58845e-06 -0.000103059 4.22891e-05 -2.46025e-05 
-0.00113812 -1.06325e-05 -0.00114464 -1.84237e-06 1.64834e-06 -0.000809787 -3.45281e-05 -0.000133667 -6.34352e-05 
8.338e-05 -1.92218e-05 -0.00179617 3.29439e-06 0.000258352 0.000108408 -4.19515e-06 -2.97833e-05 2.57296e-05 
-0.000142359 0.000216884 -4.97976e-05 -0.000459837 -9.38586e-06 1.34673e-05 -8.81621e-06 -4.0248e-05 5.87801e-05 
-5.52006e-07 4.65274e-06 3.34352e-07 -0.000113332 -3.00532e-06 2.22973e-06 2.50768e-06 5.38891e-06 8.67395e-06 
6.89018e-06 3.31306e-06 0.000146151 0.000100156 5.51862e-07 3.82638e-07 -2.53638e-06 0.0104108 3.28627e-05 
-8.44247e-06 4.53572e-06 4.42759e-06 -1.93086e-06 2.58416e-06 -1.29071e-05 -1.82179e-05 5.48073e-05 -5.63603e-06 
9.5293e-06 -5.01811e-06 4.68358e-06 -4.31638e-06 0.000303982 -6.16473e-05 -0.00010122 -1.13653e-05 -0.0028616 
0.0102574 0.00101613 -1.08274e-07 3.67061e-06 1.39524e-06 -1.87987e-06 0.000717847 4.46887e-06 1.60301e-05 
-1.46582e-05 -2.44173e-05 -2.34149e-06 -8.61876e-08 1.88317e-06 -2.76605e-06 1.02152e-05 -1.1266e-05 1.21356e-05 
0.004992 -0.00058507 -0.00479941 9.75319e-06 1.08427e-05 1.53512e-06 -1.39241e-06 -0.000847018 0.000830823 
0.000326514 0.000850174 -0.000410263 0.000475093 0.000100414 1.80807e-05 -2.16974e-05 -1.13372e-05 0.0162976 
-0.0144494 -0.00709113 0.0138557 -0.00714308 -1.87676e-06 2.49408e-06 2.97073e-07 -5.4879e-06 1.11709e-05 
0.000713794 -0.00393896 -3.05538e-05 -0.00013794 3.76113e-05 5.36849e-06 5.75618e-06 -1.30198e-05 -4.41992e-06 
-0.00199475 -1.99446e-05 1.21129e-06 -1.70913e-06 5.09586e-06 -2.36973e-06 0.00120555 -0.000214672 0.000395597 
1.34242e-05 -1.84678e-05 -9.59615e-06 0.0063316 0.00170507 -3.45675e-05 8.48417e-05 1.18909e-05 -2.45516e-05 
2.57902e-05 -3.66253e-05 4.78543e-05 -9.15634e-05 2.84002e-05 7.50199e-05 -0.000589368 -0.000184683 0.0029526 
0.00347553 -4.60997e-05 0.0102289 0.00906212 0.000107975 -7.13017e-05 -2.07271e-05 -0.000614333 -4.80312e-05 
0.00172648 -1.16862e-05 1.37591e-05 1.42882e-05 2.86879e-06 1.75254e-07 -2.84127e-07 1.23845e-05 3.29854e-06 
4.24602e-06 5.69394e-06 -6.35325e-06 -1.54382e-06 -3.52033e-08 -0.000185171 8.13499e-06 -3.25318e-07 -1.67441e-05 
0.0011306 0.00106123 -3.9932e-07 -4.00965e-08 2.81252e-06 -4.17613e-06 -1.99918e-06 -6.3464e-07 5.61948e-06 
-7.91077e-07 -4.65944e-06 1.6619e-06 -5.22368e-06 2.05214e-06 -4.523e-06 -8.34721e-06 -3.35393e-05 8.91276e-06 
2.09026e-05 -6.05938e-06 -3.41683e-06 6.99947e-06 1.2256e-05 8.12785e-06 -7.24992e-06 2.43935e-06 -1.32197e-05 
-5.56551e-07 -3.87153e-07 -1.08125e-05 -2.50988e-07 1.72775e-06 3.26297e-06 -2.19503e-06 2.44129e-06 2.79335e-06 
3.74328e-05 8.6063e-07 5.13014e-06 6.69994e-06 -4.94377e-06 -1.16378e-06 -6.95417e-05 -5.69145e-06 0.00417928 
0.00980568 -1.82298e-06 3.04931e-06 2.97567e-07 3.00332e-06 2.92034e-06 3.99009e-06 0.0004834 -2.45149e-05 
-0.00354364 -8.36456e-05 0.000104298 -0.000135749 -0.000168272 -2.19487e-05 -8.39694e-06 -1.78899e-05 -1.04599e-05 
-4.97884e-06 0.000117923 -0.000515693 4.20774e-08 -5.90019e-07 -1.18321e-05 -2.34852e-06 1.33999e-05 -1.81981e-05 
7.22005e-05 9.48079e-05 0.000195733 -7.8883e-05 1.19509e-05 -1.2913e-06 -8.39567e-06 -1.06694e-05 3.22713e-06 
8.48109e-06 5.47284e-06 -0.00699657 -3.66218e-06 -6.15512e-06 -7.56225e-05 -1.90368e-05 5.71358e-06 5.6236e-05 
-0.000140856 2.01434e-05 7.66295e-06 2.6142e-05 -6.85959e-06 -0.000576501 -8.77637e-07 -8.63214e-07 6.62632e-05 
-0.00118543 -0.000919924 9.84806e-06 7.96246e-06 -2.85362e-05 9.6712e-06 0.000484848 1.24368e-05 -1.08508e-06 
5.06484e-06 -6.41479e-07 -5.61723e-06 1.3104e-07 1.66383e-06 -3.29072e-06 -2.02753e-05 1.23302e-06 4.09425e-06 
5.88125e-06 -2.10834e-06 0.00791588 -0.000487222 -0.000818885 0.000492012 -1.81897e-05 8.85775e-07 4.93328e-07 
-1.75468e-06 4.31702e-05 4.36735e-05 -7.56814e-05 3.91022e-06 6.87936e-06 4.68009e-07 -1.47744e-06 1.6084e-06 
0.000103403 0.000232882 -9.28681e-05 -6.24995e-06 -1.87041e-06 3.68558e-05 1.11828e-06 -0.000311384 1.1226e-05 
8.35055e-06 1.25183e-05 5.05864e-05 -1.18502e-05 5.41236e-05 -1.5692e-05 -1.31611e-06 4.91187e-08 3.36553e-05 
-3.0372e-05 -0.00016906 0.000201048 -2.14077e-05 1.59881e-05 -2.34858e-05 -4.81175e-05 0.0104863 8.20604e-05 
-0.000150317 0.000294646 -0.000123724 1.48305e-06 3.78484e-05 0.0001373 0.000102511 2.27271e-05 -7.51701e-05 
-2.71084e-06 -0.00113467 -0.00249774 -0.00041514 0.000296975 -5.08646e-05 -2.757e-05 -0.000483293 -4.20923e-05 
3.23482e-06 1.67583e-06 4.03324e-05 3.65449e-08 -5.40907e-06 -4.31765e-06 1.36685e-06 5.977e-07 8.70859e-05 
-4.07856e-05 -3.25546e-05 -4.309e-05 3.27188e-05 -2.96146e-05 5.18135e-05 -3.64776e-05 3.03233e-06 -5.51395e-06 
-2.63482e-06 -5.24914e-06 6.19423e-06 4.3648e-06 0.00198143 -8.53739e-06 -3.41092e-06 8.37579e-06 -5.75686e-08 
-5.27946e-06 -3.90775e-07 4.08803e-06 1.02474e-05 -3.74604e-07 -6.53279e-06 -6.49867e-05 -3.05622e-05 -8.5886e-07 
-1.47349e-06 5.24619e-07 -1.1654e-06 3.34108e-06 -4.44251e-05 1.66787e-05 -4.21341e-05 -3.55032e-06 -2.70954e-06 
-3.17849e-06 -0.0018984 -7.42369e-06 -1.87274e-06 -3.44702e-06 5.23135e-06 0.000900465 5.95815e-05 -0.00136101 
-1.49434e-05 5.00595e-05 -2.27464e-06 -1.05983e-05 3.36079e-05 7.6692e-06 2.21358e-05 -8.2878e-06 -4.52666e-06 
0.000229684 -0.000259707 -0.000529748 0.00225669 0.00950542 5.90939e-06 -4.87554e-06 7.25622e-07 -9.87558e-07 
-2.17482e-06 -5.03788e-06 2.93227e-05 -4.8312e-05 8.49382e-06 3.50121e-06 4.28675e-06 4.46415e-07 -2.21709e-06 
0.000124259 -3.8228e-05 2.64827e-05 -1.36372e-05 -9.35302e-07 4.17128e-05 6.37224e-05 -2.5658e-05 -3.54157e-06 
2.26701e-05 5.06205e-07 0.000675054 -0.000733041 0.00718691 1.4534e-05 -7.56649e-05 -9.41199e-06 -0.000126128 
4.75893e-07 -6.99829e-05 5.4079e-05 6.12957e-06 -0.000107607 -2.03652e-06 2.05851e-06 -0.0074542 -0.000145933 
0.00722925 1.49138e-07 -6.12665e-06 4.11556e-05 -3.11845e-07 -2.79027e-06 -3.60213e-07 5.08341e-06 4.40067e-07 
5.68047e-06 -1.4473e-05 -2.51629e-05 -1.3486e-05 1.2656e-05 1.04713e-05 2.06456e-05 2.71782e-06 -1.12181e-05 
-2.697e-05 5.70787e-07 -2.51161e-06 -2.27161e-05 -1.31117e-05 -1.05799e-05 3.82669e-06 4.56775e-06 2.64654e-06 
4.8882e-06 -7.40215e-06 0.000100443 -5.13271e-06 -4.41146e-06 3.12818e-06 -6.42792e-08 -1.72458e-05 2.19412e-06 
-3.11534e-05 -1.74429e-06 -9.03865e-07 -3.45083e-07 -0.000290583 1.02703e-06 -5.0537e-05 6.77774e-06 3.98855e-06 
-3.08285e-06 -0.00758208 8.52886e-05 -1.06734e-05 -2.46285e-05 -6.67485e-07 2.10058e-06 0.000567959 0.00435194 
0.00467139 -0.00201488 -0.00203073 5.02633e-08 -3.6647e-07 -9.10273e-05 0.000143318 2.42957e-06 7.80135e-07 
1.69484e-06 -1.04863e-06 -2.11041e-07 9.45569e-07 -2.58708e-06 -1.29991e-07 6.5466e-05 4.56074e-05 0.00129145 
-0.00133428 3.37969e-05 -0.00323362 -2.01907e-07 1.53296e-06 -0.000921197 -0.000331816 6.67097e-07 1.28299e-06 
-1.8344e-05 -8.66299e-08 3.07506e-05 1.1261e-05 7.0061e-05 2.60213e-07 -8.53171e-05 0.000337005 0.00077199 
0.000346492 1.15928e-05 -2.09988e-06 -2.45652e-06 7.1492e-06 2.29993e-05 9.55185e-06 -2.03661e-05 -7.06417e-06 
0.000164046 1.73353e-05 -7.38573e-07 5.03401e-06 0.00574813 0.000665591 -0.000450294 -0.000219965 0.00647337 
3.02349e-06 9.93559e-06 7.20567e-05 -5.97449e-07 1.22433e-05 -2.37925e-06 4.1349e-06 1.96757e-06 -0.000322924 
-0.00559827 3.93186e-07 6.99065e-05 5.81061e-06 -6.70798e-07 -7.70836e-06 4.02068e-05 -5.53725e-05 -8.63356e-07 
7.62922e-06 -3.25886e-05 -1.70316e-05 6.91816e-06 4.49157e-05 6.41986e-06 3.46983e-06 -5.2315e-06 3.94784e-06 
-3.52281e-06 -1.0184e-05 -3.21318e-06 5.86488e-06 -6.51795e-06 3.38136e-05 1.29615e-05 1.42957e-06 -9.15102e-08 
4.2321e-06 4.75458e-07 3.65542e-05 5.30186e-05 -0.00110017 -3.35277e-06 2.37658e-06 -1.50381e-06 -0.000208702 
4.57938e-06 -7.4995e-05 9.33352e-05 0.000172367 -5.51929e-06 1.15129e-06 1.22996e-05 2.23654e-07 -4.82217e-06 
5.11613e-06 -2.12353e-06 -8.06184e-07 5.03995e-06 1.96786e-07 -7.64172e-08 -9.48918e-07 -2.999e-07 2.07932e-06 
3.34824e-06 3.34539e-05 -6.49218e-05 -1.27236e-05 -9.77659e-06 -3.76391e-05 -0.000733998 -0.000459513 -0.000167283 
-5.24367e-13 -8.92058e-06 -9.17222e-08 -0.00252299 2.32762e-05 1.70006e-05 2.50358e-05 -1.02396e-05 3.45933e-05 
-0.00041599 0.000285005 0.000325571 0.00820564 0.000642447 0.00180406 -8.1452e-07 0.000568854 -0.00628518 
5.76127e-05 0.000138159 3.89737e-05 -1.31876e-05 -3.48e-05 -1.22984e-05 -3.86807e-06 -3.58499e-06 -2.09853e-06 
-6.58092e-06 3.08104e-06 -1.92327e-06 -5.52183e-06 1.13083e-05 -2.51681e-06 6.78008e-05 0.000171051 -7.92733e-07 
1.93159e-06 -5.9882e-06 3.09303e-06 0.000150704 0.000177616 -5.47643e-06 -0.00348909 -0.00197326 -2.99643e-06 
-1.74957e-06 -1.13757e-05 -0.00153475 0.00212669 1.17999e-05 1.48924e-06 -9.80899e-06 -2.0249e-06 0.000102148 
-6.57191e-05 -1.24683e-05 -4.48359e-05 -0.000321317 -0.000146383 -6.64994e-06 1.38799e-05 -2.60759e-05 -1.13624e-06 
1.23025e-05 -0.000128955 2.0949e-05 1.49743e-05 1.72223e-05 -1.65714e-07 3.83373e-06 -0.000142323 -2.03814e-06 
-3.66559e-06 2.00444e-06 0.000131843 -8.63153e-06 7.6582e-05 2.92815e-05 -1.29839e-06 2.11643e-06 -6.27189e-06 
5.46739e-06 -1.6584e-05 -3.20415e-05 1.62874e-06 1.77831e-06 1.76669e-07 -1.72138e-05 -2.95176e-06 -8.81604e-07 
-4.39434e-06 5.18818e-06 6.59484e-07 1.11272e-05 -9.37352e-06 -0.000627824 -0.000210621 4.92113e-05 8.69303e-07 
3.95837e-06 8.76941e-05 -2.95204e-06 -4.81821e-06 -5.63519e-05 1.14047e-06 -1.98169e-06 -8.61477e-06 2.32485e-05 
1.71972e-05 -1.04577e-05 -1.51642e-05 -2.15046e-05 2.25391e-06 -0.00013998 0.000254889 -3.00663e-06 -1.44886e-06 
-6.08808e-07 4.11125e-07 0.00186859 -0.000211154 -0.000145071 7.2094e-05 5.10971e-05 0.00189515 -3.18544e-05 
0.00023345 9.91208e-06 -1.19965e-06 8.19334e-06 3.45485e-05 2.83707e-06 7.32504e-06 -1.14568e-06 -4.30767e-06 
-1.81921e-07 -4.70854e-05 1.78205e-05 -1.88248e-05 -9.40794e-06 4.29093e-05 1.52246e-05 9.87341e-06 5.30474e-06 
-0.00187303 -0.0006519 -0.000100901 -4.7807e-05 -6.68361e-06 1.70914e-05 -4.19446e-05 6.91184e-05 1.05656e-06 
-3.12085e-08 -6.28625e-07 -1.32686e-06 -9.20198e-06 -3.91163e-06 -6.00828e-07 1.44126e-06 -9.54712e-06 -3.50814e-06 
4.96437e-06 -7.29593e-07 -1.78542e-08 -0.000213404 -1.61297e-05 5.59494e-05 -1.16444e-05 -0.000199165 4.19729e-05 
3.39017e-06 -2.08706e-05 -1.98165e-06 -1.84775e-06 0.000103098 -3.08842e-07 -2.70779e-06 -1.78809e-06 1.41215e-05 
-5.70883e-06 -4.31507e-06 -1.25569e-07 2.84517e-05 3.71558e-05 2.50769e-06 1.601e-05 8.55858e-06 4.65603e-05 
0.000112342 0.000505885 -0.000142782 -9.02735e-06 -8.20734e-06 8.00738e-06 4.52093e-06 -1.03273e-06 -4.79839e-06 
2.61437e-06 -3.02345e-08 8.29171e-07 -2.2369e-06 1.26858e-06 -3.15535e-06 -1.0405e-06 -1.80156e-06 2.51378e-05 
2.16292e-05 -3.83156e-05 1.82512e-07 -1.04148e-06 -6.70316e-07 -0.000390504 0.000582963 -0.00361612 -7.54573e-05 
4.4727e-06 0.000705986 7.52759e-07 7.5712e-06 0.000119531 -4.16339e-06 -0.000171442 0.000209387 2.93525e-06 
-6.31263e-05 0.0010254 -2.42097e-05 -0.00582085 -5.25506e-06 -3.03153e-06 -2.53387e-05 6.47815e-05 -0.000109135 
0.00873672 0.000697659 -8.89997e-05 0.000834207 2.9031e-06 -4.61265e-07 -4.66101e-06 -3.23857e-06 4.57278e-06 
-2.131e-06 -3.17943e-06 -2.29933e-05 5.13858e-06 8.43108e-06 -7.81527e-06 -1.14686e-05 -3.60248e-05 -3.85809e-06 
9.15742e-07 4.71691e-06 5.76167e-05 -4.33434e-06 2.10112e-07 -5.41304e-05 4.26461e-06 -5.74582e-06 0.00503649 
3.35098e-07 -2.89121e-06 9.34308e-05 0.000147933 1.03466e-05 -1.41258e-05 0.00243524 -8.14323e-06 -2.06809e-06 
1.00843e-05 -6.74904e-06 -4.58163e-06 -3.37086e-06 3.52426e-06 -6.89902e-07 3.29864e-05 -1.93704e-05 -3.62167e-06 
7.72258e-05 -3.65985e-05 -2.41769e-05 -1.23291e-05 0.00248835 3.82767e-06 -4.59178e-06 1.58386e-06 -6.37599e-08 
1.44354e-05 -1.84477e-06 3.92307e-05 0.00886643 0.000489387 -0.00627439 8.3306e-06 2.82896e-05 2.60635e-06 
-2.69926e-06 -5.31927e-07 -7.13241e-06 -3.22365e-05 4.31822e-05 -1.97376e-05 7.54063e-05 -9.22637e-06 -3.02237e-05 
0.00134394 1.39618e-05 -5.18894e-05 5.16362e-07 4.53509e-05 0.000107029 -8.02451e-07 3.99441e-05 -6.93385e-05 
0.000449015 1.32811e-07 -4.82967e-06 -2.74915e-05 1.05673e-07 -0.00142898 -1.82184e-05 1.97418e-05 -0.00180253 
-4.1703e-07 5.67711e-05 0.00143521 0.000857816 3.14159e-05 2.65766e-05 0.000111426 -1.04078e-06 9.51037e-06 
0.00100619 -1.30294e-05 2.57228e-06 -0.000266105 -3.82328e-08 8.00485e-07 -5.86658e-07 -0.000215718 1.375e-05 
4.577e-06 -4.79842e-05 -5.62604e-05 3.25712e-05 1.31436e-05 0.00478185 -0.000646279 -3.50309e-06 5.59216e-05 
-0.000156568 0.000155211 2.80148e-05 -9.5293e-06 -2.23237e-07 -2.17888e-06 -0.000182752 -3.88849e-05 8.54853e-05 
-5.60955e-05 -0.00773787 3.67517e-05 -9.38939e-06 -0.00127195 4.76772e-05 0.00135674 -5.02168e-06 1.90576e-06 
1.60899e-05 6.18459e-06 -2.07241e-06 -4.90439e-07 3.324e-06 6.02471e-06 -1.11984e-06 1.03471e-06 3.58041e-07 
-7.9528e-06 -0.000370439 -1.59669e-05 -2.4104e-05 -9.49058e-06 3.24156e-05 8.34744e-06 8.00876e-06 -1.01045e-05 
-0.000403548 0.00156826 2.27399e-06 -1.55551e-05 -3.07538e-05 2.70167e-05 -4.58e-05 1.25567e-06 8.26184e-06 
0.000306147 9.57758e-08 -6.36278e-07 -8.10287e-06 3.29156e-06 4.96818e-06 6.22716e-06 1.43357e-05 -1.12397e-06 
1.09349e-06 1.80077e-05 -1.25953e-05 5.74499e-05 -3.04585e-05 -0.000410141 3.33479e-06 -4.45097e-06 -8.63983e-05 
-1.77604e-05 8.9681e-06 -4.69745e-06 -8.26139e-06 1.68171e-05 1.7432e-07 -4.16813e-05 -4.31061e-06 0.000209488 
0.000350558 -0.000207108 -5.43636e-07 0.000101056 -5.22769e-06 0.000121582 0.000899837 -7.26626e-05 7.07031e-06 
-2.05281e-06 -0.00711503 6.91304e-05 0.000146837 -3.10125e-06 -6.43834e-07 1.11917e-05 -0.00113832 0.00184999 
1.24535e-05 1.58438e-06 6.46338e-05 -6.27633e-06 4.82512e-06 -5.52775e-05 5.93374e-06 0.00177618 0.00260703 
4.07888e-06 -3.35065e-06 5.77676e-05 -3.51946e-05 3.17159e-05 -4.61344e-06 -2.6803e-06 -9.09132e-06 2.18553e-06 
2.06325e-06 -4.88068e-05 7.28993e-06 4.57323e-06 1.84331e-06 -3.76422e-06 -2.26866e-06 1.57638e-06 -4.13168e-05 
-2.03062e-06 -0.00101074 0.00136997 -8.80702e-05 -4.22444e-07 4.32199e-05 -8.28442e-06 -2.05052e-06 0.00474947 
6.22615e-05 -4.8951e-06 4.74476e-06 6.04587e-06 -5.68377e-06 -0.000223354 1.02558e-06 0.000103484 6.72984e-05 
-0.00174407 -0.000627921 -2.15038e-05 -0.000122635 -0.000119124 -0.000465879 0.000142933 -2.31571e-05 8.75089e-05 
9.8511e-06 -3.00074e-06 -3.06224e-06 -1.30766e-05 4.31954e-06 4.89228e-06 -2.97662e-05 5.0537e-06 -1.43629e-06 
8.37509e-06 -9.68827e-06 2.06813e-05 2.88096e-05 8.1704e-06 -9.63933e-07 -1.82201e-06 0.000120296 -3.4365e-06 
-3.33412e-06 -4.3241e-06 5.26229e-06 1.46711e-05 -5.44178e-06 1.65004e-05 1.04053e-06 1.84807e-06 -9.14799e-06 
2.36042e-06 3.31952e-05 -0.00162987 -2.32272e-06 -1.81629e-06 -9.22386e-05 -0.00681454 -6.63882e-05 2.25473e-05 
6.24531e-05 -6.16194e-05 -0.000320894 -1.80641e-08 -1.33946e-06 -0.00014681 3.9991e-05 -9.89467e-06 7.59231e-06 
7.08183e-07 2.27476e-07 -0.0124061 -2.94208e-06 -0.00100744 -0.00026435 1.86167e-05 1.84016e-06 -1.64863e-06 
0.000104176 -0.00111487 -2.72854e-06 1.94068e-06 3.35859e-06 6.46318e-06 0.00725333 -1.25193e-05 -0.00847763 
-0.00962837 -9.48896e-06 3.25017e-05 -0.000110958 -0.000238759 4.22386e-06 -3.88967e-05 1.80309e-06 -2.08487e-05 
2.18053e-06 -5.75108e-05 8.18911e-05 6.60438e-05 -2.9273e-05 5.85212e-06 2.51266e-05 -1.51569e-05 0.00253503 
1.37314e-05 9.32073e-05 -6.31348e-06 2.29606e-07 -0.000942177 1.91838e-06 6.39675e-07 3.48655e-05 
Strain%20yy%20component 1 9350 double
0.532684 0.329874 0.333078 0.535845 0.333371 0.33335 0.333333 0.333333 0.25508 
0.330508 0.212733 0.166432 0.362953 0.266806 0.305783 0.192692 0.17568 0.187431 
0.19281 0.170135 0.166749 0.16683 0.177879 0.182241 0.164677 0.165383 0.163915 
0.169226 0.164366 0.163846 0.16369 0.178095 0.184787 0.169283 0.170574 0.186347 
0.204325 0.273861 0.239661 0.204174 0.152665 0.179302 0.175783 0.173606 0.1715 
0.149243 0.141968 0.170053 0.170083 0.169669 0.169329 0.151028 0.17127 0.171913 
0.171951 0.170621 0.148731 0.143215 0.172346 0.17328 0.175463 0.149618 0.159172 
0.174162 0.333304 0.333321 0.333385 0.333513 0.333699 0.333937 0.33425 0.334672 
0.335141 0.335641 0.336203 0.336859 0.337396 0.33793 0.338371 0.338555 0.338642 
0.338396 0.33799 0.337356 0.336631 0.335818 0.335042 0.334331 0.333737 0.333424 
0.333286 0.588415 0.342996 0.322188 0.309875 0.303056 0.300223 0.299724 0.300737 
0.302372 0.304768 0.307361 0.310009 0.312803 0.315596 0.318331 0.320941 0.323663 
0.325992 0.328185 0.330269 0.332096 0.333591 0.334962 0.33593 0.336619 0.337045 
0.337145 0.336869 0.336442 0.3358 0.335062 0.334206 0.333479 0.332846 0.33233 
0.331993 0.331874 0.331896 0.332072 0.332334 0.332635 0.332962 0.333221 0.333382 
0.333364 0.333503 0.332707 0.330478 0.327005 0.323242 0.321923 0.325752 0.330133 
0.328812 0.31949 0.30425 0.287404 0.277908 0.284562 0.298325 0.307483 0.30965 
0.306414 0.302254 0.300628 0.305456 0.316376 0.34082 0.421154 0.216561 0.181025 
0.192523 0.166191 0.162526 0.157737 0.165325 0.147186 0.141862 0.155388 0.153341 
0.0671727 0.124791 0.146789 0.164735 0.210399 0.22617 0.210802 0.277007 0.267855 
0.204772 0.172415 0.333308 0.333323 0.333418 0.333619 0.333915 0.334344 0.334897 
0.335517 0.336159 0.336915 0.337611 0.338223 0.338549 0.338548 0.33822 0.337554 
0.336691 0.335677 0.334717 0.333937 0.333462 0.333256 0.424281 0.349245 0.317258 
0.305601 0.300985 0.300302 0.301586 0.303923 0.307388 0.310561 0.313985 0.31747 
0.320874 0.324135 0.327091 0.329716 0.332168 0.33412 0.335551 0.3365 0.337032 
0.337086 0.336726 0.335987 0.335014 0.334012 0.333166 0.332458 0.332017 0.3319 
0.332061 0.332408 0.332813 0.333158 0.333362 0.333382 0.333399 0.333113 0.331535 
0.32874 0.325282 0.322405 0.322591 0.327346 0.330497 0.326687 0.316191 0.301517 
0.286813 0.2771 0.286115 0.301755 0.309233 0.308841 0.304718 0.301061 0.300369 
0.303077 0.315616 0.342865 0.552022 0.162259 0.182861 0.170844 0.178736 0.191123 
0.189093 0.169533 0.198166 0.171752 0.154944 0.0795609 0.100933 0.143956 0.17576 
0.180244 0.179954 0.18902 0.250371 0.198509 0.160511 0.224039 0.291477 0.333316 
0.333369 0.33347 0.333598 0.33378 0.334016 0.33431 0.334656 0.335074 0.33553 
0.336011 0.336496 0.33696 0.337377 0.337642 0.337782 0.33773 0.337484 0.337055 
0.336516 0.335865 0.335208 0.334581 0.334026 0.333585 0.333193 0.436547 0.360294 
0.339576 0.325657 0.318288 0.314283 0.312484 0.312285 0.312289 0.313238 0.314901 
0.316514 0.318296 0.320219 0.322104 0.324037 0.325955 0.327704 0.329416 0.330907 
0.332209 0.333354 0.334236 0.334905 0.33537 0.335554 0.33556 0.335297 0.334954 
0.334464 0.333924 0.333346 0.332848 0.332423 0.33214 0.331947 0.331936 0.332018 
0.332195 0.332426 0.332694 0.332949 0.333135 0.333269 0.331209 0.32906 0.326134 
0.323131 0.321331 0.321073 0.318839 0.312864 0.303473 0.296632 0.292085 0.296567 
0.308315 0.314852 0.317759 0.317817 0.31744 0.318768 0.324159 0.337063 0.354462 
0.39436 0.334042 0.352238 0.315206 0.296283 0.291241 0.288946 0.291723 0.306732 
0.288696 0.283064 0.282622 0.282623 0.288088 0.284427 0.284461 0.282034 0.283291 
0.291224 0.309754 0.296175 0.294596 0.297905 0.301429 0.338056 0.376056 0.46145 
0.339987 0.312838 0.287718 0.279779 0.278745 0.27884 0.280098 0.281729 0.280431 
0.286437 0.26983 0.374382 0.299388 0.234782 0.236288 0.258436 0.283113 0.307171 
0.331158 0.350922 0.359194 0.374967 0.384326 0.386762 0.332538 0.329393 0.355489 
0.290553 0.294517 0.293354 0.385713 0.333325 0.333385 0.333479 0.33361 0.333794 
0.334053 0.334397 0.334776 0.335247 0.335759 0.33628 0.336777 0.337214 0.337504 
0.337608 0.337478 0.337092 0.336571 0.335922 0.33518 0.334523 0.333933 0.333434 
0.331066 0.349166 0.340233 0.332378 0.327304 0.323457 0.321419 0.320435 0.320123 
0.320403 0.320921 0.321854 0.32294 0.324136 0.325433 0.326789 0.328077 0.329311 
0.330475 0.3315 0.332408 0.333206 0.333774 0.334211 0.334449 0.334495 0.334372 
0.334123 0.333749 0.333356 0.332946 0.332534 0.332177 0.331912 0.331739 0.3317 
0.331795 0.33195 0.332198 0.332466 0.332747 0.333002 0.333225 0.348418 0.357521 
0.328468 0.325066 0.319862 0.316743 0.315173 0.309479 0.29986 0.32225 0.328797 
0.329152 0.328054 0.32748 0.328313 0.330834 0.333843 0.334301 0.318695 0.388453 
0.31969 0.305257 0.294705 0.289541 0.285646 0.280732 0.278825 0.279396 0.278316 
0.277454 0.276893 0.276837 0.27629 0.278242 0.279738 0.281057 0.282264 0.285926 
0.291321 0.298297 0.306908 0.32553 0.343804 0.318455 0.298283 0.294146 0.29001 
0.286848 0.289811 0.287582 0.28985 0.28538 0.360483 0.31508 0.281867 0.354032 
0.332575 0.330216 0.379046 0.311909 0.300333 0.297162 0.277746 0.299444 0.343019 
0.361843 0.339372 0.36842 0.331774 0.301133 0.363039 0.30771 0.333113 0.333126 
0.333182 0.333282 0.3335 0.333895 0.334381 0.334954 0.335624 0.336319 0.337004 
0.337625 0.337959 0.337982 0.337702 0.337092 0.336239 0.335252 0.334344 0.333677 
0.328597 0.333099 0.336616 0.333757 0.331093 0.328752 0.327254 0.326287 0.325863 
0.325745 0.32583 0.326225 0.326753 0.327453 0.328212 0.329074 0.3299 0.330697 
0.331442 0.332061 0.33264 0.333143 0.333487 0.333691 0.33374 0.33365 0.333438 
0.333114 0.332705 0.332325 0.331944 0.331598 0.331349 0.331225 0.331202 0.33132 
0.331541 0.331838 0.33218 0.332537 0.33284 0.331011 0.313825 0.323678 0.346103 
0.343207 0.334898 0.334129 0.333425 0.331906 0.32849 0.304174 0.309036 0.314342 
0.351363 0.324303 0.31005 0.305938 0.299551 0.292936 0.290681 0.29015 0.289577 
0.288337 0.287547 0.286982 0.287253 0.288347 0.2899 0.291771 0.293472 0.297207 
0.302652 0.310619 0.319586 0.337726 0.337279 0.312981 0.30177 0.309011 0.30002 
0.341632 0.33948 0.315743 0.312092 0.34601 0.367885 0.302226 0.331597 0.349794 
0.335331 0.321796 0.332822 0.361245 0.297933 0.311842 0.319447 0.331154 0.351646 
0.308181 0.354066 0.314926 0.332796 0.332537 0.33243 0.332467 0.332721 0.333216 
0.333979 0.334782 0.335741 0.336728 0.337882 0.338672 0.338983 0.338891 0.338313 
0.337076 0.335509 0.334236 0.33275 0.33171 0.35349 0.335244 0.332799 0.332195 
0.331519 0.330819 0.330328 0.329952 0.329769 0.329687 0.3298 0.330018 0.330321 
0.330645 0.330991 0.331423 0.331835 0.332218 0.332561 0.332881 0.333129 0.333266 
0.333268 0.333142 0.332882 0.332498 0.332022 0.331572 0.331138 0.330784 0.330574 
0.330421 0.330354 0.330543 0.330889 0.331297 0.331803 0.332311 0.328062 0.352124 
0.332042 0.314143 0.326522 0.321186 0.331134 0.325081 0.340279 0.338284 0.31593 
0.306362 0.30225 0.30305 0.301615 0.299628 0.298328 0.298199 0.2983 0.298542 
0.299791 0.302187 0.304569 0.307709 0.312084 0.318333 0.32771 0.310458 0.317704 
0.320647 0.332651 0.31587 0.337172 0.332769 0.341026 0.341457 0.313435 0.352759 
0.333349 0.352912 0.319543 0.341969 0.330566 0.34589 0.344435 0.333472 0.337926 
0.331352 0.331254 0.331653 0.332614 0.333802 0.335188 0.33814 0.339459 0.340447 
0.340383 0.340523 0.336062 0.351922 0.323425 0.330456 0.331875 0.332614 0.332765 
0.332808 0.332743 0.332654 0.332569 0.332529 0.332438 0.332367 0.332393 0.332505 
0.332601 0.332701 0.332807 0.332928 0.33304 0.333087 0.333032 0.332839 0.332509 
0.332027 0.33138 0.330747 0.330245 0.329769 0.329458 0.329524 0.329184 0.329394 
0.329957 0.330575 0.331279 0.332016 0.336046 0.328585 0.347135 0.329686 0.323483 
0.330819 0.323621 0.342697 0.340395 0.314305 0.313399 0.311702 0.308225 0.308882 
0.309506 0.310179 0.308601 0.31185 0.313886 0.316456 0.319453 0.323674 0.326332 
0.331647 0.33312 0.323333 0.336718 0.318218 0.336746 0.338952 0.321616 0.330897 
0.321819 0.346561 0.342979 0.324711 0.340046 0.319465 0.316804 0.345971 0.329607 
0.332537 0.342183 0.324589 0.343741 0.330711 0.33269 0.333676 0.334261 0.334572 
0.334646 0.334596 0.334541 0.334236 0.333682 0.333796 0.333615 0.333383 0.333225 
0.333125 0.333077 0.333001 0.332874 0.33264 0.332257 0.331647 0.330702 0.32976 
0.32905 0.328743 0.327962 0.32812 0.327549 0.328767 0.329607 0.33063 0.327646 
0.340308 0.327785 0.319429 0.318005 0.320724 0.319825 0.321488 0.323176 0.325084 
0.324506 0.335062 0.332782 0.330623 0.3428 0.330496 0.328355 0.329904 0.327457 
0.342018 0.32235 0.337897 0.340408 0.323481 0.325479 0.328725 0.327253 0.33123 
0.328206 0.322205 0.329393 0.332348 0.334093 0.335124 0.335743 0.335944 0.335963 
0.335756 0.335082 0.334614 0.334057 0.3336 0.333313 0.333071 0.332777 0.332516 
0.332367 0.331899 0.331415 0.330227 0.328221 0.327547 0.326414 0.325936 0.328042 
0.338221 0.337974 0.326553 0.338372 0.334726 0.331139 0.328416 0.327366 0.331098 
0.328173 0.332105 0.336236 0.331318 0.333949 0.333324 0.336395 0.335435 0.334522 
0.332481 0.330505 0.329785 0.336794 0.337638 0.330286 0.332139 0.334314 0.335552 
0.336461 0.336681 0.336836 0.333803 0.333095 0.331781 0.336235 0.334482 0.333325 
0.335721 0.337158 0.333289 0.333381 0.33352 0.333695 0.333962 0.334326 0.334799 
0.335303 0.335903 0.33651 0.337063 0.337506 0.337674 0.337544 0.337149 0.336521 
0.335725 0.334897 0.334153 0.333556 0.333256 0.368081 0.357038 0.333524 0.321316 
0.31545 0.313296 0.313114 0.314353 0.316031 0.317683 0.319846 0.322234 0.324565 
0.326678 0.328893 0.330747 0.332339 0.333645 0.334589 0.335202 0.335429 0.33532 
0.334928 0.334373 0.333724 0.333056 0.332515 0.332127 0.331963 0.331999 0.3322 
0.332504 0.33283 0.333098 0.332764 0.331858 0.330418 0.32811 0.325403 0.319996 
0.31955 0.316333 0.310208 0.301986 0.293319 0.299324 0.312901 0.317575 0.318126 
0.317643 0.317153 0.318451 0.322811 0.334893 0.354107 0.373271 0.387783 0.313487 
0.315625 0.30461 0.298691 0.291883 0.266681 0.288463 0.2884 0.287619 0.286423 
0.287944 0.289046 0.292363 0.290469 0.267726 0.294493 0.298171 0.312052 0.309063 
0.544576 0.364162 0.311824 0.291177 0.281283 0.277314 0.277638 0.278577 0.279518 
0.280961 0.279243 0.272374 0.419367 0.284956 0.232981 0.238443 0.261341 0.28509 
0.308516 0.32706 0.344851 0.368515 0.378644 0.385814 0.374476 0.322823 0.292197 
0.34567 0.35512 0.380803 0.289533 0.288193 0.281974 0.333321 0.333179 0.333409 
0.333573 0.333857 0.334324 0.334899 0.335607 0.336357 0.337103 0.337618 0.337742 
0.337481 0.336774 0.335896 0.334886 0.333891 0.332959 0.332364 0.306251 0.334912 
0.343608 0.34464 0.328187 0.323675 0.32205 0.321795 0.321734 0.322411 0.323499 
0.324684 0.325944 0.327443 0.328925 0.330353 0.331527 0.332571 0.333387 0.33395 
0.334263 0.334267 0.334037 0.33366 0.333111 0.332559 0.332139 0.331804 0.33166 
0.331718 0.331899 0.332193 0.332559 0.332892 0.330678 0.317464 0.327431 0.313662 
0.315191 0.298253 0.332513 0.331328 0.327897 0.327695 0.328605 0.330264 0.334697 
0.337476 0.330224 0.315581 0.386297 0.306466 0.297347 0.289882 0.28503 0.282204 
0.281184 0.280774 0.279735 0.27962 0.280934 0.282666 0.283503 0.285348 0.288793 
0.293228 0.300806 0.316557 0.396549 0.279018 0.314789 0.304965 0.294918 0.295229 
0.292615 0.29041 0.320757 0.296043 0.287582 0.277944 0.344972 0.331294 0.358375 
0.354379 0.333345 0.329659 0.321745 0.338475 0.300962 0.358505 0.332366 0.362185 
0.326385 0.306402 0.303171 0.34895 0.361532 0.288391 0.287323 0.31475 0.313198 
0.333068 0.332731 0.333647 0.334545 0.335625 0.336897 0.337977 0.33863 0.338571 
0.33788 0.336568 0.335057 0.333847 0.332333 0.313175 0.333038 0.372979 0.333617 
0.333267 0.32783 0.327272 0.327111 0.327281 0.327722 0.328358 0.329055 0.329883 
0.330721 0.331498 0.332207 0.332799 0.333257 0.333523 0.333569 0.33339 0.33302 
0.332488 0.331947 0.33147 0.331132 0.33102 0.331127 0.331394 0.33175 0.332185 
0.328802 0.328658 0.330511 0.332791 0.340933 0.334186 0.33536 0.332087 0.329492 
0.317626 0.298365 0.295536 0.292643 0.290825 0.290255 0.290367 0.291185 0.29257 
0.294434 0.296791 0.300557 0.305188 0.310796 0.301234 0.33723 0.307168 0.304957 
0.347324 0.350631 0.33308 0.358234 0.349162 0.335125 0.30827 0.312585 0.330853 
0.322276 0.304059 0.300163 0.332103 0.332827 0.331724 0.312881 0.333681 0.33264 
0.359689 0.305232 0.350242 0.339921 0.317487 0.344979 0.332043 0.336347 0.338369 
0.339945 0.340606 0.339727 0.338492 0.335627 0.333211 0.314573 0.343196 0.331165 
0.33141 0.330995 0.331193 0.331306 0.331488 0.331739 0.332055 0.332419 0.332728 
0.332988 0.333148 0.333135 0.332924 0.332504 0.33193 0.331238 0.330667 0.330214 
0.330031 0.3302 0.330592 0.331117 0.331672 0.320219 0.337532 0.316962 0.318768 
0.326421 0.30228 0.305714 0.308635 0.301231 0.30181 0.302123 0.303406 0.305465 
0.30784 0.310723 0.314773 0.320086 0.334432 0.332922 0.356711 0.340469 0.331754 
0.330958 0.355996 0.348398 0.326269 0.315354 0.326193 0.324578 0.319854 0.334182 
0.339778 0.313262 0.353691 0.332263 0.340131 0.331666 0.313371 0.331662 0.331842 
0.343344 0.329159 0.342776 0.331816 0.310556 0.332309 0.330145 0.332527 0.312264 
0.338316 0.343165 0.313898 0.344842 0.333309 0.34967 0.33379 0.333825 0.333115 
0.33298 0.333007 0.333017 0.333035 0.33302 0.332932 0.332677 0.332181 0.331481 
0.330584 0.329746 0.329045 0.328758 0.328922 0.329514 0.330287 0.33108 0.339384 
0.33348 0.31305 0.319877 0.312777 0.336923 0.310707 0.319789 0.341885 0.313021 
0.313723 0.315347 0.317236 0.31948 0.322835 0.32629 0.334897 0.332655 0.341043 
0.343624 0.344864 0.325267 0.322418 0.318432 0.330617 0.324793 0.333504 0.337994 
0.334959 0.33365 0.335179 0.330229 0.331658 0.346408 0.322888 0.320354 0.35028 
0.330105 0.330661 0.329052 0.329177 0.332234 0.328984 0.320665 0.319961 0.331841 
0.341256 0.323634 0.333764 0.333964 0.333163 0.332945 0.332737 0.332411 0.331873 
0.331045 0.329886 0.328765 0.32772 0.327035 0.327186 0.328163 0.32942 0.322288 
0.321155 0.32139 0.332544 0.319637 0.340533 0.339376 0.324055 0.325552 0.326647 
0.32821 0.330021 0.325496 0.327048 0.332623 0.328003 0.333429 0.335743 0.320792 
0.321972 0.334333 0.334907 0.335597 0.334625 0.336045 0.327859 0.326185 0.328787 
0.328686 0.336731 0.328265 0.330031 0.335316 0.337873 0.323915 0.33211 0.332575 
0.331071 0.328786 0.326532 0.324338 0.324916 0.326578 0.32852 0.334938 0.332072 
0.332445 0.325033 0.333109 0.33245 0.331942 0.334759 0.324944 0.330262 0.326983 
0.336555 0.331729 0.330572 0.327462 0.336826 0.329763 0.32521 0.338268 0.33666 
0.333873 0.330749 0.335382 0.330413 0.33172 0.335829 0.336262 0.332547 0.3369 
0.33365 0.334242 0.335759 0.335495 0.337364 0.329921 0.359782 0.280512 0.392095 
0.392954 0.243138 0.180044 0.205299 0.18969 0.184997 0.183419 0.182504 0.188126 
0.180887 0.18118 0.180266 0.183715 0.177639 0.179513 0.179207 0.180682 0.190143 
0.184379 0.186872 0.189831 0.201979 0.236954 0.390774 0.385606 0.231216 0.174284 
0.179506 0.188616 0.187138 0.183483 0.169453 0.144248 0.168084 0.181632 0.181285 
0.180987 0.169625 0.16999 0.181878 0.182651 0.182879 0.167621 0.14441 0.170521 
0.184238 0.185667 0.175122 0.153584 0.164006 0.224526 0.333317 0.333312 0.333343 
0.33344 0.333599 0.333809 0.334087 0.334459 0.334898 0.335385 0.335915 0.336534 
0.337138 0.337678 0.338152 0.338481 0.338628 0.338522 0.338228 0.337697 0.337005 
0.336224 0.335416 0.334666 0.33403 0.333559 0.333386 0.33326 0.535783 0.364854 
0.332437 0.313943 0.305337 0.301154 0.299783 0.300049 0.301382 0.303421 0.305999 
0.30866 0.311444 0.314202 0.31696 0.319634 0.322321 0.32487 0.32713 0.32926 
0.331206 0.332886 0.334344 0.335509 0.336332 0.336882 0.337137 0.337037 0.336698 
0.336157 0.335447 0.334629 0.333823 0.333137 0.332578 0.332134 0.331908 0.331851 
0.331959 0.332192 0.332482 0.332804 0.333108 0.333314 0.333388 0.333354 0.333461 
0.333243 0.331729 0.328813 0.324982 0.322143 0.323625 0.328305 0.330599 0.325249 
0.312111 0.295634 0.28114 0.278915 0.291726 0.303994 0.309459 0.308345 0.30408 
0.300587 0.300592 0.309477 0.323844 0.372328 0.511704 0.331152 0.234705 0.182801 
0.180291 0.178734 0.150674 0.145386 0.16756 0.132968 0.160546 0.156785 0.152818 
0.16917 0.173024 0.0931876 0.101658 0.126801 0.143217 0.185423 0.198414 0.208009 
0.259219 0.271584 0.227865 0.175115 0.179841 0.333307 0.333319 0.33336 0.333506 
0.33376 0.33412 0.334611 0.335199 0.335825 0.336542 0.337267 0.337935 0.338405 
0.338593 0.3384 0.337913 0.337148 0.336181 0.335191 0.33431 0.333682 0.333351 
0.333284 0.515342 0.374455 0.325479 0.309672 0.302332 0.300107 0.300695 0.302584 
0.305551 0.308952 0.312254 0.315733 0.319192 0.322542 0.325672 0.328453 0.331013 
0.333216 0.334904 0.336097 0.336848 0.337122 0.336983 0.3364 0.335522 0.334505 
0.333569 0.332772 0.332194 0.331919 0.331945 0.332217 0.332611 0.332998 0.333292 
0.333384 0.333365 0.333427 0.333348 0.332449 0.330211 0.326989 0.323543 0.322112 
0.324628 0.329762 0.329904 0.322095 0.308924 0.293515 0.28012 0.280244 0.294238 
0.306615 0.309664 0.306906 0.302423 0.299719 0.30093 0.306263 0.325575 0.368352 
0.531427 0.182745 0.173829 0.163737 0.18161 0.157219 0.177979 0.17496 0.172494 
0.168619 0.195833 0.15855 0.112388 0.100374 0.158129 0.0945451 0.115695 0.149706 
0.172481 0.157305 0.16461 0.210086 0.261018 0.170544 0.172375 0.229098 0.299826 
0.333355 0.333333 0.245498 0.289072 0.187455 0.326687 0.249792 0.248538 0.177942 
0.17882 0.170544 0.153159 0.155701 0.176222 0.165652 0.166726 0.163497 0.1634 
0.163355 0.159907 0.166123 0.139589 0.144262 0.165133 0.158766 0.161423 0.160539 
0.159733 0.161065 0.157713 0.166226 0.166271 0.158851 0.162585 0.160822 0.160646 
0.162279 0.158934 0.165553 0.140678 0.146832 0.167695 0.162004 0.164666 0.163952 
0.164241 0.16768 0.14802 0.150457 0.166385 0.197787 0.14644 0.148732 0.146121 
0.159151 0.33333 0.333317 0.33332 0.333353 0.333381 0.333342 0.333433 0.333493 
0.333419 0.333564 0.333649 0.333539 0.333748 0.333863 0.33369 0.333983 0.334139 
0.333892 0.334293 0.334491 0.334165 0.334675 0.334897 0.334491 0.335118 0.335363 
0.334866 0.335594 0.33587 0.335296 0.336109 0.336433 0.335762 0.336673 0.336938 
0.336263 0.337177 0.337434 0.336726 0.337647 0.337851 0.337163 0.337986 0.338089 
0.337506 0.33815 0.338179 0.337732 0.338151 0.338049 0.337747 0.337928 0.337726 
0.337596 0.337507 0.337186 0.337266 0.336922 0.336565 0.336793 0.336247 0.335839 
0.336206 0.335516 0.335136 0.335522 0.334811 0.334467 0.334896 0.334188 0.333905 
0.334308 0.333693 0.333525 0.333809 0.333334 0.333282 0.333413 0.333328 0.235961 
0.333273 0.406317 0.474065 0.380099 0.355952 0.342942 0.378425 0.332363 0.325554 
0.347146 0.318643 0.314733 0.331481 0.311128 0.30939 0.32134 0.307441 0.307075 
0.315908 0.306308 0.306707 0.313028 0.306651 0.307385 0.312155 0.3074 0.30852 
0.312092 0.309063 0.310298 0.312674 0.311193 0.312443 0.314022 0.313299 0.314655 
0.315672 0.315569 0.316929 0.317391 0.317917 0.319253 0.319244 0.320217 0.321503 
0.321164 0.322499 0.323829 0.323076 0.324795 0.325941 0.325015 0.326837 0.327916 
0.326855 0.328781 0.329807 0.328584 0.33058 0.331479 0.330204 0.332135 0.332865 
0.331584 0.333453 0.334129 0.332818 0.334571 0.335046 0.333844 0.335387 0.335721 
0.33462 0.33596 0.33618 0.335174 0.336266 0.336326 0.335499 0.336311 0.336185 
0.335594 0.336054 0.33585 0.335459 0.335677 0.335368 0.335152 0.335122 0.334762 
0.334723 0.334487 0.334069 0.334197 0.333778 0.333425 0.33363 0.333172 0.332863 
0.333083 0.332649 0.332402 0.33262 0.332245 0.332086 0.332261 0.331984 0.33193 
0.332022 0.331921 0.331931 0.331921 0.33197 0.332054 0.331956 0.332141 0.332268 
0.332094 0.332383 0.332531 0.332305 0.332664 0.332823 0.332558 0.332949 0.333075 
0.332826 0.33317 0.333248 0.333053 0.333321 0.333319 0.333209 0.331876 0.330798 
0.329711 0.328058 0.330182 0.326571 0.324783 0.327625 0.323379 0.322672 0.32453 
0.321973 0.323568 0.322169 0.323561 0.325341 0.321226 0.324288 0.323406 0.320373 
0.320314 0.315906 0.316371 0.310968 0.303865 0.308448 0.300254 0.292421 0.299731 
0.290161 0.285655 0.293884 0.287859 0.291387 0.292924 0.2968 0.303128 0.302727 
0.306385 0.310694 0.312128 0.312365 0.313436 0.316792 0.313488 0.312139 0.31795 
0.311829 0.310131 0.317486 0.310628 0.310262 0.31759 0.312829 0.315683 0.320293 
0.322285 0.329074 0.328952 0.338085 0.350156 0.343707 0.371598 0.40818 0.369088 
0.368878 0.319053 0.287778 0.285541 0.272565 0.334585 0.254099 0.253989 0.338991 
0.247254 0.245869 0.29463 0.242641 0.242396 0.286733 0.240382 0.240418 0.282955 
0.239391 0.238753 0.280418 0.24824 0.246711 0.30024 0.234543 0.236756 0.300463 
0.23541 0.235914 0.276383 0.23545 0.236455 0.275797 0.23482 0.235985 0.275749 
0.237756 0.239072 0.276107 0.235827 0.238002 0.294121 0.235124 0.236879 0.277304 
0.235812 0.237248 0.275148 0.235731 0.237558 0.275779 0.238467 0.239822 0.27761 
0.249531 0.248869 0.301746 0.236413 0.241626 0.305012 0.239323 0.243443 0.285706 
0.242822 0.247661 0.286647 0.243438 0.244068 0.288262 0.265733 0.267773 0.323245 
0.285613 0.294666 0.351539 0.511744 0.442357 0.321726 0.366605 0.280949 0.292548 
0.328356 0.265524 0.265399 0.298336 0.263887 0.261455 0.282087 0.265314 0.262077 
0.278297 0.266626 0.263821 0.278064 0.269359 0.264967 0.277995 0.271066 0.269413 
0.280147 0.274081 0.267844 0.282376 0.273356 0.276657 0.279484 0.257752 0.263342 
0.280722 0.253373 0.392618 0.313204 0.254184 0.198552 0.180038 0.205911 0.251331 
0.205394 0.225032 0.238367 0.256143 0.245488 0.271767 0.284255 0.299038 0.310921 
0.294729 0.32493 0.335821 0.318528 0.347418 0.359865 0.36301 0.36971 0.353955 
0.37625 0.380071 0.366283 0.387604 0.38813 0.395707 0.400791 0.388376 0.333329 
0.353703 0.333015 0.332556 0.396582 0.33272 0.426169 0.411848 0.386601 0.339819 
0.272707 0.280427 0.330437 0.273386 0.274276 0.302152 0.301759 0.409207 0.383063 
0.381145 0.340962 0.230298 0.270086 0.377561 0.331934 0.369709 0.289355 0.411155 
0.333351 0.333399 0.333434 0.333492 0.333355 0.333547 0.33363 0.333431 0.333703 
0.333814 0.333539 0.333909 0.334052 0.333698 0.334189 0.334358 0.333929 0.334532 
0.334738 0.334228 0.334925 0.335158 0.334581 0.335383 0.335634 0.335002 0.335873 
0.336136 0.335509 0.336374 0.336626 0.33603 0.336845 0.337079 0.336535 0.337274 
0.337436 0.336987 0.337564 0.337645 0.337363 0.337684 0.337655 0.337562 0.337595 
0.337464 0.337535 0.33728 0.337051 0.337284 0.336816 0.336517 0.336837 0.336227 
0.335879 0.336263 0.335541 0.335178 0.335546 0.33488 0.334546 0.334839 0.334273 
0.333976 0.33422 0.333746 0.333492 0.3337 0.331144 0.330047 0.333286 0.355958 
0.345883 0.340741 0.333748 0.344103 0.329409 0.326142 0.335758 0.323093 0.321124 
0.329275 0.319061 0.318208 0.325034 0.317125 0.317016 0.322103 0.316452 0.316488 
0.320674 0.316322 0.316787 0.320133 0.316888 0.317693 0.32018 0.317977 0.31873 
0.32058 0.319201 0.320096 0.32134 0.320651 0.321604 0.322371 0.322194 0.323111 
0.323521 0.323778 0.324728 0.324762 0.325428 0.326366 0.326118 0.326997 0.327869 
0.327444 0.328498 0.329349 0.32871 0.329938 0.330664 0.329903 0.331192 0.331838 
0.331007 0.332281 0.332856 0.331979 0.333253 0.333695 0.332838 0.333978 0.334313 
0.333517 0.334532 0.334766 0.334025 0.334897 0.334984 0.334362 0.33501 0.335009 
0.334505 0.334943 0.334814 0.334454 0.334693 0.334523 0.334268 0.334345 0.334098 
0.333949 0.333901 0.333639 0.333562 0.333434 0.333148 0.33315 0.332948 0.332699 
0.332735 0.332522 0.332311 0.332344 0.332175 0.332039 0.332028 0.331948 0.331856 
0.331806 0.331842 0.331833 0.331706 0.331876 0.331919 0.33173 0.331992 0.33208 
0.33186 0.332202 0.332315 0.332067 0.332448 0.332582 0.332329 0.332718 0.332846 
0.332607 0.332974 0.333066 0.332878 0.333175 0.333242 0.33312 0.373081 0.340044 
0.326178 0.377678 0.359209 0.353432 0.328782 0.327274 0.325633 0.324004 0.326874 
0.321523 0.320574 0.318922 0.318901 0.31831 0.318002 0.316992 0.316142 0.314068 
0.311141 0.312686 0.306518 0.301757 0.294172 0.291676 0.308561 0.314745 0.318401 
0.321524 0.322112 0.323368 0.329153 0.322963 0.322933 0.322741 0.322584 0.327494 
0.323133 0.323834 0.327508 0.325288 0.327989 0.328946 0.3296 0.335672 0.331701 
0.342075 0.336352 0.338003 0.333931 0.354707 0.322863 0.335045 0.385008 0.423292 
0.30984 0.302524 0.332302 0.300343 0.290615 0.312709 0.286708 0.282936 0.299977 
0.281951 0.27859 0.292063 0.278127 0.278419 0.287291 0.271564 0.266398 0.283114 
0.266168 0.269483 0.280163 0.274393 0.271777 0.27925 0.272486 0.270364 0.278689 
0.271334 0.270191 0.277725 0.271118 0.267829 0.277136 0.26391 0.266612 0.27663 
0.271399 0.26807 0.2771 0.272438 0.269755 0.27801 0.272536 0.271358 0.278974 
0.274245 0.274112 0.280632 0.271386 0.268689 0.281296 0.270629 0.277418 0.284421 
0.285517 0.280328 0.289135 0.28919 0.286312 0.295451 0.295816 0.290195 0.302534 
0.295726 0.306976 0.328725 0.31665 0.355059 0.320528 0.3179 0.327237 0.317228 
0.287101 0.289726 0.284353 0.286187 0.296293 0.28221 0.283611 0.291896 0.280703 
0.282361 0.288409 0.284909 0.28402 0.288514 0.28189 0.283542 0.288712 0.279972 
0.283759 0.288537 0.348265 0.27112 0.284391 0.366475 0.373532 0.308868 0.323006 
0.259722 0.260192 0.356673 0.36452 0.357564 0.332559 0.331882 0.32896 0.338179 
0.322782 0.288533 0.411399 0.362844 0.384143 0.30243 0.311515 0.316684 0.289511 
0.294258 0.305845 0.299045 0.290392 0.264599 0.28832 0.257434 0.268827 0.277451 
0.289318 0.303299 0.307034 0.344602 0.35102 0.336498 0.373094 0.369065 0.362273 
0.333283 0.333298 0.333275 0.329841 0.331818 0.333115 0.332914 0.332884 0.329692 
0.345079 0.363402 0.291585 0.378757 0.374463 0.355875 0.29243 0.32262 0.304755 
0.297026 0.293709 0.32642 0.296844 0.328442 0.339516 0.355593 0.33028 0.280138 
0.294132 0.294399 0.299217 0.36842 0.372158 0.36168 0.294669 0.320365 0.3139 
0.302528 0.311947 0.348486 0.333253 0.333291 0.33331 0.333366 0.333116 0.333403 
0.333485 0.33315 0.333547 0.333672 0.333233 0.333781 0.33395 0.333399 0.334145 
0.334345 0.333693 0.334577 0.334829 0.334135 0.335088 0.335366 0.334657 0.335663 
0.335957 0.3353 0.336268 0.33657 0.335979 0.336866 0.337129 0.336654 0.337398 
0.337579 0.33731 0.337709 0.337768 0.337801 0.337784 0.33771 0.337967 0.337591 
0.337377 0.337836 0.3371 0.336787 0.337404 0.336413 0.336039 0.336675 0.335609 
0.335191 0.335767 0.334778 0.334412 0.334808 0.334121 0.333791 0.334006 0.328497 
0.326747 0.333167 0.333217 0.333048 0.338643 0.335164 0.333208 0.33089 0.334921 
0.329358 0.327596 0.332226 0.326309 0.325314 0.329627 0.324461 0.323993 0.327754 
0.323493 0.323357 0.326578 0.323082 0.323243 0.325971 0.323118 0.323395 0.325688 
0.323447 0.323882 0.325716 0.324091 0.324621 0.325981 0.324873 0.325463 0.326461 
0.325795 0.326443 0.327064 0.326836 0.327502 0.327812 0.32794 0.328573 0.328644 
0.328985 0.329594 0.32949 0.330002 0.330563 0.330304 0.330947 0.331453 0.331067 
0.331773 0.332221 0.331764 0.332506 0.33291 0.332373 0.333154 0.333434 0.33291 
0.333622 0.333819 0.333332 0.333934 0.334054 0.333606 0.334079 0.334108 0.333739 
0.334055 0.333998 0.333719 0.333889 0.333764 0.333558 0.333611 0.333422 0.333286 
0.333225 0.333028 0.332917 0.33284 0.332634 0.332517 0.332449 0.332244 0.33213 
0.332075 0.3319 0.331763 0.331773 0.331643 0.331463 0.33158 0.331489 0.331271 
0.331482 0.331462 0.331194 0.331519 0.331567 0.331247 0.331673 0.331754 0.331416 
0.331897 0.332023 0.331685 0.33219 0.332326 0.332005 0.3325 0.332645 0.332358 
0.332793 0.332922 0.332967 0.33269 0.331002 0.32967 0.315032 0.314622 0.324368 
0.321521 0.326527 0.334163 0.336964 0.349155 0.345067 0.329285 0.346471 0.342315 
0.331039 0.331354 0.331199 0.332227 0.333487 0.331591 0.332973 0.332416 0.331313 
0.331228 0.330105 0.295452 0.301882 0.303648 0.29516 0.3132 0.316824 0.362428 
0.343724 0.321891 0.315043 0.307149 0.302308 0.31714 0.300212 0.29756 0.308044 
0.294453 0.292336 0.302931 0.289229 0.286477 0.296157 0.285488 0.284388 0.291659 
0.284222 0.284668 0.290413 0.284347 0.283836 0.28991 0.283161 0.282781 0.289042 
0.282412 0.282307 0.288019 0.282172 0.281826 0.287295 0.281969 0.282104 0.287 
0.282818 0.283288 0.287794 0.283904 0.284742 0.289152 0.285587 0.286498 0.290857 
0.287068 0.287717 0.29264 0.289661 0.291397 0.295278 0.293954 0.29733 0.299872 
0.301393 0.304658 0.306585 0.308772 0.3133 0.31521 0.320573 0.333565 0.332985 
0.343393 0.339645 0.33695 0.336324 0.31507 0.315758 0.314161 0.33324 0.296353 
0.298266 0.30248 0.304 0.305276 0.332504 0.289775 0.292907 0.301065 0.335474 
0.335395 0.339232 0.343627 0.34125 0.346609 0.317624 0.316145 0.314601 0.306302 
0.313526 0.307556 0.349754 0.353333 0.342903 0.333355 0.345102 0.37848 0.374672 
0.359724 0.292729 0.289994 0.300017 0.330836 0.337234 0.335563 0.354743 0.355996 
0.348143 0.331861 0.331525 0.334375 0.318749 0.32588 0.326517 0.332654 0.333391 
0.333123 0.333226 0.3299 0.316666 0.368449 0.364421 0.362342 0.312066 0.312194 
0.332706 0.331975 0.303892 0.299041 0.304786 0.310607 0.307299 0.320055 0.309167 
0.336083 0.315658 0.318959 0.32827 0.305111 0.333107 0.341092 0.330721 0.327051 
0.350644 0.355648 0.357272 0.293653 0.294978 0.293698 0.301594 0.306256 0.306357 
0.329969 0.331877 0.332759 0.349288 0.368147 0.321746 0.310517 0.322934 0.361076 
0.356982 0.292717 0.294261 0.299772 0.331834 0.330589 0.332839 0.332853 0.332823 
0.332857 0.332479 0.332883 0.332985 0.332454 0.333108 0.333318 0.332595 0.333555 
0.333816 0.33297 0.334163 0.33448 0.333588 0.334853 0.335233 0.334373 0.335638 
0.336043 0.335259 0.336487 0.336911 0.336258 0.337403 0.337778 0.33729 0.338125 
0.338326 0.338297 0.338456 0.338468 0.338821 0.338442 0.338282 0.338942 0.33802 
0.337648 0.338586 0.337109 0.336594 0.337688 0.335903 0.33532 0.336339 0.334763 
0.334261 0.334886 0.333595 0.333238 0.333458 0.329925 0.327389 0.333013 0.359974 
0.349317 0.358886 0.33489 0.334378 0.333418 0.332157 0.331785 0.330717 0.33226 
0.330267 0.329596 0.331679 0.329174 0.328748 0.330988 0.328408 0.328243 0.330491 
0.327972 0.32794 0.330035 0.327853 0.327844 0.329773 0.327845 0.327999 0.329657 
0.328072 0.328319 0.32969 0.328405 0.328764 0.329876 0.328904 0.329284 0.330132 
0.329456 0.329874 0.330463 0.330051 0.330447 0.330819 0.330664 0.331057 0.331204 
0.331259 0.331625 0.331626 0.331827 0.332131 0.332026 0.33231 0.332598 0.332395 
0.332754 0.333002 0.332736 0.333118 0.333292 0.333016 0.333365 0.333459 0.33321 
0.333472 0.333491 0.333282 0.333433 0.333385 0.333222 0.333255 0.33315 0.333025 
0.332956 0.332796 0.332699 0.332566 0.33236 0.332266 0.332139 0.331949 0.331796 
0.331737 0.331543 0.331351 0.331371 0.3312 0.330952 0.331095 0.330974 0.330669 
0.330892 0.330838 0.330477 0.330795 0.330787 0.33037 0.33088 0.330942 0.330434 
0.331109 0.331223 0.330704 0.331421 0.331571 0.331089 0.331819 0.331992 0.33155 
0.332241 0.332423 0.332059 0.332946 0.340625 0.324477 0.359334 0.352608 0.331877 
0.335722 0.308539 0.307042 0.324292 0.32891 0.329211 0.324903 0.327738 0.332466 
0.33154 0.333079 0.328625 0.326798 0.328115 0.344706 0.336293 0.34626 0.337009 
0.33631 0.336561 0.310917 0.307892 0.302982 0.299837 0.311011 0.297699 0.296526 
0.304349 0.297109 0.296696 0.302585 0.296027 0.295575 0.302321 0.294626 0.294001 
0.300636 0.293386 0.292987 0.298954 0.292924 0.292733 0.298264 0.292763 0.292881 
0.298254 0.292985 0.293517 0.298417 0.294164 0.294891 0.299142 0.296057 0.297034 
0.300978 0.298142 0.299206 0.303352 0.300691 0.302654 0.306119 0.304789 0.307516 
0.309902 0.310716 0.31456 0.315208 0.319249 0.323775 0.322928 0.306173 0.310666 
0.309707 0.304667 0.313647 0.310019 0.315623 0.316668 0.321168 0.323393 0.312398 
0.332892 0.332885 0.33259 0.322584 0.310382 0.313939 0.317962 0.338356 0.341542 
0.334623 0.332942 0.332935 0.332707 0.332805 0.339581 0.338388 0.343466 0.345606 
0.339361 0.307146 0.30876 0.314173 0.313183 0.35496 0.359641 0.352504 0.335008 
0.333629 0.33297 0.330595 0.325472 0.332234 0.321336 0.332351 0.328713 0.305692 
0.313738 0.313156 0.332647 0.35758 0.357264 0.352444 0.339314 0.316017 0.314475 
0.318634 0.336401 0.346925 0.347502 0.322308 0.318484 0.335323 0.330468 0.344197 
0.342166 0.342808 0.347697 0.346658 0.348101 0.342994 0.316036 0.313595 0.309772 
0.311519 0.155889 0.140939 0.314274 0.331946 0.312672 0.320622 0.317348 0.332545 
0.333057 0.332201 0.333152 0.333878 0.335421 0.33515 0.331909 0.331905 0.331872 
0.331989 0.3313 0.332188 0.332455 0.331459 0.332897 0.333319 0.332128 0.333873 
0.334313 0.33317 0.334898 0.335466 0.33445 0.335998 0.15789 0.337353 0.338089 
0.336671 0.338674 0.33909 0.338876 0.33953 0.339721 0.339943 0.339675 0.339632 
0.340442 0.339694 0.339378 0.340531 0.336613 0.335702 0.334537 0.356537 0.352604 
0.352837 0.31992 0.322037 0.331728 0.33159 0.332161 0.331829 0.331055 0.332175 
0.331812 0.332099 0.331941 0.331707 0.332564 0.331632 0.331516 0.332723 0.331401 
0.331344 0.332706 0.331292 0.331218 0.332639 0.331205 0.331223 0.332555 0.331217 
0.331316 0.332494 0.331244 0.331408 0.332442 0.331379 0.331515 0.332375 0.331548 
0.331709 0.332353 0.331766 0.331975 0.332436 0.332017 0.332218 0.332543 0.332269 
0.332459 0.33263 0.332518 0.332685 0.332744 0.332748 0.332905 0.332863 0.332959 
0.333077 0.332984 0.333105 0.333168 0.333068 0.333142 0.333145 0.333059 0.333051 
0.332987 0.332943 0.332824 0.33269 0.332683 0.332454 0.33226 0.332273 0.331943 
0.331702 0.331711 0.33139 0.331161 0.331062 0.330921 0.330697 0.330487 0.330465 
0.330282 0.329989 0.330136 0.330026 0.329607 0.330061 0.329988 0.329477 0.329806 
0.329781 0.329328 0.329885 0.329982 0.329282 0.330252 0.330427 0.329668 0.330727 
0.330938 0.330264 0.331279 0.331538 0.330925 0.331904 0.332162 0.331654 0.33774 
0.333698 0.330944 0.331027 0.329368 0.332475 0.350141 0.349584 0.328259 0.330767 
0.327314 0.327159 0.319691 0.333172 0.330897 0.327472 0.324309 0.327278 0.346842 
0.342038 0.344908 0.340859 0.339471 0.332343 0.332268 0.308422 0.308664 0.308259 
0.30749 0.313784 0.306678 0.305653 0.31262 0.303964 0.303301 0.309911 0.303644 
0.303559 0.308537 0.30391 0.303953 0.309168 0.304301 0.304426 0.309877 0.303604 
0.304243 0.309358 0.305871 0.307073 0.31019 0.308082 0.309266 0.312865 0.310556 
0.312151 0.315118 0.31369 0.315799 0.317966 0.318053 0.320925 0.321577 0.323699 
0.327905 0.349284 0.323716 0.326372 0.32792 0.324739 0.332113 0.332034 0.331499 
0.332678 0.335064 0.331333 0.320623 0.318763 0.336871 0.339054 0.334904 0.313483 
0.315223 0.337671 0.336015 0.333856 0.338508 0.332679 0.330881 0.337282 0.334785 
0.338706 0.337941 0.337523 0.339591 0.318765 0.322287 0.317775 0.319675 0.314974 
0.333466 0.330594 0.334538 0.339271 0.322362 0.318228 0.317647 0.34885 0.349705 
0.345524 0.318937 0.319104 0.344531 0.342302 0.341442 0.322192 0.321293 0.324041 
0.340591 0.342268 0.338317 0.331827 0.326201 0.310335 0.170015 0.152746 0.321024 
0.31723 0.312562 0.317502 0.315566 0.336834 0.339675 0.349037 0.349162 0.346414 
0.330448 0.330649 0.332552 0.333217 0.340777 0.341366 0.341492 0.341756 0.338637 
0.335524 0.333275 0.327962 0.327255 0.342002 0.3411 0.340992 0.34351 0.331309 
0.331755 0.332702 0.332796 0.331644 0.33333 0.333362 0.333117 0.33358 0.333609 
0.333929 0.333693 0.333687 0.334371 0.333711 0.333655 0.334565 0.333648 0.333593 
0.334582 0.333585 0.333531 0.334515 0.33336 0.333332 0.334347 0.333077 0.333052 
0.33393 0.333131 0.333158 0.333746 0.333087 0.333124 0.333689 0.333003 0.333053 
0.333471 0.33297 0.333027 0.33327 0.332983 0.333031 0.333161 0.333014 0.333059 
0.333087 0.333026 0.333048 0.333028 0.332979 0.332956 0.33293 0.332838 0.332745 
0.332749 0.332557 0.332385 0.332451 0.332095 0.331842 0.331957 0.331381 0.331054 
0.331159 0.330588 0.330266 0.330231 0.329915 0.329655 0.329386 0.329515 0.329273 
0.328877 0.328879 0.328717 0.328326 0.328801 0.328837 0.328038 0.328659 0.161316 
0.184845 0.328378 0.328504 0.327783 0.329065 0.329358 0.328175 0.329775 0.330094 
0.329195 0.330591 0.330953 0.330132 0.33145 0.3273 0.325559 0.329154 0.318573 
0.346403 0.344155 0.341648 0.34041 0.344502 0.342564 0.329271 0.326308 0.315527 
0.313852 0.314138 0.16628 0.170205 0.313541 0.313763 0.318582 0.315212 0.315537 
0.319301 0.315022 0.314303 0.320297 0.315842 0.170023 0.189732 0.316778 0.317731 
0.320622 0.318623 0.319802 0.322294 0.320828 0.322252 0.32412 0.323681 0.343606 
0.347644 0.32147 0.322099 0.324666 0.334153 0.33587 0.331341 0.332891 0.333878 
0.331157 0.330973 0.331132 0.33167 0.331518 0.330133 0.337344 0.341596 0.173751 
0.191505 0.321436 0.328624 0.330066 0.331498 0.340108 0.326587 0.325895 0.330652 
0.330555 0.330271 0.32996 0.345439 0.325492 0.32468 0.327879 0.34306 0.34438 
0.34111 0.31703 0.320978 0.317913 0.330699 0.329254 0.339188 0.337324 0.341889 
0.340349 0.318026 0.320356 0.320931 0.324016 0.339172 0.326497 0.324917 0.348727 
0.326673 0.322902 0.326368 0.326394 0.327482 0.329479 0.329726 0.343064 0.325351 
0.327897 0.324665 0.330964 0.326868 0.329123 0.334074 0.333931 0.340047 0.334808 
0.323855 0.32974 0.326472 0.32831 0.323866 0.322906 0.330045 0.331127 0.32872 
0.332565 0.333051 0.330862 0.333957 0.33426 0.333187 0.334713 0.334926 0.334561 
0.335228 0.335242 0.335444 0.335351 0.335307 0.335806 0.335341 0.33528 0.335933 
0.335202 0.335032 0.335842 0.334702 0.33441 0.335367 0.334448 0.167142 0.192858 
0.334203 0.33413 0.33482 0.333853 0.333744 0.334286 0.333506 0.333442 0.333775 
0.333277 0.333228 0.333425 0.333136 0.333088 0.333171 0.33296 0.332893 0.332929 
0.332777 0.332711 0.332602 0.332639 0.332533 0.332432 0.332283 0.332075 0.332124 
0.331863 0.33154 0.331652 0.330982 0.330475 0.330848 0.329502 0.328979 0.329205 
0.328665 0.328318 0.327841 0.327755 0.327632 0.32693 0.327191 0.179299 0.180568 
0.326959 0.327062 0.326101 0.322289 0.320819 0.325579 0.324184 0.328773 0.327836 
0.326827 0.32903 0.331776 0.339238 0.339206 0.319644 0.322654 0.328846 0.336468 
0.337313 0.338862 0.328018 0.324286 0.324133 0.326779 0.181151 0.196903 0.326304 
0.327234 0.339261 0.338067 0.326362 0.336307 0.333022 0.344135 0.340966 0.342503 
0.186532 0.204893 0.327696 0.326519 0.326775 0.328379 0.329819 0.329387 0.326835 
0.33842 0.325803 0.328924 0.325031 0.322884 0.324033 0.326156 0.325671 0.111167 
0.324126 0.324944 0.328298 0.336756 0.326395 0.325937 0.330526 0.331318 0.334677 
0.335632 0.32551 0.344868 0.329492 0.330098 0.331608 0.332339 0.333331 0.335013 
0.329258 0.331217 0.329599 0.332983 0.332149 0.330799 0.32438 0.330403 0.336103 
0.335776 0.335293 0.335067 0.335883 0.334643 0.334308 0.334931 0.332943 0.332814 
0.330394 0.330978 0.329459 0.330779 0.328668 0.328216 0.330512 0.340021 0.339392 
0.3382 0.337325 0.329131 0.337499 0.335676 0.337891 0.337974 0.328616 0.328799 
0.330689 0.329938 0.330285 0.332247 0.333142 0.33017 0.323431 0.333532 0.334136 
0.336296 0.3342 0.334804 0.333178 0.335363 0.335684 0.334955 0.336109 0.336255 
0.335988 0.33633 0.336362 0.336537 0.336429 0.33634 0.336617 0.336782 0.334103 
0.333987 0.33373 0.333398 0.333235 0.333434 0.328248 0.329235 0.332285 0.332158 
0.331867 0.331783 0.331529 0.331229 0.332744 0.329404 0.33699 0.337298 0.332679 
0.33618 0.337149 0.336971 0.333377 0.334223 0.335008 0.334536 0.331378 0.332644 
0.332073 0.332714 0.333857 0.333998 0.332346 0.335827 0.335306 0.325641 0.324926 
0.335153 0.336318 0.332806 0.333806 0.334507 0.335582 0.336046 0.336799 0.336922 
0.337013 0.336387 0.333569 0.333184 0.330824 0.334566 0.337135 0.336976 0.331125 
0.331456 0.331935 0.337411 0.332265 0.336926 0.333338 0.333316 0.333315 0.333404 
0.333358 0.333333 0.333569 0.333473 0.333448 0.333804 0.333668 0.333605 0.334161 
0.333957 0.333828 0.334611 0.334351 0.334146 0.335156 0.334862 0.334563 0.335734 
0.335421 0.335051 0.336409 0.336038 0.335599 0.337052 0.336718 0.33621 0.337625 
0.337327 0.336795 0.33799 0.33783 0.337277 0.338073 0.338074 0.337585 0.337862 
0.33802 0.337608 0.337338 0.337661 0.33735 0.336588 0.337014 0.336838 0.335696 
0.336196 0.33613 0.334819 0.33528 0.335307 0.334069 0.334452 0.334516 0.333542 
0.333788 0.333862 0.333294 0.333385 0.333405 0.333307 0.388584 0.373401 0.398168 
0.339388 0.357338 0.365942 0.320356 0.326736 0.34304 0.311449 0.314155 0.326396 
0.308002 0.308503 0.317674 0.307486 0.306986 0.314071 0.308562 0.307489 0.31298 
0.310838 0.309233 0.313566 0.313288 0.311762 0.315123 0.315806 0.314187 0.316795 
0.318619 0.316924 0.318724 0.321502 0.319867 0.321023 0.32432 0.322714 0.323407 
0.326849 0.325418 0.325634 0.329262 0.327982 0.327824 0.331416 0.330209 0.329846 
0.333185 0.332229 0.331592 0.334555 0.333854 0.333049 0.335506 0.33504 0.33417 
0.336075 0.335822 0.334955 0.33622 0.336187 0.335362 0.336 0.336172 0.335411 
0.335443 0.3358 0.335168 0.334693 0.335156 0.334672 0.333882 0.334359 0.334055 
0.333128 0.333537 0.333379 0.332512 0.332851 0.332764 0.332098 0.332311 0.332298 
0.331952 0.332013 0.332019 0.332043 0.331966 0.331952 0.332307 0.332145 0.332081 
0.332654 0.332463 0.332343 0.332984 0.332819 0.33267 0.33322 0.333113 0.332972 
0.336668 0.332912 0.333105 0.331669 0.33244 0.332334 0.329573 0.330916 0.331151 
0.326756 0.3284 0.32926 0.323995 0.32538 0.326724 0.323423 0.321674 0.324369 
0.323254 0.319932 0.320834 0.322771 0.318597 0.313029 0.317673 0.313616 0.302676 
0.308765 0.306165 0.29275 0.298074 0.296978 0.293049 0.288619 0.306763 0.29963 
0.306609 0.312873 0.309434 0.315881 0.313294 0.313356 0.318141 0.311348 0.3131 
0.317903 0.309501 0.310942 0.317068 0.310122 0.310066 0.317095 0.31438 0.312558 
0.319769 0.328113 0.320403 0.327152 0.355292 0.338364 0.341554 0.402386 0.365007 
0.360818 0.433095 0.296689 0.305653 0.261869 0.268021 0.340381 0.254744 0.264969 
0.310816 0.247836 0.249225 0.302472 0.244447 0.244222 0.294306 0.248397 0.241016 
0.288028 0.23885 0.239583 0.274496 0.238722 0.246549 0.273039 0.238164 0.23754 
0.281917 0.237442 0.236808 0.279754 0.239505 0.23552 0.281032 0.238527 0.241157 
0.280267 0.238402 0.238657 0.281637 0.240388 0.239219 0.283994 0.247897 0.238603 
0.285502 0.239864 0.239041 0.27445 0.244572 0.249255 0.276521 0.247224 0.244763 
0.289844 0.262567 0.251169 0.296175 0.280654 0.265587 0.304503 0.459177 0.539916 
0.375329 0.328825 0.28623 0.282858 0.328331 0.26776 0.269245 0.298122 0.262728 
0.264651 0.285019 0.261092 0.264571 0.27817 0.263415 0.26674 0.276836 0.265315 
0.269511 0.277266 0.267676 0.271522 0.277795 0.271851 0.273561 0.279543 0.273019 
0.273129 0.280065 0.272626 0.251821 0.272909 0.25288 0.32151 0.422039 0.204933 
0.231679 0.202947 0.179595 0.25127 0.230236 0.209865 0.259422 0.245461 0.248309 
0.287491 0.274857 0.27227 0.314508 0.302551 0.295622 0.335822 0.327149 0.348376 
0.345094 0.334961 0.370786 0.362795 0.382387 0.378786 0.375356 0.397314 0.388896 
0.381126 0.397031 0.395033 0.333322 0.333272 0.333303 0.321319 0.322884 0.323041 
0.295345 0.286342 0.290064 0.293327 0.465381 0.36187 0.438624 0.401586 0.339376 
0.455086 0.305251 0.389776 0.401014 0.371899 0.285473 0.266237 0.232205 0.245705 
0.355877 0.286417 0.263397 0.304176 0.316929 0.357701 0.379168 0.288162 0.336869 
0.333205 0.329948 0.333419 0.333355 0.333284 0.333235 0.333137 0.333248 0.333689 
0.333568 0.333949 0.333786 0.333491 0.334337 0.334103 0.333717 0.334827 0.334567 
0.33409 0.335411 0.335097 0.334608 0.336064 0.335727 0.335256 0.336722 0.336396 
0.335988 0.337301 0.337046 0.336727 0.337628 0.337512 0.33735 0.337615 0.337672 
0.337682 0.337268 0.337494 0.337606 0.3366 0.33696 0.33713 0.335775 0.336219 
0.336343 0.334879 0.33534 0.335385 0.334008 0.334432 0.334385 0.333247 0.333577 
0.333414 0.332835 0.332984 0.332665 0.307997 0.311305 0.328867 0.334738 0.339637 
0.35005 0.338622 0.34994 0.354678 0.325904 0.344635 0.322156 0.325178 0.331291 
0.318708 0.319913 0.325525 0.317728 0.317828 0.322585 0.318162 0.31755 0.32171 
0.318943 0.318094 0.32162 0.32009 0.319278 0.321989 0.321669 0.32065 0.322893 
0.323436 0.322282 0.324057 0.325242 0.324095 0.325288 0.327055 0.326006 0.32669 
0.328876 0.327801 0.328189 0.330514 0.329609 0.329661 0.331917 0.331123 0.330953 
0.333084 0.332436 0.332081 0.333961 0.333492 0.333018 0.33454 0.334239 0.333709 
0.334814 0.334705 0.334143 0.334778 0.334808 0.334291 0.334465 0.334657 0.334184 
0.334009 0.334284 0.333868 0.333416 0.333736 0.333391 0.332812 0.333138 0.332833 
0.332342 0.332606 0.33234 0.331983 0.332173 0.331954 0.331821 0.331913 0.331714 
0.331868 0.331852 0.331667 0.332063 0.331956 0.331788 0.332351 0.332203 0.332037 
0.332695 0.332531 0.332371 0.332992 0.332858 0.332725 0.333038 0.329378 0.330553 
0.318844 0.320497 0.32639 0.327779 0.329137 0.314948 0.316466 0.310269 0.317378 
0.317348 0.316174 0.299983 0.304271 0.302163 0.324892 0.322852 0.321679 0.314647 
0.332559 0.3228 0.323096 0.322629 0.322812 0.32747 0.323947 0.323249 0.327644 
0.327233 0.32506 0.328882 0.3357 0.329441 0.331811 0.346207 0.337378 0.335403 
0.34985 0.342983 0.334619 0.322606 0.311179 0.423603 0.384644 0.293178 0.301465 
0.34407 0.286541 0.289452 0.300639 0.280705 0.283268 0.292641 0.274714 0.27516 
0.28654 0.271525 0.273271 0.284102 0.273922 0.27494 0.281094 0.272983 0.274053 
0.28031 0.273808 0.273439 0.279522 0.270347 0.271529 0.279257 0.272921 0.272423 
0.280724 0.276078 0.276176 0.281113 0.277408 0.276745 0.282085 0.276038 0.274743 
0.283762 0.278455 0.277026 0.287412 0.283438 0.280689 0.291184 0.293456 0.290103 
0.296673 0.310535 0.297666 0.307963 0.330556 0.382913 0.429484 0.385517 0.260669 
0.25834 0.314369 0.306166 0.299672 0.294503 0.309466 0.289329 0.286108 0.299573 
0.287178 0.286402 0.29516 0.285674 0.285189 0.293859 0.285527 0.284421 0.335804 
0.329165 0.268489 0.290848 0.285538 0.28757 0.274265 0.270782 0.258988 0.281696 
0.354656 0.346132 0.338295 0.32928 0.338095 0.368652 0.363745 0.36318 0.357835 
0.349624 0.356621 0.333519 0.333444 0.333331 0.333373 0.323832 0.323707 0.328538 
0.329538 0.319906 0.317549 0.31875 0.314737 0.35526 0.30618 0.292257 0.294001 
0.366427 0.366321 0.359001 0.324461 0.331508 0.331409 0.344557 0.329317 0.314611 
0.372043 0.364769 0.359643 0.322689 0.324378 0.33298 0.332114 0.33255 0.301772 
0.296871 0.324289 0.296142 0.294315 0.330938 0.290649 0.29247 0.293708 0.299541 
0.319925 0.308278 0.323418 0.358828 0.309836 0.345972 0.377449 0.276706 0.285367 
0.367315 0.376653 0.349351 0.280032 0.290814 0.284209 0.289605 0.293171 0.284586 
0.28329 0.281787 0.2877 0.32516 0.326244 0.330264 0.303202 0.326927 0.289965 
0.289457 0.290983 0.320952 0.316503 0.333714 0.333471 0.333148 0.333084 0.334301 
0.333983 0.333354 0.335099 0.334698 0.334089 0.336024 0.335574 0.335082 0.337039 
0.336569 0.336262 0.337813 0.337499 0.337433 0.338168 0.338079 0.338312 0.337984 
0.338143 0.338604 0.337248 0.337683 0.338232 0.336163 0.336699 0.337224 0.334915 
0.335511 0.335831 0.333847 0.334409 0.334474 0.332629 0.333162 0.333083 0.314472 
0.315061 0.313374 0.314059 0.333181 0.333109 0.332962 0.382897 0.382711 0.33127 
0.334466 0.338348 0.33828 0.325973 0.324956 0.325028 0.324592 0.324582 0.327409 
0.324806 0.324503 0.327107 0.325408 0.324936 0.327113 0.326227 0.325646 0.327437 
0.327157 0.326543 0.328007 0.328247 0.327516 0.328675 0.329394 0.328679 0.329459 
0.330519 0.329836 0.330302 0.331484 0.330917 0.33112 0.332371 0.331853 0.331861 
0.333072 0.332671 0.332518 0.333579 0.333312 0.333051 0.333862 0.333727 0.333416 
0.333899 0.333895 0.333563 0.333705 0.333812 0.333499 0.33333 0.333523 0.333223 
0.332797 0.333067 0.33276 0.332257 0.332528 0.332218 0.33181 0.332022 0.331703 
0.331484 0.33164 0.331284 0.331352 0.331422 0.33106 0.331427 0.331404 0.331059 
0.331658 0.33156 0.331243 0.331979 0.331829 0.331562 0.332375 0.332193 0.331965 
0.322354 0.327087 0.325551 0.326288 0.32804 0.328903 0.330569 0.333327 0.333196 
0.332758 0.33293 0.335506 0.33697 0.313665 0.310366 0.331564 0.331234 0.331699 
0.331895 0.334426 0.333356 0.331452 0.333154 0.33193 0.33056 0.323226 0.327481 
0.324156 0.317279 0.291472 0.293534 0.306778 0.311295 0.288828 0.290295 0.296973 
0.286411 0.287271 0.294076 0.285275 0.285617 0.291749 0.284614 0.285009 0.290508 
0.284899 0.284677 0.290312 0.285734 0.285385 0.290781 0.286979 0.286357 0.291854 
0.28851 0.287786 0.293448 0.290915 0.289571 0.295634 0.294602 0.292849 0.298656 
0.299239 0.296728 0.302863 0.305317 0.301867 0.308023 0.290143 0.291272 0.297271 
0.323952 0.332752 0.333698 0.338617 0.335918 0.301424 0.301352 0.32874 0.296878 
0.300546 0.310945 0.301513 0.35291 0.352195 0.365157 0.344389 0.331849 0.331203 
0.333268 0.332338 0.355012 0.374302 0.365268 0.340938 0.341477 0.344241 0.335422 
0.339126 0.334343 0.334468 0.294492 0.30274 0.303862 0.314176 0.307071 0.327533 
0.329796 0.33208 0.329493 0.32679 0.319116 0.317098 0.302528 0.29648 0.308022 
0.294032 0.289987 0.299615 0.301447 0.338338 0.331729 0.327115 0.332783 0.333109 
0.333097 0.32093 0.31319 0.325121 0.33854 0.310467 0.303971 0.308078 0.331898 
0.329848 0.332769 0.332601 0.332411 0.33284 0.370507 0.362174 0.361662 0.361106 
0.295685 0.299852 0.333188 0.306555 0.310442 0.304995 0.298019 0.307067 0.355887 
0.353614 0.348742 0.315055 0.331895 0.344962 0.301035 0.331873 0.331436 0.310394 
0.342122 0.336078 0.346801 0.31661 0.308861 0.314281 0.325332 0.333636 0.331486 
0.346437 0.293057 0.346347 0.351408 0.349311 0.332866 0.332556 0.336702 0.335922 
0.338208 0.337549 0.337341 0.33932 0.338924 0.339166 0.339544 0.339579 0.34027 
0.338768 0.339193 0.340223 0.337394 0.338245 0.339204 0.33523 0.336113 0.33703 
0.333538 0.3342 0.334406 0.314343 0.321909 0.310841 0.354438 0.336717 0.338139 
0.329273 0.329311 0.329488 0.329653 0.331179 0.329394 0.329224 0.329815 0.329503 
0.331042 0.330194 0.329867 0.331227 0.330689 0.33031 0.331361 0.331221 0.33083 
0.33159 0.331766 0.331393 0.331885 0.332301 0.331956 0.332236 0.332752 0.332459 
0.332575 0.333106 0.33288 0.332861 0.333316 0.333193 0.33308 0.333337 0.333316 
0.333152 0.333147 0.333231 0.333041 0.332752 0.332939 0.332731 0.332207 0.332472 
0.332224 0.331594 0.331863 0.331583 0.331076 0.331312 0.330943 0.330685 0.330852 
0.330428 0.330536 0.330591 0.330102 0.330671 0.33062 0.3301 0.331002 0.330863 
0.33038 0.331444 0.331253 0.330845 0.331936 0.331715 0.331394 0.333311 0.331821 
0.332935 0.321173 0.316581 0.336003 0.336658 0.309358 0.312868 0.306357 0.125041 
0.318051 0.323865 0.31207 0.327908 0.329249 0.322615 0.296596 0.29749 0.299192 
0.300685 0.303974 0.302149 0.303612 0.307263 0.295761 0.296097 0.301711 0.296092 
0.296112 0.301509 0.296682 0.296278 0.301943 0.298027 0.297356 0.302759 0.300032 
0.299047 0.304419 0.302405 0.301197 0.306641 0.305722 0.303838 0.309282 0.31005 
0.307715 0.312738 0.315503 0.312733 0.317416 0.335069 0.334451 0.335383 0.333772 
0.333271 0.332476 0.333671 0.363742 0.355151 0.336987 0.348101 0.329961 0.330271 
0.331408 0.329177 0.329116 0.330991 0.330908 0.357562 0.364522 0.35611 0.330133 
0.340041 0.346741 0.345212 0.349081 0.329112 0.324364 0.323027 0.315632 0.313936 
0.310207 0.317435 0.355941 0.330739 0.329607 0.321954 0.320265 0.327645 0.331836 
0.314055 0.316382 0.318351 0.334451 0.335764 0.333803 0.343509 0.341993 0.313222 
0.307974 0.309284 0.356837 0.357866 0.35212 0.353 0.332222 0.331966 0.332456 
0.338585 0.337931 0.332221 0.332217 0.3078 0.314717 0.306924 0.338877 0.33237 
0.332239 0.331659 0.331847 0.340418 0.336119 0.342631 0.33228 0.33236 0.33175 
0.340599 0.342379 0.341306 0.330593 0.331477 0.331654 0.346475 0.34471 0.34138 
0.348086 0.331719 0.330467 0.331375 0.332763 0.304559 0.307698 0.314593 0.309546 
0.332133 0.329221 0.336109 0.345257 0.318497 0.332073 0.332622 0.328192 0.331761 
0.333155 0.331583 0.33198 0.30828 0.306781 0.312282 0.313485 0.323108 0.332723 
0.338494 0.337241 0.341272 0.341913 0.309595 0.314121 0.313829 0.3436 0.34976 
0.332374 0.332423 0.353073 0.353219 0.33261 0.332538 0.332554 0.332489 0.333761 
0.332442 0.332348 0.332531 0.332377 0.333014 0.332716 0.33254 0.33299 0.332872 
0.332726 0.333002 0.333008 0.332891 0.333013 0.333081 0.333008 0.333022 0.333028 
0.333039 0.332974 0.332796 0.332902 0.332802 0.332339 0.332553 0.332436 0.331695 
0.33199 0.33183 0.330915 0.331259 0.331023 0.330211 0.330502 0.330148 0.329641 
0.329869 0.329371 0.329405 0.329501 0.328879 0.329569 0.329481 0.328812 0.330062 
0.329862 0.329216 0.33071 0.330433 0.329902 0.331381 0.331092 0.330692 0.338564 
0.339909 0.334812 0.325378 0.332509 0.332441 0.333604 0.333244 0.307684 0.309375 
0.319231 0.322959 0.315332 0.307331 0.307115 0.340856 0.338222 0.334675 0.338452 
0.305948 0.30651 0.311927 0.312967 0.314403 0.316349 0.341261 0.342751 0.340528 
0.307586 0.307495 0.312883 0.308596 0.308007 0.313324 0.310444 0.309469 0.314529 
0.312582 0.311422 0.3163 0.3152 0.313805 0.318355 0.318866 0.316945 0.321176 
0.323234 0.320765 0.324554 0.350113 0.33574 0.334579 0.336602 0.332142 0.332284 
0.332857 0.340583 0.339635 0.339586 0.342045 0.34167 0.342558 0.343228 0.344527 
0.34684 0.325717 0.322864 0.321258 0.319095 0.323608 0.328159 0.346773 0.316547 
0.321022 0.331802 0.331337 0.316409 0.320948 0.322356 0.347277 0.332401 0.333341 
0.332345 0.340338 0.338694 0.343002 0.34368 0.346145 0.33657 0.33724 0.335732 
0.333704 0.332388 0.332362 0.331751 0.331458 0.336527 0.337285 0.334699 0.311676 
0.330934 0.330977 0.332021 0.331907 0.331832 0.349977 0.348198 0.344649 0.332064 
0.327649 0.318282 0.320071 0.323778 0.320178 0.316606 0.3168 0.349668 0.354947 
0.331075 0.330907 0.330159 0.330355 0.331147 0.331268 0.330875 0.330441 0.332538 
0.329098 0.331706 0.33213 0.327281 0.334296 0.333365 0.332516 0.33142 0.333531 
0.32769 0.327002 0.330569 0.321304 0.318003 0.316862 0.338241 0.333167 0.324856 
0.347123 0.319751 0.324583 0.324561 0.31698 0.319102 0.340933 0.33351 0.331929 
0.344547 0.346484 0.314285 0.341856 0.339722 0.343839 0.321294 0.323856 0.326175 
0.333397 0.333388 0.333486 0.333586 0.33386 0.333112 0.333108 0.332995 0.333015 
0.333015 0.332848 0.332889 0.33282 0.332551 0.332678 0.332552 0.332028 0.332295 
0.33215 0.331264 0.331624 0.331441 0.330233 0.330695 0.330459 0.329265 0.329693 
0.329299 0.3284 0.328755 0.328182 0.32791 0.328063 0.327357 0.328065 0.32798 
0.327067 0.32884 0.328532 0.32769 0.329847 0.329453 0.328804 0.330454 0.31764 
0.317572 0.316953 0.316005 0.321669 0.317531 0.31729 0.321874 0.334648 0.332333 
0.330753 0.333863 0.316453 0.316883 0.320031 0.341355 0.34258 0.339412 0.340648 
0.319779 0.319094 0.322641 0.321417 0.320559 0.324786 0.3231 0.322087 0.326069 
0.325505 0.324026 0.327433 0.328107 0.326658 0.329116 0.325221 0.322713 0.32294 
0.326123 0.324857 0.333053 0.332708 0.330292 0.329412 0.329729 0.330691 0.32922 
0.333242 0.33323 0.333273 0.334812 0.334854 0.316632 0.317398 0.321615 0.320497 
0.330866 0.342723 0.319879 0.340773 0.343184 0.331557 0.333518 0.320156 0.322598 
0.320974 0.341223 0.333575 0.334032 0.333855 0.333409 0.351995 0.320367 0.325057 
0.336357 0.334723 0.334756 0.334696 0.335639 0.33423 0.333896 0.334087 0.33006 
0.33557 0.337757 0.337807 0.34822 0.329216 0.329039 0.327904 0.326386 0.324284 
0.323588 0.345664 0.339959 0.326801 0.327165 0.327114 0.327767 0.328839 0.331253 
0.337703 0.335647 0.334368 0.326556 0.328525 0.325639 0.329481 0.332592 0.325682 
0.334596 0.335474 0.334453 0.329775 0.337782 0.336461 0.339521 0.321791 0.321932 
0.332443 0.332594 0.332791 0.332891 0.332293 0.331502 0.331781 0.329321 0.329958 
0.327155 0.327698 0.325721 0.326098 0.325366 0.326048 0.326023 0.324598 0.327361 
0.32682 0.325733 0.328972 0.32828 0.327586 0.329408 0.326169 0.33437 0.334265 
0.334591 0.33528 0.328852 0.328238 0.329271 0.328846 0.327184 0.330527 0.340825 
0.328169 0.332592 0.330311 0.329649 0.326112 0.328473 0.322764 0.322389 0.324463 
0.325269 0.333169 0.333297 0.332761 0.329538 0.329119 0.33219 0.317077 0.332212 
0.33238 0.331957 0.331503 0.33425 0.334377 0.324204 0.326313 0.326509 0.323598 
0.325985 0.326412 0.339289 0.325019 0.327564 0.323966 0.329713 0.329962 0.336207 
0.336098 0.333425 0.333234 0.334745 0.33071 0.330837 0.331256 0.328123 0.328721 
0.327137 0.333134 0.336399 0.338066 0.330013 0.332043 0.32834 0.328135 0.322931 
0.323186 0.326071 0.325569 0.333436 0.33884 0.339274 0.336236 0.336617 0.336023 
0.327127 0.331156 0.333472 0.333685 0.33384 0.329625 0.329108 0.330177 0.330799 
0.334931 0.337722 0.338062 0.33428 0.326976 0.328096 0.332461 0.333952 0.334023 
0.33488 0.32934 0.330758 0.331203 0.328684 0.335987 0.335571 0.322246 0.323011 
0.324101 0.332254 0.332454 0.329667 0.33526 0.335611 0.336215 0.33523 0.325739 
0.333124 0.333822 0.332004 0.33046 0.337062 0.335518 0.332872 0.333296 0.332054 
0.337335 0.337571 0.336592 0.32966 0.334922 0.334193 0.332603 0.326959 0.334069 
0.334531 0.333403 0.323502 0.324758 0.334145 0.334005 0.326234 0.335576 0.334826 
0.335146 0.15423 0.336167 0.335868 0.332235 0.331118 0.331346 0.330271 0.336218 
0.334408 0.337028 0.336981 0.325721 0.333001 0.331594 0.336607 0.337092 0.336212 
0.333918 0.325223 0.331093 0.331356 0.330858 0.330071 0.337833 0.337166 0.32969 
0.328047 0.334626 0.330709 0.328505 0.336802 0.336403 0.327691 0.335178 0.331276 
0.335692 0.333452 0.597281 0.467819 0.333442 0.333384 0.332964 0.332189 0.331046 
0.329646 0.327884 0.326128 0.324148 0.322709 0.323701 0.317855 0.293793 0.286927 
0.280821 0.277034 0.300292 0.300035 0.301084 0.304318 0.307736 0.314384 0.324105 
0.341178 0.370106 0.302765 0.292317 0.285241 0.305151 0.300277 0.301406 0.310433 
0.321911 0.322241 0.32904 0.330675 0.330291 0.328191 0.279543 0.326541 0.308695 
0.309803 0.309392 0.307736 0.305528 0.303289 0.323976 0.595417 0.333365 0.333376 
0.463918 0.378613 0.346891 0.329595 0.318395 0.312418 0.307051 0.303812 0.301527 
0.299953 0.299893 0.300348 0.301071 0.301869 0.303066 0.304283 0.305999 0.30869 
0.310276 0.311686 0.31339 0.314785 0.316538 0.317904 0.319597 0.32231 0.323896 
0.325107 0.326565 0.327656 0.328978 0.330013 0.33126 0.332929 0.333886 0.334576 
0.335291 0.335771 0.336256 0.336585 0.336879 0.337151 0.337118 0.337026 0.336821 
0.335903 0.335423 0.334602 0.334105 0.333734 0.333312 0.332991 0.332631 0.332133 
0.332391 0.33192 0.331872 0.332057 0.332228 0.332519 0.332726 0.33289 0.333069 
0.333198 0.333314 0.333374 0.333396 0.336605 0.336237 0.331998 0.331879 0.331963 
0.300527 0.307367 0.320912 0.332137 0.337049 0.335042 0.332368 0.33331 0.333276 
0.333273 0.333305 0.333306 0.333346 0.3334 0.333459 0.333561 0.333659 0.333797 
0.334066 0.334289 0.334502 0.334779 0.335018 0.335321 0.33558 0.335888 0.33651 
0.336884 0.337159 0.337506 0.337777 0.338091 0.338315 0.338504 0.338645 0.338615 
0.338483 0.338322 0.338115 0.337794 0.337461 0.337048 0.336265 0.335754 0.335356 
0.334874 0.334515 0.334115 0.333817 0.333561 0.333432 0.333316 0.333319 0.333922 
0.336181 0.338567 0.336666 0.0873141 0.0881471 0.104635 0.104645 0.108065 0.106497 
0.106472 0.101776 0.101579 0.0978801 0.0951751 0.0908963 0.0871935 0.0817093 0.0792109 
0.0752997 0.0720024 0.0678488 0.0640817 0.0618954 0.060202 0.0551692 0.0579882 0.0917564 
0.0982141 0.106876 0.105312 0.107586 0.108668 0.105504 0.106171 0.0985276 0.101767 
0.0912164 0.0944837 0.0833943 0.0870933 0.0757763 0.0797312 0.0664072 0.072152 0.0601335 
0.0625054 0.0517632 0.0581172 0.0562886 0.0807871 0.0831903 0.236292 0.229495 0.130951 
0.11959 0.157779 0.156254 0.165821 0.184866 0.191494 0.204208 0.203661 0.221016 
0.228283 0.207843 0.185936 0.218463 0.216423 0.255919 0.219419 0.262631 0.2012 
0.0825882 0.0859156 0.089592 0.0934595 0.331942 0.332018 0.331852 0.331951 0.0773402 
0.0730392 0.0967273 0.106471 0.105971 0.0797697 0.105011 0.107992 0.100399 0.305169 
0.298827 0.302294 0.0859657 0.104954 0.0567605 0.0626681 0.0551791 0.0694941 0.0652227 
0.0458561 0.0478058 0.314682 0.31155 0.309639 0.307009 0.102593 0.103598 0.382139 
0.431955 0.39132 0.443958 0.398076 0.0630134 0.26741 0.329242 0.330717 0.327922 
0.329488 0.321774 0.319341 0.314883 0.331051 0.32314 0.326242 0.315574 0.318985 
0.353016 0.35534 0.351449 0.334779 0.334508 0.334491 0.330285 0.330023 0.330848 
0.330645 0.299303 0.305786 0.304345 0.336589 0.336939 0.338618 0.333622 0.33379 
0.33415 0.334403 0.334801 0.334147 0.335128 0.333524 0.333376 0.333389 0.333272 
0.312638 0.317486 0.317326 0.321604 0.310264 0.333144 0.333062 0.333185 0.313094 
0.317809 0.318027 0.337229 0.337792 0.33748 0.2818 0.281119 0.278223 0.297155 
0.332379 0.330599 0.331412 0.337126 0.337331 0.337104 0.390973 0.387254 0.425337 
0.307092 0.296928 0.301368 0.241727 0.338155 0.337748 0.337673 0.325746 0.325767 
0.327121 0.334596 0.334787 0.334354 0.334553 0.332732 0.328713 0.330953 0.327627 
0.335044 0.338289 0.338307 0.33786 0.337876 0.33166 0.346537 0.339667 0.263436 
0.307025 0.307831 0.312606 0.319612 0.318647 0.322185 0.277004 0.331746 0.332257 
0.331967 0.332244 0.332288 0.332479 0.305204 0.294224 0.290818 0.295687 0.333249 
0.33332 0.333352 0.337447 0.337595 0.337371 0.337501 0.337573 0.337603 0.295615 
0.292359 0.298811 0.330564 0.33005 0.330274 0.329736 0.335023 0.335046 0.334717 
0.334692 0.339302 0.339686 0.338321 0.338687 0.332165 0.33567 0.335225 0.33561 
0.332513 0.332373 0.332549 0.32058 0.330726 0.330142 0.291115 0.293057 0.28913 
0.288336 0.333409 0.33226 0.332346 0.288873 0.263526 0.322426 0.309458 0.332255 
0.332025 0.332131 0.333861 0.334434 0.333565 0.334163 0.333581 0.334124 0.33482 
0.335761 0.320919 0.322665 0.317964 0.319791 0.285232 0.333087 0.333152 0.333137 
0.334097 0.334428 0.335256 0.333763 0.334669 0.290732 0.302107 0.247418 0.256185 
0.335669 0.331985 0.332496 0.331791 0.332314 0.335227 0.33477 0.283446 0.331613 
0.32753 0.327472 0.336051 0.335912 0.335601 0.286459 0.292013 0.28958 0.334028 
0.333295 0.332959 0.323108 0.366509 0.348782 0.33205 0.331964 0.331998 0.333893 
0.334217 0.333787 0.231751 0.242056 0.288846 0.278995 0.276289 0.333352 0.333374 
0.333388 0.3353 0.334938 0.335184 0.33332 0.334975 0.336968 0.336579 0.336824 
0.334102 0.33463 0.334092 0.274352 0.27613 0.289513 0.328296 0.329239 0.329031 
0.333215 0.332979 0.332932 0.332644 0.332225 0.332233 0.331543 0.327386 0.32405 
0.327517 0.340429 0.341953 0.341709 0.279412 0.280708 0.332033 0.331065 0.332145 
0.294331 0.294746 0.288696 0.289096 0.328538 0.329619 0.326327 0.246677 0.273274 
0.313566 0.318019 0.2979 0.300376 0.309992 0.315062 0.333039 0.333293 0.331834 
0.335223 0.332893 0.333178 0.333448 0.331126 0.329786 0.332231 0.330391 0.329465 
0.339142 0.344897 0.337125 0.286999 0.321338 0.321661 0.324079 0.332195 0.332186 
0.332325 0.333243 0.335813 0.319366 0.318294 0.315659 0.363733 0.414213 0.491815 
0.488759 0.326561 0.326401 0.323832 0.332866 0.332741 0.332936 0.333201 0.333412 
0.333398 0.337683 0.342288 0.354432 0.333147 0.332984 0.3268 0.336666 0.326241 
0.278049 0.283857 0.28336 0.332756 0.332876 0.302811 0.251718 0.289808 0.231667 
0.292672 0.276021 0.292295 0.331276 0.331585 0.332967 0.332947 0.334322 0.33188 
0.333029 0.279141 0.283199 0.278027 0.33416 0.334462 0.334421 0.334745 0.332561 
0.326599 0.317413 0.332712 0.33291 0.33421 0.334642 0.334833 0.335333 0.3326 
0.334443 0.333781 0.334158 0.333595 0.321051 0.321222 0.317168 0.327207 0.326313 
0.326323 0.316547 0.314744 0.315451 0.331332 0.331746 0.331912 0.288757 0.284069 
0.287883 0.31629 0.319863 0.316048 0.336879 0.260859 0.307377 0.301961 0.303607 
0.312707 0.311942 0.317537 0.33291 0.33072 0.330499 0.331131 0.322751 0.322192 
0.330557 0.331753 0.331702 0.309419 0.307914 0.255716 0.298746 0.310905 0.302337 
0.334178 0.33397 0.331006 0.332151 0.331551 0.332507 0.285661 0.283136 0.281359 
0.280935 0.281178 0.311759 0.311969 0.314636 0.313436 0.331299 0.331709 0.332059 
0.332053 0.331513 0.331532 0.331018 0.283589 0.285136 0.281083 0.332038 0.33187 
0.332253 0.331943 0.336521 0.336599 0.337025 0.331934 0.331932 0.331956 0.335043 
0.331844 0.331139 0.332318 0.331655 0.357862 0.360912 0.313515 0.313482 0.314501 
0.333401 0.333522 0.333581 0.33366 0.279358 0.277429 0.265643 0.334128 0.33433 
0.334315 0.335677 0.33596 0.335608 0.301555 0.302587 0.306016 0.30701 0.311478 
0.320335 0.326407 0.32834 0.339325 0.337272 0.332386 0.330447 0.332286 0.298809 
0.296357 0.247568 0.331868 0.33316 0.333145 0.329145 0.328453 0.328953 0.309724 
0.303922 0.305166 0.299059 0.305847 0.319708 0.290596 0.298966 0.288624 0.253384 
0.28601 0.182637 0.197744 0.312606 0.272638 0.339115 0.323402 0.324147 0.326674 
0.333199 0.334197 0.334206 0.334663 0.335111 0.313987 0.33796 0.336065 0.339353 
0.314332 0.315319 0.336311 0.336391 0.335072 0.334914 0.334648 0.288415 0.290359 
0.332597 0.33275 0.332569 0.354509 0.345494 0.342363 0.336385 0.336533 0.335524 
0.333093 0.332764 0.332465 0.311279 0.311149 0.285544 0.300376 0.320921 0.324086 
0.323813 0.326663 0.333116 0.333985 0.332209 0.332377 0.332133 0.332177 0.331133 
0.329944 0.329538 0.329508 0.317598 0.31833 0.325749 0.337936 0.329162 0.329095 
0.329707 0.330423 0.330601 0.333964 0.334264 0.333831 0.33409 0.330739 0.330593 
0.330128 0.336538 0.336666 0.33365 0.333532 0.332374 0.337285 0.337494 0.33732 
0.326678 0.325834 0.327604 0.334088 0.333902 0.333585 0.333384 0.337845 0.337517 
0.270214 0.266516 0.329617 0.307835 0.31642 0.31197 0.33299 0.333139 0.332945 
0.333091 0.282538 0.287679 0.28724 0.330443 0.330647 0.330149 0.275511 0.313243 
0.30961 0.313778 0.299966 0.294266 0.29427 0.351644 0.347832 0.323508 0.330695 
0.278515 0.283034 0.283295 0.282879 0.288916 0.336272 0.335851 0.334991 0.312502 
0.311459 0.305482 0.27454 0.289048 0.290545 0.330846 0.331 0.330435 0.337718 
0.33728 0.336397 0.335858 0.332632 0.332192 0.332579 0.332115 0.314086 0.337055 
0.336748 0.337479 0.337377 0.332845 0.337325 0.339757 0.340521 0.340488 0.333411 
0.333551 0.334024 0.334436 0.334529 0.333207 0.335743 0.334915 0.335458 0.334856 
0.332716 0.332987 0.333007 0.333256 0.337985 0.351492 0.34741 0.279474 0.278781 
0.272436 0.333714 0.333459 0.337271 0.337077 0.333973 0.332663 0.331557 0.29106 
0.295937 0.290206 0.332496 0.334768 0.335064 0.289434 0.295053 0.289958 0.333208 
0.332927 0.36331 0.357051 0.364961 0.35698 0.312351 0.311431 0.308443 0.307439 
0.328478 0.328502 0.326791 0.262832 0.340441 0.353285 0.326505 0.326692 0.327509 
0.329845 0.330522 0.333587 0.336913 0.332662 0.337151 0.398708 0.402979 0.312117 
0.303066 0.307946 0.342625 0.343876 0.340208 0.323373 0.329367 0.323653 0.329751 
0.331066 0.330749 0.331582 0.33107 0.331735 0.33195 0.331666 0.332131 0.333804 
0.332877 0.288588 0.287556 0.3279 0.323155 0.328742 0.327205 0.325904 0.336963 
0.371164 0.35919 0.362396 0.336026 0.336339 0.352503 0.356104 0.362986 0.286296 
0.293166 0.296666 0.312645 0.331124 0.330694 0.331098 0.33156 0.330777 0.326706 
0.32569 0.325025 0.360382 0.361391 0.36985 0.36134 0.36168 0.37064 0.323503 
0.32342 0.325858 0.322888 0.338009 0.337792 0.337811 0.337644 0.269947 0.281054 
0.251221 0.404031 0.411509 0.409365 0.336202 0.336501 0.33675 0.380593 0.381776 
0.377985 0.354464 0.348505 0.354808 0.349693 0.337813 0.3384 0.338105 0.332524 
0.332331 0.332147 0.336955 0.336927 0.337312 0.298495 0.294571 0.292561 0.332971 
0.333074 0.332789 0.332905 0.336801 0.336081 0.335525 0.33687 0.329558 0.335684 
0.322696 0.325266 0.325036 0.314972 0.307534 0.306283 0.315572 0.258994 0.304742 
0.309437 0.310495 0.330463 0.327594 0.331441 0.310693 0.325734 0.324419 0.32379 
0.336163 0.336281 0.331916 0.332362 0.331515 0.318246 0.321083 0.317054 0.332929 
0.332875 0.332283 0.365642 0.328499 0.328291 0.329129 0.31323 0.312417 0.332982 
0.332857 0.333079 0.304239 0.307947 0.300973 0.287276 0.281894 0.282883 0.328909 
0.328357 0.329403 0.290445 0.284196 0.284927 0.32302 0.325214 0.325857 0.327815 
0.323185 0.33465 0.332475 0.335424 0.331652 0.332213 0.292091 0.291171 0.285719 
0.254723 0.336247 0.335692 0.323174 0.327873 0.33139 0.331839 0.33046 0.331589 
0.331995 0.332181 0.336594 0.337391 0.335013 0.335869 0.332313 0.333096 0.332253 
0.333326 0.333246 0.32706 0.322428 0.325743 0.31797 0.322086 0.324694 0.328454 
0.331101 0.331476 0.339016 0.330054 0.330454 0.33203 0.285516 0.330066 0.326073 
0.326862 0.333241 0.332945 0.333104 0.332835 0.280567 0.285157 0.285053 0.280749 
0.285998 0.33234 0.332209 0.320781 0.284522 0.292803 0.291441 0.275246 0.290974 
0.292956 0.288315 0.329858 0.329952 0.330621 0.269206 0.33564 0.336106 0.334531 
0.335839 0.340316 0.338293 0.338917 0.339489 0.340247 0.244218 0.274234 0.310603 
0.301243 0.241841 0.279479 0.351892 0.349645 0.35345 0.339976 0.338941 0.338242 
0.235338 0.287516 0.242106 0.350636 0.292591 0.231356 0.344778 0.348326 0.343572 
0.347409 0.335696 0.332691 0.332503 0.333363 0.332767 0.333471 0.34367 0.339844 
0.340316 0.24352 0.332971 0.333263 0.333237 0.334651 0.334733 0.334369 0.333866 
0.333851 0.333735 0.310067 0.320415 0.333281 0.332891 0.33276 0.334289 0.304852 
0.359949 0.332955 0.333204 0.330808 0.331075 0.330614 0.330485 0.338279 0.338118 
0.337735 0.337599 0.264961 0.33305 0.324734 0.324013 0.326736 0.338818 0.339493 
0.341065 0.340174 0.333738 0.331554 0.329661 0.330787 0.331544 0.336703 0.336502 
0.33695 0.335121 0.334596 0.328591 0.328576 0.336291 0.337313 0.332547 0.331686 
0.33214 0.330936 0.333198 0.333184 0.305055 0.310801 0.328318 0.392797 0.382433 
0.379589 0.33974 0.346709 0.343082 0.350948 0.348203 0.353959 0.332752 0.333231 
0.333068 0.343092 0.335448 0.335056 0.341854 0.333733 0.333425 0.333655 0.333347 
0.33236 0.333982 0.332719 0.33259 0.335806 0.335797 0.336129 0.33546 0.335471 
0.325218 0.331786 0.329007 0.329063 0.328512 0.328249 0.329308 0.326697 0.326545 
0.328499 0.330832 0.33113 0.302384 0.300679 0.302205 0.307594 0.309156 0.295181 
0.305233 0.309671 0.314176 0.318448 0.329745 0.329252 0.32941 0.328884 0.326382 
0.326425 0.324143 0.334343 0.29948 0.304967 0.306178 0.33097 0.33135 0.331147 
0.272689 0.28557 0.29658 0.294286 0.327879 0.327383 0.327024 0.330262 0.330336 
0.318418 0.313553 0.31934 0.314508 0.331798 0.33036 0.335416 0.340755 0.339158 
0.340457 0.335638 0.333933 0.334388 0.316878 0.318925 0.342265 0.341522 0.336343 
0.336589 0.32742 0.32938 0.327002 0.346226 0.346985 0.344321 0.343801 0.333235 
0.333865 0.333435 0.334056 0.313882 0.308281 0.31006 0.332044 0.330833 0.346554 
0.344296 0.342403 0.337971 0.34008 0.346833 0.33317 0.333682 0.332927 0.333064 
0.327506 0.327828 0.328723 0.329042 0.331148 0.334033 0.327737 0.331419 0.333049 
0.333117 0.332516 0.332007 0.33191 0.333076 0.316843 0.321012 0.32111 0.329026 
0.300948 0.331875 0.291534 0.309832 0.257381 0.274482 0.333013 0.330109 0.307811 
0.308566 0.328067 0.32876 0.328475 0.329111 0.327371 0.329893 0.329414 0.32947 
0.328975 0.343504 0.332156 0.331736 0.331979 0.331583 0.329785 0.329611 0.329995 
0.330668 0.330236 0.330994 0.316626 0.313104 0.311881 0.327763 0.330726 0.338249 
0.313104 0.317867 0.33027 0.349359 0.354804 0.332867 0.334571 0.318637 0.315279 
0.313574 0.312462 0.313731 0.307898 0.240073 0.346447 0.348434 0.351229 0.302546 
0.297146 0.291221 0.346081 0.316022 0.320773 0.315392 0.32008 0.311198 0.315067 
0.299757 0.294832 0.300412 0.330841 0.331167 0.331215 0.327609 0.332165 0.330459 
0.329354 0.327863 0.331056 0.329357 0.332364 0.334584 0.327554 0.317886 0.354254 
0.341208 0.320138 0.33809 0.321003 0.324181 0.323294 0.326436 0.33192 0.331724 
0.331863 0.322199 0.317883 0.332422 0.332465 0.333207 0.317654 0.337473 0.333029 
0.333054 0.340907 0.316473 0.321705 0.320308 0.33581 0.335741 0.335178 0.335086 
0.332234 0.333407 0.312759 0.332159 0.332236 0.331517 0.346103 0.343997 0.352118 
0.291276 0.340962 0.339386 0.338786 0.323025 0.3214 0.323924 0.341645 0.325874 
0.335369 0.306969 0.305203 0.300951 0.313002 0.332998 0.333023 0.333519 0.340213 
0.339611 0.345976 0.346486 0.333031 0.321806 0.316033 0.319066 0.305334 0.310941 
0.323996 0.326512 0.328266 0.321286 0.324845 0.325706 0.333154 0.332465 0.332594 
0.329242 0.330179 0.32983 0.32373 0.310667 0.318544 0.31459 0.322151 0.277136 
0.336207 0.335959 0.336462 0.333675 0.333917 0.315888 0.327576 0.326592 0.327649 
0.317407 0.33621 0.337821 0.33716 0.326937 0.322559 0.322411 0.319307 0.311769 
0.334128 0.33395 0.333677 0.280553 0.282957 0.284329 0.326281 0.32486 0.267281 
0.279811 0.281454 0.34531 0.303911 0.306783 0.317171 0.327946 0.328529 0.334079 
0.32113 0.33192 0.33201 0.328884 0.334152 0.313039 0.29617 0.297111 0.310926 
0.311616 0.314296 0.314753 0.24343 0.322232 0.326583 0.336361 0.337865 0.337579 
0.319908 0.320633 0.321964 0.337308 0.338838 0.338575 0.357234 0.322737 0.31741 
0.322683 0.319684 0.320959 0.3155 0.316866 0.336426 0.336829 0.305655 0.329886 
0.330427 0.302047 0.298077 0.295375 0.333887 0.333719 0.334278 0.332839 0.298321 
0.303812 0.333201 0.331656 0.331163 0.330987 0.313167 0.317714 0.312022 0.33332 
0.325363 0.284398 0.291254 0.333229 0.331433 0.330643 0.330973 0.334571 0.334297 
0.335047 0.338192 0.335821 0.336146 0.331842 0.335786 0.332085 0.332002 0.337945 
0.337648 0.333221 0.333226 0.310832 0.315738 0.316037 0.331927 0.332304 0.332661 
0.331299 0.335439 0.334928 0.335496 0.338155 0.338126 0.332891 0.333044 0.332889 
0.330644 0.331794 0.331887 0.328232 0.327834 0.32709 0.332594 0.331791 0.330747 
0.336803 0.337294 0.327437 0.336985 0.361526 0.385389 0.361135 0.372801 0.362797 
0.367773 0.333321 0.331474 0.331881 0.317699 0.316143 0.319057 0.292922 0.295458 
0.301209 0.320027 0.318834 0.321228 0.312896 0.308329 0.314546 0.315242 0.343424 
0.352589 0.324207 0.323213 0.321673 0.320737 0.430308 0.442338 0.361385 0.325817 
0.328268 0.331661 0.331976 0.336065 0.334381 0.334942 0.334909 0.330399 0.327378 
0.334358 0.328511 0.328355 0.329159 0.316189 0.340922 0.333092 0.333007 0.306525 
0.313714 0.31278 0.332611 0.332563 0.332319 0.333248 0.333119 0.333306 0.333193 
0.332916 0.333048 0.324991 0.323353 0.3243 0.331513 0.333161 0.325499 0.32745 
0.32339 0.333208 0.333066 0.325672 0.326715 0.296021 0.333973 0.334168 0.333125 
0.273375 0.266491 0.330908 0.331475 0.336087 0.335858 0.338082 0.333141 0.332651 
0.333328 0.332062 0.332952 0.332826 0.332808 0.33198 0.232733 0.239478 0.293102 
0.421644 0.322469 0.278776 0.273792 0.336295 0.335449 0.334866 0.333853 0.33356 
0.403343 0.346869 0.3621 0.333887 0.333951 0.279043 0.302992 0.297905 0.322013 
0.318811 0.321596 0.389681 0.333975 0.28181 0.353916 0.32986 0.328595 0.329741 
0.315048 0.320445 0.350032 0.354327 0.325694 0.329887 0.326323 0.326405 0.321622 
0.333442 0.333408 0.333703 0.317154 0.333784 0.333656 0.333505 0.334829 0.334319 
0.334032 0.335115 0.32989 0.321716 0.337928 0.333321 0.333306 0.269301 0.322014 
0.337611 0.337718 0.333825 0.333532 0.337414 0.308644 0.321685 0.323798 0.323699 
0.333461 0.333358 0.332791 0.332736 0.277461 0.28108 0.290214 0.329821 0.383871 
0.391592 0.384697 0.331294 0.335296 0.334832 0.334688 0.280147 0.321936 0.322418 
0.316725 0.317198 0.333704 0.334339 0.332754 0.332543 0.340113 0.341724 0.3098 
0.263544 0.278948 0.261411 0.320285 0.322177 0.334673 0.338998 0.257909 0.232905 
0.279544 0.261283 0.375226 0.377737 0.329995 0.300056 0.334056 0.335422 0.347026 
0.355742 0.350774 0.360503 0.357722 0.332766 0.332194 0.338504 0.332941 0.335944 
0.327226 0.291703 0.330836 0.32667 0.319538 0.334722 0.330896 0.330117 0.329859 
0.353564 0.334924 0.337634 0.337683 0.337648 0.336277 0.278778 0.279258 0.317262 
0.310454 0.313676 0.311211 0.225382 0.296243 0.321879 0.318351 0.315314 0.316603 
0.309554 0.342624 0.343729 0.345349 0.33703 0.347638 0.352072 0.286312 0.247553 
0.245041 0.341579 0.371906 0.365401 0.349661 0.322889 0.340586 0.277749 0.347019 
0.364126 0.338496 0.341049 0.345488 0.331905 0.331839 0.33197 0.33486 0.323856 
0.332993 0.333037 0.333425 0.333201 0.333302 0.362702 0.34315 0.34454 0.338288 
0.341937 0.374245 0.332821 0.332653 0.330693 0.332685 0.331348 0.330855 0.3321 
0.33297 0.331741 0.335691 0.33514 0.336247 0.32608 0.319672 0.314801 0.334096 
0.335444 0.3292 0.327524 0.327914 0.331943 0.332143 0.332442 0.324879 0.326955 
0.327245 0.32515 0.33106 0.33025 0.329856 0.33135 0.332946 0.332069 0.332196 
0.325069 0.335525 0.333104 0.333053 0.333009 0.336318 0.300831 0.33452 0.547665 
0.276995 0.335989 0.335131 0.33278 0.332902 0.332631 0.327338 0.367308 0.326069 
0.275573 0.303957 0.307822 0.281636 0.286546 0.317093 0.319258 0.320394 0.331651 
0.331458 0.284493 0.279775 0.333611 0.333331 0.318826 0.337457 0.310847 0.315512 
0.3015 0.304807 0.312671 0.317823 0.308129 0.329865 0.331207 0.330997 0.329849 
0.335785 0.336117 0.258537 0.327953 0.326298 0.32565 0.332663 0.33875 0.322978 
0.320526 0.322934 0.324217 0.324431 0.327154 0.291597 0.332703 0.332525 0.343468 
0.338166 0.356246 0.338783 0.339726 0.326166 0.34166 0.248395 0.339318 0.336008 
0.328258 0.333583 0.334714 0.334594 0.322077 0.332009 0.329726 0.332529 0.334979 
0.336567 0.337284 0.295564 0.370449 0.290039 0.293986 0.297291 0.332032 0.332596 
0.332409 0.33251 0.33153 0.332208 0.333228 0.333338 0.333372 0.333299 0.332803 
0.30468 0.295225 0.291779 0.333105 0.3243 0.328327 0.326691 0.314151 0.32389 
0.325179 0.323699 0.321058 0.315072 0.319651 0.313577 0.330829 0.331179 0.325442 
0.321021 0.29365 0.28776 0.292486 0.316666 0.312242 0.345575 0.270081 0.297157 
0.303925 0.310662 0.292842 0.292734 0.345751 0.287923 0.330017 0.330579 0.340395 
0.341017 0.237201 0.243577 0.288119 0.293184 0.34111 0.342286 0.365864 0.33196 
0.331243 0.327822 0.324715 0.330916 0.33008 0.332464 0.332668 0.332352 0.333184 
0.313356 0.30777 0.32843 0.329772 0.326848 0.322896 0.325208 0.334748 0.328631 
0.329687 0.331907 0.331945 0.332936 0.429139 0.328779 0.327825 0.330436 0.331225 
0.332752 0.332049 0.331634 0.34064 0.332797 0.332331 0.323321 0.320999 0.332718 
0.333029 0.331825 0.330815 0.332804 0.325121 0.321302 0.31719 0.333373 0.333296 
0.305809 0.322259 0.326306 0.331208 0.330366 0.333831 0.287439 0.315725 0.320154 
0.31707 0.311197 0.304119 0.326459 0.325402 0.331094 0.332568 0.332627 0.336012 
0.311829 0.311267 0.305504 0.377493 0.381022 0.33438 0.333974 0.334012 0.335161 
0.33479 0.335298 0.31982 0.325165 0.337175 0.336742 0.337013 0.331736 0.332031 
0.332428 0.32861 0.328766 0.324896 0.332787 0.311603 0.338933 0.337938 0.329401 
0.324421 0.333276 0.27275 0.259063 0.257848 0.331482 0.341547 0.335932 0.337593 
0.333506 0.339292 0.34034 0.332403 0.325239 0.332748 0.328167 0.288271 0.273196 
0.288779 0.333643 0.283857 0.28889 0.331171 0.33124 0.330769 0.333796 0.333874 
0.337587 0.312923 0.32919 0.32962 0.332856 0.334129 0.337009 0.337211 0.336572 
0.337258 0.331109 0.330871 0.338301 0.33823 0.329249 0.333331 0.335608 0.335091 
0.332055 0.331666 0.33915 0.33984 0.328437 0.334272 0.333625 0.333476 0.334348 
0.330882 0.331745 0.331841 0.331705 0.30004 0.333483 0.308131 0.331701 0.323207 
0.321419 0.378057 0.351283 0.272924 0.317053 0.33156 0.331934 0.296304 0.266476 
0.281017 0.289162 0.297986 0.330229 0.335091 0.317337 0.315938 0.334396 0.335846 
0.335532 0.331515 0.331444 0.333446 0.333492 0.333423 0.299786 0.293032 0.27453 
0.284332 0.345848 0.364731 0.333398 0.33352 0.343576 0.366009 0.334408 0.332137 
0.329968 0.333556 0.334709 0.336797 0.326927 0.275597 0.276231 0.316715 0.32027 
0.31537 0.332628 0.332868 0.332807 0.335771 0.326761 0.332866 0.330094 0.328572 
0.306813 0.32578 0.332382 0.331915 0.200623 0.301013 0.293249 0.288834 0.303546 
0.332645 0.327055 0.319669 0.333451 0.32446 0.328876 0.33286 0.332862 0.276384 
0.290411 0.329337 0.341847 0.330353 0.328778 0.328665 0.330273 0.328776 0.329052 
0.300174 0.335229 0.334665 0.334699 0.334223 0.310298 0.329105 0.329843 0.333063 
0.333067 0.32916 0.329804 0.329462 0.32925 0.331293 0.333984 0.32204 0.331406 
0.331627 0.332254 0.294202 0.317709 0.279965 0.332937 0.332958 0.333029 0.338749 
0.331807 0.286546 0.291152 0.285025 0.334267 0.332178 0.332645 0.332677 0.33264 
0.332834 0.332928 0.33238 0.33048 0.329537 0.331528 0.331643 0.331791 0.330282 
0.329701 0.325528 0.318317 0.317177 0.336195 0.311379 0.303167 0.360917 0.356705 
0.333764 0.333433 0.333259 0.243832 0.418751 0.289162 0.297901 0.335878 0.334859 
0.34835 0.35288 0.339401 0.290377 0.272803 0.231373 0.334003 0.277208 0.285765 
0.300018 0.28983 0.301356 0.324785 0.32641 0.325213 0.332538 0.334417 0.334267 
0.33626 0.333989 0.333786 0.334083 0.330533 0.332763 0.320786 0.335597 0.333847 
0.333997 0.330383 0.333608 0.340138 0.330764 0.330552 0.2424 0.231764 0.332738 
0.328493 0.330637 0.312339 0.278961 0.294332 0.332435 0.334052 0.335266 0.298939 
0.329785 0.324234 0.327687 0.31838 0.307404 0.326971 0.328596 0.313867 0.332204 
0.328787 0.342595 0.339352 0.337048 0.330079 0.330761 0.333963 0.319434 0.331858 
0.330221 0.330903 0.308381 0.307184 0.312412 0.331918 0.331755 0.332136 0.332626 
0.331697 0.330787 0.326762 0.331462 0.331523 0.333306 0.331532 0.331437 0.332507 
0.332943 0.309927 0.331939 0.325223 0.327571 0.295671 0.301997 0.287458 0.332453 
0.335837 0.277245 0.334346 0.301668 0.30741 0.333019 0.332698 0.284083 0.289561 
0.289259 0.289217 0.294851 0.330733 0.333211 0.339373 0.340321 0.335882 0.33177 
0.331665 0.331841 0.366269 0.358064 0.359691 0.352117 0.34774 0.391941 0.316148 
0.330688 0.347833 0.333144 0.335716 0.320182 0.333352 0.329226 0.333331 0.33669 
0.329127 0.327969 0.329616 0.328281 0.326911 0.324873 0.332506 0.331056 0.335337 
0.320375 0.336556 0.331321 0.328255 0.333799 0.300128 0.319255 0.313337 0.335879 
0.333541 0.333334 0.334517 0.324627 0.332985 0.330747 0.332485 0.320502 0.333375 
0.332906 0.332914 0.333127 0.323393 0.323886 0.329452 0.333412 0.312339 0.310724 
0.326663 0.33719 0.331544 0.327924 0.307404 0.335456 0.33507 0.331787 0.331787 
0.334185 0.334051 0.333878 0.334833 0.335878 0.335563 0.336488 0.336129 0.311917 
0.357494 0.352825 0.341526 0.306266 0.308625 0.334638 0.333334 0.334267 0.333526 
0.333196 0.333004 0.333128 0.333262 0.333519 0.333712 0.332292 0.332457 0.331908 
0.296989 0.331595 0.332147 0.332101 0.332194 0.283641 0.279591 0.262446 0.311711 
0.33507 0.305656 0.332301 0.329704 0.328193 0.331842 0.299733 0.289387 0.322346 
0.236222 0.260431 0.349989 0.333685 0.315466 0.318485 0.327238 0.329986 0.289086 
0.273777 0.282612 0.305101 0.347948 0.333774 0.333532 0.336658 0.337072 0.336088 
0.33335 0.336926 0.307098 0.322479 0.317277 0.314603 0.320838 0.328401 0.333406 
0.332333 0.30678 0.31103 0.324098 0.332302 0.318369 0.333491 0.33411 0.351831 
0.327082 0.327811 0.318274 0.320357 0.29712 0.330067 0.330601 0.331817 0.332732 
0.317189 0.333873 0.333566 0.337469 0.337937 0.335584 0.33411 0.331439 0.307805 
0.32267 0.325244 0.323458 0.302789 0.330329 0.332128 0.331358 0.333184 0.332905 
0.32964 0.332455 0.324038 0.300049 0.247327 0.300643 0.327046 0.297859 0.324971 
0.332067 0.332019 0.32153 0.317786 0.304077 0.301939 0.324723 0.336676 0.337007 
0.343196 0.337505 0.330269 0.333742 0.325201 0.294038 0.333364 0.297251 0.323054 
0.381492 0.332382 0.326648 0.326582 0.328465 0.275935 0.325559 0.324282 0.237657 
0.330288 0.273969 0.292224 0.292037 0.301922 0.33523 0.341095 0.330446 0.336932 
0.238011 0.313567 0.334837 0.340044 0.331184 0.331474 0.331485 0.345965 0.336243 
0.336567 0.343403 0.324465 0.329281 0.317889 0.266003 0.296397 0.336312 0.339956 
0.350986 0.325521 0.339849 0.327103 0.331333 0.331463 0.335709 0.32959 0.301162 
0.303109 0.301479 0.323101 0.324288 0.330249 0.300291 0.292679 0.328843 0.316213 
0.305416 0.337525 0.334861 0.333038 0.33301 0.326442 0.330396 0.330293 0.332432 
0.293208 0.285088 0.339743 0.330566 0.330913 0.32178 0.329781 0.336206 0.324703 
0.282714 0.278436 0.300822 0.32295 0.321488 0.343699 0.318298 0.333103 0.328541 
0.289707 0.333685 0.3328 0.312656 0.337351 0.311203 0.321458 0.3299 0.332487 
0.328876 0.335537 0.335609 0.288139 0.339106 0.274215 0.33296 0.332979 0.301099 
0.336654 0.336872 0.336257 0.333972 0.333073 0.334193 0.28092 0.337132 0.34252 
0.35887 0.357839 0.332626 0.333908 0.294224 0.283434 0.231794 0.331716 0.338131 
0.33495 0.208773 0.265798 0.293957 0.338669 0.334186 0.332726 0.35378 0.382767 
0.330172 0.332099 0.363796 0.333139 0.33368 0.299725 0.333593 0.37113 0.369999 
0.333808 0.333325 0.319624 0.32113 0.328965 0.330308 0.33083 0.331497 0.330811 
0.330736 0.331942 0.332267 0.33102 0.333278 0.334535 0.334762 0.331864 0.324171 
0.33018 0.275402 0.279789 0.23866 0.330857 0.326952 0.322151 0.337353 0.339125 
0.323067 0.324421 0.333147 0.29555 0.289695 0.286312 0.329983 0.306589 0.316434 
0.322203 0.330101 0.3176 0.325679 0.330515 0.296413 0.304406 0.317393 0.326618 
0.331235 0.326358 0.331836 0.333357 0.329767 0.33749 0.331595 0.33072 0.342893 
0.34191 0.336645 0.338072 0.335348 0.335643 0.33244 0.326635 0.324338 0.332608 
0.335012 0.317013 0.327585 0.334979 0.335486 0.335928 0.331357 0.332958 0.332768 
0.333029 0.298866 0.371497 0.331184 0.331605 0.323618 0.360431 0.343011 0.376566 
0.343091 0.344997 0.318793 0.332943 0.332198 0.283801 0.327625 0.329616 0.328758 
0.332082 0.334934 0.364618 0.335663 0.241985 0.335003 0.328934 0.330938 0.333437 
0.32231 0.267724 0.3325 0.328512 0.334111 0.340274 0.270165 0.306168 0.336551 
0.348713 0.331546 0.335947 0.282698 0.367745 0.333797 0.311169 0.337544 0.316386 
0.33151 0.237362 0.306807 0.321264 0.333886 0.295271 0.354068 0.329421 0.252222 
0.300356 0.309784 0.324047 0.332352 0.286306 0.333652 0.328245 0.354614 
Strain%20yz%20component 1 9350 double
-0.0998323 0.143761 -0.147537 0.0983894 1.97636e-05 -9.76893e-06 1.16429e-06 7.06908e-07 0.0180091 
-0.0182209 0.00508138 -0.0151397 -0.0156778 0.0250398 -0.0181866 0.0248354 0.119009 0.0742434 
0.0639797 0.0734658 0.0730989 0.0729202 0.0604134 0.0618463 0.0714491 0.0701943 0.0694186 
0.0580796 0.0682981 0.0673344 0.0687753 0.0584996 0.0608025 0.0743124 0.0777495 0.0729745 
0.059866 0.0451344 -0.0670063 -0.0805789 -0.106867 -0.0710716 -0.0723431 -0.0723291 -0.0721446 
-0.10564 -0.103119 -0.0699937 -0.0696526 -0.0692926 -0.066926 -0.099619 -0.0659971 -0.0675602 
-0.0666135 -0.068525 -0.103145 -0.0997593 -0.0713372 -0.076636 -0.0824791 -0.126842 -0.118978 
-0.0936026 4.10678e-06 -3.94867e-06 -3.31318e-06 -4.57447e-06 -4.6311e-06 -6.1506e-06 2.09157e-06 -6.50484e-06 
-6.01141e-06 -3.08087e-07 -2.58872e-06 5.07974e-06 6.39236e-06 1.30715e-05 -8.5059e-06 1.81053e-05 -7.2903e-06 
2.13185e-05 1.66736e-05 -5.82058e-06 6.72294e-06 -6.53279e-06 -7.30348e-06 -1.43841e-05 5.48517e-06 -2.14983e-05 
9.67548e-07 0.042335 -0.000424838 -0.000656465 -0.000257341 -0.000197076 -0.000180242 -0.000146794 -0.000121885 
-0.000101553 -7.86123e-05 -7.44016e-05 -8.04756e-05 -5.04366e-05 -4.99053e-05 -3.78689e-05 -3.79228e-05 -4.03756e-05 
-2.73258e-05 -2.56989e-05 -2.45486e-05 -2.02282e-05 -1.94803e-05 -1.88192e-05 -1.61947e-05 -1.38325e-05 -1.09439e-05 
-7.52762e-06 -5.22597e-06 -2.74228e-06 -2.76496e-06 2.66183e-06 -2.19268e-06 -7.91599e-07 -2.27896e-06 -1.96898e-06 
-4.36724e-06 -3.89901e-06 -5.6096e-06 -6.28112e-06 -9.18932e-06 -4.89277e-06 -3.55397e-06 -3.42973e-06 6.18096e-07 
3.85963e-06 1.40658e-05 8.36832e-06 8.58482e-06 1.1586e-05 -2.11999e-05 2.57815e-05 -0.000138793 -7.26499e-05 
4.95797e-05 -2.04464e-05 -0.000146736 -0.000270985 2.84432e-05 -7.42454e-05 -1.06128e-05 -3.48221e-06 3.96764e-05 
5.94245e-05 6.33101e-05 -5.21151e-06 0.00014644 -0.000372331 -0.000894558 0.0324859 -0.000871962 -0.00338046 
-0.0034575 -0.0028642 -0.00375192 -0.00476596 -0.0064345 -0.00929505 -0.0110066 -0.0164978 -0.0257885 
0.00432461 0.00381013 0.00333827 0.00410388 0.00691864 0.00869358 0.0112729 0.010949 0.0113292 
0.00994128 0.011466 -3.53128e-06 4.31761e-07 1.02684e-06 8.71622e-07 1.28365e-06 -3.77098e-06 7.75312e-07 
2.44378e-06 3.07409e-06 -4.69409e-06 -5.1124e-07 1.0344e-05 -3.36269e-06 6.29647e-06 -1.72422e-06 -1.41366e-06 
-3.75278e-06 8.34595e-06 4.27964e-07 -4.89083e-06 1.64358e-05 -1.41861e-05 -0.0346831 -0.00110339 0.000134427 
-0.000130391 -3.03994e-05 1.27893e-07 -1.56149e-05 -1.75134e-05 -1.27153e-05 -9.07072e-06 -5.95534e-06 -2.05613e-06 
-8.00784e-06 -6.10257e-06 -5.88439e-06 -2.09027e-07 -6.57318e-06 -8.97936e-06 -7.1283e-06 -4.29973e-06 -1.24994e-05 
-9.11157e-06 -1.10148e-05 -1.05879e-05 -1.4235e-05 -1.13221e-05 -1.05857e-05 -8.0204e-06 -7.88868e-06 -4.19913e-06 
-3.77294e-06 -2.37675e-06 -1.17885e-06 -1.62268e-06 -8.04949e-07 -2.48278e-08 -7.8828e-06 -4.71969e-06 -9.08633e-07 
-2.32504e-06 -1.7538e-05 -3.32128e-05 -6.18967e-05 2.8398e-05 4.60444e-05 8.30168e-05 4.28406e-05 0.000113029 
0.000313581 3.92978e-05 -4.18906e-06 -2.08477e-05 -1.74746e-05 -3.67065e-05 -7.28945e-05 -7.11725e-05 -9.7441e-05 
0.000205892 -0.000601222 -0.000963488 -0.016794 0.000504753 0.00165155 0.00187884 0.00374359 0.00481132 
0.00573536 0.00624747 0.00937549 0.0105966 0.0105004 0.0156665 -0.00564338 -0.00365171 -0.00469635 
-0.00527867 -0.00497345 -0.00540528 -0.0105808 -0.0108956 -0.00884279 -0.00989995 -0.0129769 2.81208e-07 
3.7946e-07 3.1782e-07 2.11625e-06 2.73129e-06 -2.85394e-07 4.06072e-06 3.85709e-06 8.05401e-07 -6.10689e-07 
-1.93406e-06 -6.53798e-07 -3.42622e-06 -9.20994e-06 1.52411e-06 -2.76457e-06 -1.29157e-05 -1.02408e-05 -3.64186e-06 
4.09171e-07 2.03528e-06 -1.68262e-06 3.37246e-06 8.92792e-06 -2.02077e-06 -7.9654e-06 0.00250883 0.00138075 
3.38014e-05 6.1602e-05 8.80892e-05 -1.72186e-05 -6.86297e-06 1.00314e-05 7.45434e-06 1.13624e-05 1.08769e-05 
8.05274e-06 4.25735e-06 4.99005e-06 5.71798e-06 3.4418e-06 5.03761e-06 1.03586e-06 -3.89247e-07 -1.76293e-06 
5.60209e-06 2.11517e-06 -2.54464e-07 -6.38154e-07 9.24041e-07 3.52123e-06 1.17838e-06 1.68441e-07 -8.96676e-07 
-4.82925e-07 1.58044e-07 -6.97856e-07 7.17301e-08 1.77468e-06 1.23386e-06 -8.80565e-07 4.60075e-07 1.75393e-06 
1.81381e-06 1.37016e-07 4.81158e-07 -5.58045e-08 -1.58126e-06 8.31824e-08 -7.95531e-06 -3.65541e-06 1.62089e-05 
1.24845e-06 0.000150394 8.53247e-05 2.50909e-05 2.57116e-07 -1.9842e-05 -3.5254e-05 0.000211109 1.38492e-05 
-3.42344e-05 -1.43919e-05 1.92965e-05 -5.58421e-07 -6.56711e-06 -1.5769e-05 -1.78741e-05 -4.66861e-05 0.000464778 
0.00148481 0.0418839 0.00524801 0.00943242 0.00785042 0.00805949 0.00871695 0.00899889 0.0123556 
0.0103713 0.00771166 0.00789563 0.00657535 0.0135954 0.00833836 0.00821802 0.00801737 0.00747317 
0.00914794 0.0115519 0.0107279 0.00895061 0.00868092 0.00978274 0.0152355 0.0162541 0.0148418 
-3.93408e-05 0.000450238 0.00109067 0.000668828 0.000494072 0.000939192 0.00173204 0.0018993 0.00452116 
0.00221857 0.00521582 -0.0159889 -0.00274199 -0.000233382 -0.000338805 -0.000502754 -0.000603846 -0.00142838 
-0.00205481 -0.000469851 -0.00525118 -0.00351259 -0.00433071 -0.0050608 4.51783e-07 0.00243712 0.00694843 
0.00130239 -0.000668221 0.000149363 -0.00330413 9.7184e-07 1.35642e-06 7.75731e-07 -7.99834e-08 -2.54297e-06 
3.73876e-06 2.04895e-06 6.54627e-07 1.87902e-06 3.04258e-07 -1.05655e-06 -8.38142e-06 -2.10043e-08 4.58096e-06 
-5.84301e-07 -7.72169e-06 -7.61431e-06 -6.01163e-07 -9.63716e-07 -1.04655e-06 1.67229e-06 4.66287e-06 -7.09188e-06 
-4.84521e-06 -0.000425558 2.71339e-05 8.53405e-05 4.52542e-05 -6.97323e-07 1.98981e-05 1.82337e-05 1.0555e-05 
1.14842e-05 -5.38695e-06 2.71785e-06 2.02266e-06 4.29192e-06 -1.23371e-06 1.15401e-06 3.24221e-06 1.62939e-06 
-1.31892e-06 -1.0143e-06 3.11627e-06 1.89422e-06 2.08481e-06 -1.32966e-06 -3.18543e-06 1.44243e-06 6.7671e-07 
-6.50467e-08 -2.23974e-06 -1.92835e-06 -1.11138e-06 3.84453e-07 1.02459e-06 1.14768e-06 -1.20175e-06 -5.11989e-07 
-1.88288e-07 7.9212e-07 1.87545e-06 3.45956e-07 -6.77067e-07 3.54952e-07 1.94636e-07 0.00118035 -2.84577e-05 
4.20966e-07 7.25528e-06 -4.24864e-05 -1.63865e-05 -6.57969e-06 5.21974e-05 -2.60785e-05 -0.000110308 2.31337e-05 
3.26837e-05 2.03392e-06 -6.80539e-06 -6.89612e-06 -2.81006e-05 -5.44257e-05 -3.79604e-05 0.000115723 -5.42698e-05 
0.0023645 -0.000852319 -0.000216591 -0.000181873 -0.00112214 0.00213023 0.00275868 -0.00094809 -0.000262795 
-0.000240636 -0.000786674 0.00176619 -9.75274e-05 -0.00116204 -0.000433714 -0.00114513 0.00198635 0.001643 
0.000679676 -0.000725841 0.00125252 0.00335426 0.000195497 -0.00040121 -6.69371e-05 -7.29292e-05 -3.81932e-05 
0.000294518 0.000215297 0.000517822 0.000125229 -4.67213e-05 -0.000626049 -6.14431e-05 0.000195028 -0.000453541 
-1.27843e-06 7.58551e-05 0.000421047 -0.000187272 -0.000296971 0.000607852 -1.39387e-05 -5.33071e-05 -0.000210555 
-0.000483233 9.30332e-05 0.000486392 4.06686e-05 0.000800488 -4.59009e-05 1.7498e-05 3.38043e-07 -6.79866e-07 
-1.13699e-06 -6.10806e-07 3.5849e-06 4.96483e-07 -1.47008e-07 -2.37844e-06 3.0188e-06 7.29348e-07 -5.85368e-08 
7.55836e-06 2.44237e-06 -7.33627e-07 -7.42561e-06 -8.13436e-07 1.37939e-06 5.00575e-06 2.2204e-06 -3.6833e-06 
2.38319e-06 1.74357e-07 1.23652e-05 4.40293e-05 -8.27741e-06 -3.85917e-06 2.61821e-05 9.08113e-06 1.44362e-05 
1.14279e-05 -4.31761e-06 9.5566e-07 -9.49687e-08 1.3346e-06 5.70872e-07 1.01969e-06 -1.05252e-06 9.84385e-07 
2.34905e-07 1.97557e-06 9.43709e-07 -1.5414e-06 -1.52447e-07 -2.51862e-06 -6.16278e-07 1.27945e-07 5.8386e-07 
4.18557e-09 -3.15128e-06 -1.57708e-06 3.58838e-07 3.15294e-07 9.24986e-07 -9.07415e-07 -1.86857e-07 -7.06728e-07 
1.04639e-06 1.07964e-06 1.98231e-06 7.80525e-07 -2.28047e-07 -6.58942e-06 -6.41307e-06 8.56478e-05 8.12597e-05 
-0.000209974 -0.000168227 -1.30409e-05 -1.56437e-05 -1.42601e-05 -3.03056e-05 -2.63485e-05 8.68064e-05 8.40779e-06 
2.32315e-05 -0.000152865 -8.36173e-05 -9.98067e-05 -9.11687e-05 -0.000125062 -1.27536e-05 -6.80413e-05 -7.12957e-05 
-8.78654e-05 -6.52074e-05 -7.80028e-05 -0.000101613 -6.24573e-05 -0.000116321 -0.000121058 -0.00014779 -5.70754e-05 
-5.32603e-05 1.18981e-05 -8.01647e-05 7.93651e-06 1.34643e-05 -6.43567e-05 5.85879e-06 2.95327e-05 -4.23344e-06 
2.99903e-05 4.74358e-06 -0.00017879 -2.49008e-05 -4.69121e-05 -9.35049e-05 5.22763e-05 -3.04855e-05 3.35621e-05 
-8.86291e-06 5.56337e-06 -4.85717e-06 -0.000221337 -1.22025e-05 0.000104459 0.000184597 0.000141758 4.55832e-05 
8.6174e-06 -0.000118107 -0.000112302 -3.85322e-05 3.99924e-07 -1.7059e-06 1.74377e-06 5.92691e-07 1.14175e-06 
-1.35442e-06 2.21026e-06 2.41899e-06 3.1655e-06 -4.78882e-06 9.93571e-06 4.0343e-06 4.75495e-07 9.08573e-07 
-2.45736e-06 2.45916e-06 1.6148e-06 -1.09481e-06 -1.28434e-06 7.05964e-05 2.70442e-05 -9.84354e-06 1.62257e-05 
-6.16105e-06 7.58145e-06 -4.94451e-07 1.22228e-05 1.08771e-05 1.51148e-06 -8.57424e-07 6.98298e-07 7.67997e-06 
-3.40925e-08 2.37015e-06 -1.22037e-06 1.70438e-07 1.41423e-06 7.35342e-07 -2.03669e-07 7.61487e-07 -1.29228e-07 
-1.44311e-06 -6.29809e-07 -7.56233e-07 2.04361e-06 -5.42465e-07 -4.14938e-06 -1.12447e-06 2.0117e-06 -6.97883e-07 
-1.98508e-08 2.09864e-07 1.92955e-07 5.00056e-07 -7.78369e-07 4.44847e-07 1.80414e-06 -0.000186985 -7.60841e-05 
-1.75938e-05 2.43136e-05 -9.1377e-07 -3.43663e-06 2.82783e-06 -3.00565e-05 -5.10537e-05 -3.75162e-06 -1.00179e-05 
-1.24023e-05 -3.09916e-05 -7.52885e-06 -1.86386e-05 5.82717e-06 -2.98918e-06 5.35926e-07 5.50136e-06 7.96999e-06 
-8.0284e-06 -1.4753e-05 -2.71041e-05 -3.47123e-05 -2.20154e-05 1.80261e-05 -1.79631e-05 6.20056e-05 1.72981e-05 
9.93607e-07 -1.32377e-07 -1.07285e-06 1.34952e-05 -5.16048e-08 -1.06375e-05 -8.61997e-06 4.12466e-06 -0.000120067 
-6.15402e-06 1.62332e-06 -1.13796e-06 0.000107808 5.0302e-05 1.34032e-05 1.13814e-05 -7.48402e-06 -2.84907e-06 
-3.61488e-07 2.28893e-06 2.04429e-06 2.75694e-07 -2.60423e-08 3.44569e-06 -8.36814e-06 9.62261e-06 -2.10494e-05 
5.25389e-06 -7.09411e-06 2.18034e-05 5.86056e-05 -7.48546e-06 2.90202e-05 -1.05476e-06 1.7439e-05 1.21141e-06 
-5.24444e-06 1.27879e-05 5.32652e-06 2.40235e-06 -4.08744e-06 6.05056e-07 4.64204e-06 6.27924e-07 -1.29271e-06 
-8.59046e-07 1.66548e-06 2.21058e-06 -6.23328e-08 -1.48324e-06 8.74288e-07 -1.51603e-07 -1.53834e-06 -1.22759e-06 
2.33772e-06 9.5423e-07 -2.8751e-06 -5.68337e-06 4.40542e-07 2.69495e-06 -4.70278e-07 -4.33557e-06 -2.52684e-07 
-1.98462e-06 -1.42522e-06 2.75352e-06 3.9486e-07 1.78166e-05 4.4894e-05 -6.08048e-05 2.82739e-06 -2.28875e-05 
1.90811e-05 9.50101e-06 -1.52097e-05 -7.81364e-06 2.26627e-05 -1.45796e-05 -2.09243e-05 2.78545e-06 1.84287e-06 
1.53238e-05 -7.22964e-06 2.1495e-05 6.92694e-06 -1.09601e-05 -3.41412e-05 -8.06536e-06 1.64066e-05 6.56228e-06 
-3.51507e-06 -9.60626e-06 3.71406e-06 3.15655e-07 1.88238e-05 1.17216e-05 1.87664e-05 1.88778e-05 4.15313e-06 
7.22035e-06 -2.17443e-06 -5.8159e-06 1.06351e-05 -6.33992e-06 1.88651e-05 1.96553e-05 -2.07875e-05 4.90435e-06 
1.87907e-05 2.96908e-05 1.31497e-05 -1.67025e-05 2.61618e-06 2.75807e-05 -7.81012e-06 -2.85248e-06 1.28815e-05 
1.3404e-06 5.35942e-06 -5.82879e-07 5.97095e-06 6.56807e-07 4.57836e-06 -4.85709e-06 -1.4201e-07 1.44917e-06 
-7.04589e-07 7.62082e-07 -6.75313e-07 1.7181e-07 -1.56751e-06 1.10508e-07 -4.43784e-06 7.25665e-07 2.40367e-06 
1.96945e-06 -9.33526e-06 -3.56565e-07 6.3542e-06 -1.14105e-05 -2.20322e-06 6.58154e-06 -5.95622e-07 1.39914e-05 
-7.00718e-07 8.84065e-06 -1.87545e-05 2.33477e-05 6.04891e-06 -1.64903e-06 2.1926e-07 1.37289e-05 6.47365e-06 
3.60969e-06 1.32089e-06 -8.26863e-06 4.76566e-08 4.25135e-07 -2.78317e-05 -2.75902e-06 -8.99291e-06 7.26277e-06 
-1.30711e-05 -2.54181e-06 7.70536e-08 -2.11993e-05 -8.96234e-06 -2.86224e-05 1.27555e-05 -9.04747e-06 1.20765e-05 
5.28719e-06 1.66373e-05 3.14401e-05 1.42976e-06 -1.7058e-05 1.97021e-05 -1.44642e-05 1.536e-05 5.96333e-06 
-1.26774e-05 -2.42001e-06 1.18866e-05 2.47019e-06 3.4552e-06 7.00178e-06 -6.32356e-06 5.6093e-06 9.2316e-06 
8.41278e-07 -4.35706e-06 -1.86328e-06 -1.14685e-06 2.77926e-07 -2.98223e-06 -2.37218e-06 2.35833e-05 -6.8015e-06 
-1.10724e-05 -3.37719e-06 1.39306e-05 3.40066e-06 -5.04299e-06 -7.95606e-06 4.23934e-05 3.94005e-05 -2.15849e-05 
3.9785e-05 -5.2428e-06 -6.9879e-06 4.63854e-07 1.89148e-05 -1.44165e-05 9.29643e-07 7.23066e-06 1.28766e-05 
-2.25487e-06 -2.76698e-06 -1.08754e-05 -5.25614e-06 -1.9048e-06 1.4833e-05 -2.20546e-05 3.63984e-05 -5.07095e-06 
3.69026e-06 -3.10653e-06 -8.79519e-06 2.02489e-05 -1.32145e-05 6.18402e-06 1.12205e-06 1.52966e-05 -2.29026e-06 
-3.00264e-05 4.946e-06 7.78468e-08 1.70248e-06 5.16383e-07 7.95621e-07 1.7376e-06 -1.93074e-06 -1.97707e-07 
6.57034e-07 -3.52093e-07 -8.55743e-07 3.35646e-06 5.79773e-08 9.8873e-07 2.57841e-06 1.16733e-06 -3.27864e-07 
2.93017e-07 2.6879e-06 -4.79135e-07 5.3321e-07 6.25844e-06 -0.0158931 -3.21652e-05 -4.27714e-06 -2.19745e-05 
5.19434e-06 1.18348e-05 1.28591e-05 4.43631e-06 -2.54266e-06 7.91493e-06 7.40227e-06 6.4585e-07 -2.09793e-06 
2.27984e-06 3.97893e-06 2.20078e-06 2.47883e-06 2.48805e-06 3.19145e-06 2.03037e-06 1.37707e-06 4.78178e-08 
1.31387e-06 3.84095e-06 2.77964e-06 6.75635e-07 7.8716e-08 7.14211e-07 1.24953e-06 8.51044e-07 -1.0114e-06 
-2.26928e-07 5.22919e-07 1.63968e-06 9.35281e-06 5.07773e-06 -2.15945e-07 -3.36201e-06 1.30627e-05 -5.08589e-05 
-4.712e-05 -7.67231e-05 -3.67365e-05 -1.83768e-05 -6.76991e-05 -4.27604e-06 -0.000106701 -1.62521e-05 -7.80649e-06 
6.08776e-06 7.39132e-06 6.55623e-06 -7.08309e-05 -0.000151234 7.65561e-05 0.000825202 -0.00719236 -0.0211588 
-0.00769009 -0.0102841 -0.00992714 -0.00754284 -0.0220698 -0.00743308 -0.00994404 -0.0101026 -0.0087006 
-0.00879583 -0.00817594 -0.00971844 -0.00680872 -0.0219711 -0.00742334 -0.00816855 -0.0079645 -0.0226949 
-0.0170637 0.00148356 0.000487724 -0.00051381 -0.000392599 -0.00083708 -0.0009093 -0.00122264 -0.00239928 
-0.0047463 -0.00425278 0.00020614 0.00861342 -0.000671565 0.000428113 0.000652413 0.000541136 0.000726468 
0.000583534 0.00547031 0.00675489 0.00221175 0.00202187 0.00188838 0.00640508 1.60446e-05 -7.64173e-05 
-0.0051779 -0.00159615 0.00290893 -0.00121814 -0.000139466 -0.000376454 1.14751e-06 3.25408e-07 1.81784e-06 
-7.97888e-07 1.14583e-06 -4.48466e-07 1.30462e-06 -5.15971e-07 1.54663e-06 -5.82544e-07 -2.51348e-06 9.30788e-07 
-4.10349e-08 -4.36932e-07 -3.38973e-06 -4.82392e-06 3.03847e-07 -1.31448e-06 5.06197e-06 -4.22041e-05 -2.36293e-05 
2.40271e-07 -0.000320468 -2.3846e-06 5.54257e-06 -2.9671e-06 -1.02147e-05 -4.10088e-06 -6.17234e-06 6.76115e-06 
-3.59236e-06 -2.03599e-06 2.93022e-07 2.81651e-06 -2.11122e-06 -2.58711e-06 -1.07506e-06 7.97937e-07 5.55293e-07 
-4.0008e-07 6.65488e-07 -8.65908e-07 8.60334e-07 1.81778e-06 8.77092e-07 -1.61783e-06 1.11492e-06 2.20876e-07 
8.70672e-08 -4.63854e-07 -1.02632e-06 2.23168e-07 -1.39219e-07 2.21587e-06 -1.32014e-05 -2.01829e-05 -5.43325e-05 
2.23439e-05 9.04432e-06 -1.10696e-06 6.1826e-06 -1.67876e-06 8.55245e-07 1.1844e-05 1.5305e-05 0.000149109 
0.000154278 0.000630539 -6.37081e-05 -0.000661961 -0.0002717 0.000148064 1.54537e-06 0.000300057 7.47846e-05 
-6.96141e-05 0.000300573 9.11402e-05 0.000901501 0.00097882 0.000100964 -0.000140851 0.000476544 0.000167718 
0.000746832 6.6191e-05 0.000162164 -0.00112717 0.00022043 -0.000199226 9.2212e-05 -0.000102598 0.000139435 
0.000120204 4.79081e-05 0.000362667 -0.00043767 0.000143838 0.00017659 8.78318e-05 0.000363499 -0.000310174 
-0.000160762 9.71629e-07 -8.1781e-06 -0.000754789 0.000964775 0.000156133 2.99184e-05 -0.000554917 0.00012485 
-2.37485e-05 -0.00026935 -5.24433e-05 4.16851e-05 -8.14471e-05 -0.000513458 0.000184805 0.000183757 -6.44551e-06 
-6.35125e-07 1.62661e-07 -1.3932e-07 -1.46826e-06 7.51977e-07 1.73025e-06 -2.74763e-07 -1.38491e-06 -3.40602e-06 
-9.91157e-07 -9.73512e-07 -2.0328e-06 3.3838e-06 6.63536e-06 2.97843e-05 2.16322e-06 0.000107105 3.65285e-05 
4.53391e-05 1.18343e-05 -4.98777e-06 -5.047e-06 -1.51222e-06 6.04373e-06 1.94155e-06 -4.67338e-06 -9.51328e-07 
3.8159e-06 1.06301e-06 -1.31719e-06 -8.65415e-07 1.95318e-06 -8.23078e-07 7.70924e-07 -4.46539e-07 -5.93136e-08 
1.77752e-06 2.02801e-07 -5.19477e-07 2.31824e-08 -1.3666e-07 -6.24217e-07 2.85145e-07 -1.90672e-07 -2.9692e-07 
-0.000149831 -4.81005e-06 9.51759e-06 2.02936e-06 2.68542e-06 -7.54281e-06 -4.49934e-07 5.97543e-05 4.19619e-05 
5.20812e-05 5.92901e-05 8.59379e-05 2.8723e-05 -1.10732e-05 1.13333e-05 6.68467e-05 6.46471e-05 6.90014e-05 
3.79428e-05 3.08161e-05 6.07619e-05 5.46901e-05 3.51442e-05 4.01219e-05 -1.21886e-06 -5.02333e-05 -1.91141e-05 
2.74802e-05 5.03165e-06 -1.84827e-06 -4.02234e-05 -7.66785e-05 8.45461e-05 -9.50768e-05 3.26868e-05 9.92553e-06 
5.2054e-06 4.43461e-05 7.55835e-05 -2.84927e-05 8.72133e-07 0.000151516 -5.25748e-05 8.66848e-06 -1.49023e-07 
-6.42463e-05 0.000118962 -6.66452e-06 4.72522e-05 9.41187e-05 -5.86264e-06 -1.88598e-06 -8.74646e-06 -1.03609e-05 
1.33001e-06 1.04676e-05 -1.6676e-06 -3.97405e-05 -4.35508e-06 -8.79862e-06 -5.12132e-05 2.58243e-05 -1.02937e-08 
-1.94069e-06 -1.04986e-06 5.23591e-06 -3.88073e-06 1.37329e-06 4.88324e-06 -1.36771e-06 -2.4784e-06 1.44122e-06 
1.90641e-06 -6.28251e-07 -1.0049e-06 6.2978e-07 -6.94977e-07 -5.59873e-07 1.90446e-06 5.17306e-07 -2.78166e-06 
1.72065e-06 -7.65397e-07 -3.60047e-07 4.62801e-07 -6.88418e-07 1.11547e-05 4.82471e-06 -2.41215e-05 -2.14241e-05 
1.36128e-05 -4.0467e-06 5.49843e-07 -1.24661e-06 -8.40734e-07 1.37958e-05 4.28434e-06 1.12051e-06 -4.3426e-06 
4.61054e-06 9.70431e-06 1.24695e-05 4.24157e-05 -7.005e-06 1.07854e-06 5.01701e-05 -7.84683e-05 6.17748e-06 
-6.55676e-06 8.08305e-05 -2.53668e-05 -2.16463e-05 2.97899e-05 5.18161e-05 -5.05909e-05 -2.44143e-05 3.17113e-06 
2.63337e-05 -3.01738e-05 -0.000114945 2.58834e-06 2.10672e-06 1.29899e-06 6.03998e-06 1.98488e-06 1.20206e-06 
2.22758e-06 -4.71823e-06 -6.45298e-06 4.04262e-05 -2.4457e-05 -1.48307e-06 1.7811e-05 -1.5792e-05 4.25705e-05 
1.98976e-05 1.18659e-05 -3.0371e-05 5.25876e-05 -2.69356e-06 3.91466e-05 5.62207e-06 1.61813e-06 -1.582e-06 
4.44212e-06 1.53154e-07 -2.36135e-06 -2.03382e-07 3.16988e-06 -4.53428e-07 3.59839e-08 6.06058e-08 1.13177e-06 
-2.63568e-06 -2.45497e-07 9.22621e-07 -3.64215e-06 -2.46313e-06 -1.71226e-06 7.20859e-07 3.93316e-06 5.7403e-06 
-5.82843e-06 1.99643e-05 -2.60832e-05 4.00227e-06 -8.38627e-06 -1.38129e-05 1.80926e-05 1.268e-05 2.27241e-05 
-3.71678e-06 1.10124e-05 7.73699e-06 4.78965e-06 -1.48039e-06 5.37139e-06 -1.11835e-05 1.18049e-06 -1.81177e-05 
9.74755e-06 9.13089e-07 -6.45666e-06 -4.35056e-06 3.32526e-05 -3.57421e-06 -3.54713e-06 3.14495e-06 2.26105e-06 
1.54076e-06 -6.2147e-06 -1.33146e-05 5.65514e-07 -2.76051e-05 -2.58077e-05 -1.30579e-05 -6.26643e-06 -6.5175e-05 
8.57686e-07 -4.333e-07 6.67748e-06 2.86124e-05 -1.18513e-05 -1.03036e-05 1.92393e-05 -5.27118e-05 2.86687e-05 
2.26682e-05 -2.59023e-05 6.11042e-07 2.08879e-06 -1.34413e-06 -1.19812e-06 4.46326e-06 -1.45173e-06 1.63039e-06 
-7.29802e-07 3.11359e-07 5.34105e-06 2.21954e-06 -5.41771e-06 3.64679e-06 3.52524e-06 6.81758e-06 -2.13855e-05 
3.85604e-05 -7.33518e-05 2.66004e-05 -4.54443e-05 9.0543e-06 1.05922e-05 -1.27931e-05 1.40945e-05 -4.7031e-06 
-4.05296e-06 -1.19419e-05 -1.28436e-05 1.6995e-05 -1.14204e-05 -1.4571e-05 8.36391e-07 -6.00467e-06 2.39707e-05 
-9.25567e-06 -9.88576e-06 8.7919e-06 1.28533e-06 -2.51744e-06 5.9046e-06 2.0665e-05 -3.98766e-07 3.95309e-09 
-3.43008e-07 2.55899e-05 -4.14542e-06 -1.49594e-05 3.13895e-06 6.45786e-06 -1.06545e-05 -6.33878e-06 1.03987e-08 
6.77875e-06 -4.81747e-06 9.87757e-06 -1.49251e-05 -3.78381e-06 3.9398e-06 7.78038e-07 1.219e-05 2.79559e-05 
-7.15001e-06 -1.54849e-05 4.27627e-06 1.56934e-05 -6.18328e-06 -6.66817e-06 7.8424e-06 4.95313e-06 1.52001e-05 
-1.45561e-06 6.85083e-06 6.34434e-06 -3.52709e-06 2.3499e-05 9.0327e-07 -2.22548e-05 -2.30204e-06 6.20571e-06 
-1.77899e-06 8.73494e-06 1.2372e-05 1.14648e-05 -6.41057e-06 1.26653e-06 9.59484e-07 1.09692e-05 5.78174e-06 
-2.64048e-05 -2.23345e-05 -1.78105e-05 2.70906e-06 -3.17272e-06 1.58885e-06 0.00113766 0.00128376 0.0346829 
-0.0366302 0.129348 0.117474 0.0583653 0.0985863 0.0997153 0.0978262 0.099845 0.0565228 
0.0976736 0.0960865 0.0956765 0.0891867 0.0933421 0.0915867 0.0918648 0.094176 0.0551901 
0.0982966 0.103636 0.110285 0.0672513 0.0513353 0.0734949 -0.082761 -0.0700631 -0.106895 
-0.104561 -0.100841 -0.0996487 -0.100088 -0.101957 -0.103312 -0.101537 -0.0954081 -0.0968136 
-0.0942265 -0.0956033 -0.0942398 -0.0936816 -0.0945716 -0.0922344 -0.0995184 -0.0998349 -0.0996735 
-0.10145 -0.106279 -0.128349 -0.121084 -0.114473 -0.132482 6.92368e-06 3.16431e-06 -6.10437e-06 
-1.07485e-05 -1.27898e-05 -1.29438e-05 3.16321e-06 -3.69212e-06 -1.81946e-05 -2.18642e-05 -5.13393e-06 6.03814e-06 
2.76708e-05 2.86027e-05 1.4899e-05 -7.11829e-06 -4.56398e-06 3.72119e-05 4.98944e-05 3.6755e-05 5.9702e-06 
-9.7246e-06 -3.07119e-05 -2.75884e-05 -1.64686e-05 -2.64369e-06 -1.82074e-05 8.55656e-06 -0.0382332 0.0206168 
-0.00153737 -0.000763814 -0.00048648 -0.000304886 -0.000199223 -0.000192287 -0.000156869 -0.000133384 -0.000111179 
-9.00028e-05 -8.21025e-05 -7.12814e-05 -6.31427e-05 -5.22683e-05 -4.53946e-05 -4.74692e-05 -3.95285e-05 -3.49044e-05 
-2.92581e-05 -3.19532e-05 -2.85033e-05 -2.16593e-05 -1.40508e-05 -1.00731e-05 -9.57352e-06 -1.05248e-05 -8.59283e-07 
4.99838e-06 5.6699e-06 5.07425e-06 5.90733e-06 2.64989e-06 -1.95686e-06 -3.70766e-06 -1.38291e-06 -6.61955e-06 
-1.07926e-05 -1.08975e-05 -9.25736e-06 -8.69612e-06 -5.8985e-06 3.11894e-07 6.0661e-06 3.62591e-06 3.35253e-05 
-2.20046e-06 -2.12082e-06 -9.26224e-06 -2.42391e-05 -1.92672e-05 4.65348e-05 0.000177687 0.00015623 -2.99744e-05 
-6.61788e-05 -0.000181604 -0.000703914 -0.000102518 0.000368683 0.000162526 -2.77538e-05 -1.88998e-05 -4.84005e-05 
-8.78702e-05 -0.000226653 -0.000169119 -0.00115135 0.00306865 -0.0113867 -0.0258257 -0.00408916 -0.00263693 
-0.00335228 -0.00472819 -0.00333944 -0.00444393 -0.00738173 -0.00816104 -0.0118097 -0.0143973 -0.0219081 
-0.0176479 0.0196471 -0.00161158 0.0050505 0.00340359 0.00373608 0.00764989 0.00831447 0.00998667 
0.0138237 0.0114388 0.0132867 0.0114538 0.0139772 -4.08018e-07 2.71877e-06 5.61156e-06 8.2066e-06 
7.70882e-06 4.92238e-06 1.10868e-05 6.18136e-06 -8.57853e-08 2.40588e-06 -4.92971e-06 -1.67677e-05 -8.37508e-06 
-7.28974e-06 -3.05267e-05 -1.80832e-05 -5.15432e-06 -2.49998e-06 3.40596e-06 1.77199e-05 1.47197e-05 -4.90812e-06 
-1.82771e-05 0.0101122 -0.00711332 0.00017308 6.23033e-05 5.43852e-06 6.15315e-05 4.18682e-05 1.36643e-05 
2.31007e-06 2.74287e-05 6.19537e-06 3.29965e-06 7.94002e-06 1.40663e-05 2.47858e-07 2.93201e-06 3.35248e-06 
-7.27876e-06 -5.54715e-06 -1.41316e-06 -2.63331e-06 -5.4382e-06 -1.72041e-05 -1.52197e-05 -1.85995e-05 -1.89211e-05 
-1.49646e-05 -1.37542e-05 -7.75838e-06 -4.65368e-06 -4.0183e-06 -8.68682e-07 9.4559e-07 4.07921e-07 -1.56039e-06 
-3.73731e-06 -2.29101e-06 -8.23997e-06 -2.56646e-05 2.09008e-06 1.85762e-05 2.63624e-05 -2.55811e-06 -6.8031e-05 
-3.68967e-05 6.18945e-05 0.000219305 -2.86642e-05 -9.02485e-05 0.000463641 0.000140951 -0.000363226 -3.52952e-05 
4.26266e-05 5.33151e-05 3.82279e-05 1.00224e-05 -4.34168e-06 -5.36941e-05 -0.000554007 -0.000677076 -0.00498672 
0.0455206 0.0278555 0.00174506 0.000392804 0.00186831 0.00271589 0.00496734 0.00616849 0.00808012 
0.00938084 0.0131638 0.00917334 0.0188709 0.0120098 -0.0339022 -0.00234269 -0.00420681 -0.00496678 
-0.00575622 -0.00484648 -0.00612847 -0.00685737 -0.0132299 -0.010113 -0.0102897 -0.0165817 -0.0154125 
1.28795e-05 -4.21159e-10 0.0118691 -0.000476083 -0.0038601 0.0170193 0.0399744 -0.0484146 0.0297122 
0.0282392 -0.00336977 -0.0276116 -0.0311411 0.0017786 0.000848941 0.000469609 0.00106506 -0.000464147 
0.000893066 -0.000171047 0.00087042 -0.026903 -0.0296852 0.000168716 0.000731153 0.00055267 0.000503267 
-0.00092098 0.00182019 -0.00111556 -0.000658107 0.000413449 0.00053137 -9.69741e-05 0.00052708 -0.000592875 
0.00256196 -0.00070368 0.00156347 -0.0258108 -0.0282829 -0.00109399 0.00108632 -0.00131552 0.00082587 
-0.00259141 0.000251742 -0.03972 -0.0328386 -0.0329712 -0.0224397 -0.0308974 -0.0298341 -0.0299479 
-0.0344667 1.59818e-06 3.67422e-06 3.77014e-07 -1.13634e-06 -1.4296e-06 -1.82569e-06 -1.22434e-06 8.0568e-07 
-2.31e-07 -2.34713e-06 -6.37051e-07 3.33005e-07 -2.79726e-06 4.81473e-07 2.62318e-06 -1.18957e-06 3.96358e-06 
-1.06057e-06 5.26163e-06 5.19778e-06 6.20442e-06 -1.84934e-06 1.94422e-06 6.72439e-06 -5.8483e-06 -1.41133e-06 
-1.60323e-06 1.01007e-06 -8.15674e-06 -3.58593e-06 2.44161e-06 8.03277e-07 -8.82601e-06 4.84906e-06 7.63975e-06 
6.86249e-06 2.40348e-08 6.20026e-06 1.69597e-06 -6.28182e-06 -1.07979e-05 -4.47384e-06 -1.35236e-05 9.34013e-06 
-1.4632e-05 7.30099e-06 -1.7753e-05 6.42181e-06 -1.1485e-05 -2.69289e-06 -9.8761e-06 2.87513e-06 9.76823e-07 
-1.59922e-05 7.21289e-06 -4.84577e-06 2.08736e-06 -4.84874e-06 1.51152e-05 4.05095e-06 -2.48296e-06 -3.23145e-06 
1.35103e-05 -8.002e-06 -1.132e-05 -1.27079e-05 -1.80639e-07 -7.67548e-06 -3.12733e-06 5.37699e-06 8.10742e-06 
7.50614e-06 1.49657e-05 -1.55142e-05 1.04504e-05 -2.26643e-05 -9.37868e-06 3.09176e-06 2.29211e-05 0.0138193 
-1.1306e-05 -0.00532058 0.020743 0.00780527 -0.00228738 0.000416743 0.00583073 -0.000219218 2.57856e-05 
0.0010673 -6.39417e-06 8.71102e-05 8.47099e-06 2.75207e-05 0.000139449 5.35987e-05 -0.000128825 -0.000134351 
7.926e-05 -7.07671e-05 -9.04431e-05 1.84937e-05 -5.89773e-05 -5.00049e-05 6.34445e-06 -5.30013e-05 -3.01333e-05 
-1.35101e-05 -2.6148e-05 1.8243e-05 -2.06266e-05 -1.36803e-05 -5.38874e-06 1.56192e-05 -1.16467e-05 -2.25064e-05 
2.23747e-05 -1.83516e-05 -2.61645e-05 -2.96241e-06 -2.27597e-05 -1.31406e-05 -5.55998e-06 -1.75896e-05 5.16205e-07 
1.04898e-06 -2.86445e-06 -5.53303e-06 6.81826e-06 4.14688e-06 -9.06912e-06 1.03157e-05 -1.10233e-05 -1.20881e-05 
-6.36138e-06 -1.48243e-05 -1.25664e-05 -2.88053e-06 -1.75944e-05 -1.3977e-05 3.25683e-06 1.09745e-05 -4.09206e-06 
4.49141e-06 -4.99105e-06 -8.25882e-06 -5.91535e-06 -9.04495e-06 -9.51938e-06 -3.75557e-06 -1.21322e-05 -1.18331e-05 
1.08724e-06 -1.03514e-05 -1.24021e-05 5.0976e-06 6.65453e-06 -4.25083e-06 3.51849e-06 8.51487e-06 1.03491e-06 
8.52312e-07 -1.17318e-06 2.60763e-08 -2.77982e-06 -2.66024e-06 -5.42801e-06 2.51948e-06 -2.09361e-06 -3.25664e-06 
-1.86198e-07 -1.20927e-06 -6.32362e-07 -9.92186e-07 -2.83975e-06 -5.19564e-07 2.61197e-07 1.13415e-06 -6.89048e-07 
2.04477e-06 1.68851e-06 4.56238e-06 -1.72932e-07 -3.10393e-06 4.56295e-06 -9.54431e-07 -7.87696e-06 -3.45623e-06 
1.24014e-06 -2.03706e-06 -1.9961e-06 2.20616e-06 -6.92929e-07 6.18083e-07 -8.23916e-07 -4.89477e-07 1.3498e-06 
-7.8919e-07 -3.34855e-06 -2.01095e-06 1.68907e-06 -1.13897e-06 -1.25535e-06 -2.55889e-07 -1.04103e-06 -1.90161e-06 
-8.57122e-07 -3.55561e-06 -4.71381e-06 3.55375e-07 -8.49128e-07 2.0231e-06 -2.98751e-07 -4.8985e-06 -3.67832e-07 
-1.02816e-06 -1.75282e-06 6.24203e-06 2.26452e-05 2.27905e-06 2.93196e-06 5.5034e-05 -7.10045e-05 -1.83156e-05 
7.95448e-05 -8.20528e-05 9.98399e-05 -7.76744e-05 -0.000111846 0.000162982 -3.75622e-05 -6.27729e-05 0.000160948 
-1.78919e-06 0.00018252 4.35754e-05 -3.72185e-05 0.000232072 -1.73171e-05 0.000100217 0.000169182 0.000124953 
0.00033854 0.000278571 0.000195889 5.62349e-05 -0.000111464 -0.000100846 -2.72902e-06 -0.000106812 -3.98728e-06 
1.62469e-07 -4.52265e-05 0.000115076 1.51739e-05 4.12903e-05 -2.55361e-06 8.79042e-06 4.18783e-05 -8.26906e-06 
2.22709e-05 4.60349e-05 -3.68572e-05 6.02622e-05 6.52876e-05 -8.46362e-05 0.000158063 0.00025105 -0.000147324 
-0.000118677 0.000538283 -0.000156564 0.000834093 -0.000362038 -0.000124547 0.00101478 0.00314273 0.000474855 
0.000393333 -0.0110769 -0.00694424 -0.0352783 -0.0437794 0.0246252 -0.044044 -0.0312869 0.00682386 
-0.0356881 -0.0324 0.00939987 -0.0335446 -0.0327823 0.00968634 -0.0314775 -0.0329852 0.0103452 
-0.0319997 -0.0426958 0.0103431 -0.0396172 -0.0420243 0.0127045 -0.0412333 -0.0303572 0.0107746 
-0.0328672 -0.0304231 0.00997763 -0.0307925 -0.0310775 0.00992495 -0.0302694 -0.0330502 0.00965166 
-0.0275044 -0.0415989 0.0115997 -0.0446258 -0.0303805 0.00910039 -0.0308267 -0.0290368 0.0097314 
-0.0305966 -0.0299741 0.00895811 -0.0302201 -0.0326594 0.00868373 -0.0301501 -0.0415034 0.00954433 
-0.0392038 -0.0414013 0.0127452 -0.039837 -0.0297431 0.0100317 -0.0336685 -0.0321909 0.0111767 
-0.0359042 -0.0362588 0.0108276 -0.0395618 -0.0516013 0.010783 -0.0483293 -0.0450054 0.0132136 
-0.0368416 -0.0331502 0.0195866 0.0019986 -0.00138109 -0.00185118 -0.0152063 -0.00299624 -0.00106532 
-0.000142529 -0.00265886 -0.00257266 0.00043818 -0.00428578 -0.0024096 0.0014997 -0.00443355 -0.00341592 
0.00107043 -0.00508997 -0.0037757 0.00193564 -0.00577611 -0.00407591 0.0027512 -0.00676444 -0.00451256 
0.00340718 -0.00357476 -0.00246027 0.0011388 -0.0102023 -0.00848886 0.00646202 -0.0161093 -0.0118709 
0.00142088 -0.00595579 -0.00219961 0.00413246 -0.00136153 0.00407901 0.00710652 0.00432916 -0.00322674 
0.0048011 0.00373661 0.00500338 0.00442774 -0.00138 0.00676196 0.00521223 0.00619226 0.00590847 
-0.00193881 0.00735458 0.00969844 -0.00280631 0.00966244 0.00384852 0.0028582 0.00314987 -0.00466167 
0.00506939 0.0079957 -0.00595809 0.0098495 0.0123133 0.0103381 0.00521636 -0.0032909 -1.96425e-06 
-0.0356706 5.99369e-06 1.56641e-05 0.0109468 -0.0144381 -0.0131975 0.012497 0.026891 0.000890933 
-0.0023681 0.00446147 -0.00880147 0.0101733 -0.00852323 0.000254357 0.00326406 0.00539119 -0.0138124 
-0.00761635 -0.00178105 -0.00151555 -0.00140588 -0.00316878 -1.26668e-05 0.0136627 0.000388914 0.00289027 
1.39204e-06 -1.05139e-06 -5.67621e-07 2.02184e-06 2.91851e-06 2.07786e-06 1.20668e-07 9.42683e-08 -1.73379e-07 
-3.02921e-06 -6.46157e-07 5.02698e-06 9.63603e-07 -1.21782e-06 3.21289e-06 4.50903e-06 3.0932e-06 -4.86967e-06 
2.47989e-06 9.23546e-07 -1.26613e-06 -5.71221e-07 1.86852e-06 3.44284e-06 -6.07551e-06 -2.84065e-06 3.01424e-06 
2.38162e-06 5.88734e-06 -7.91303e-07 2.24454e-08 -2.01273e-08 -9.41114e-06 -1.36848e-06 -5.69127e-06 -3.39975e-06 
-5.26398e-06 -5.6102e-06 -2.21914e-06 -7.89282e-06 -2.85034e-06 -5.65248e-06 -4.33383e-06 1.82135e-06 -2.07017e-06 
-8.93818e-06 -6.10259e-06 2.817e-06 -8.99054e-06 -3.16169e-06 1.33102e-06 -2.75118e-06 -5.08327e-06 -5.96486e-06 
7.44453e-06 4.78219e-06 -6.93663e-06 -3.16458e-06 -1.19338e-05 -5.00872e-07 -1.68691e-06 -1.72383e-06 7.29627e-06 
-9.58184e-08 7.987e-06 -1.89528e-06 -2.79128e-06 -9.4605e-07 -4.68975e-06 -7.52889e-06 -1.43474e-06 0.000160747 
-0.000580609 0.000100659 0.000150646 3.00121e-05 2.27366e-05 0.000176155 0.000232477 6.49373e-05 0.00014462 
0.000124421 -3.13599e-05 -4.99727e-05 4.23454e-05 5.09748e-06 -1.13716e-05 4.3267e-05 2.28922e-05 1.84341e-05 
1.09085e-06 3.32707e-05 7.12895e-05 -2.40833e-05 2.71074e-05 4.38347e-05 2.39234e-05 1.49665e-06 1.86661e-05 
1.14064e-05 1.51886e-05 2.48177e-06 9.91952e-06 1.06924e-05 2.46812e-05 -1.4698e-05 2.41201e-05 2.749e-05 
8.00834e-06 1.28766e-05 7.5371e-06 1.31156e-05 1.42743e-05 1.31449e-05 5.41133e-06 1.73025e-05 5.18826e-06 
4.86493e-06 9.84695e-07 5.71545e-06 -7.72442e-06 1.15026e-05 1.04891e-05 5.7191e-07 9.71193e-06 7.72053e-06 
3.49477e-07 1.95534e-05 8.65056e-06 4.3913e-06 5.12248e-06 3.65657e-06 -4.38889e-06 -2.23841e-06 1.89565e-07 
-1.18713e-06 -6.14483e-06 -7.08506e-06 2.19361e-06 4.9034e-07 -6.91539e-06 -9.08671e-07 4.69161e-06 -3.6972e-06 
2.06292e-07 4.07904e-06 1.94703e-06 2.37002e-07 -3.43292e-06 -7.3519e-06 9.43501e-07 -5.41509e-06 -7.04235e-06 
-4.88954e-06 -4.85393e-06 -5.02751e-06 -4.97784e-06 -5.9065e-06 -6.18066e-06 -4.65337e-06 -6.02677e-06 -2.96564e-06 
-3.035e-06 7.00074e-07 9.6855e-07 3.51988e-06 -2.15964e-06 1.48599e-06 -8.45253e-07 -5.6286e-06 -1.61057e-06 
-5.02998e-07 -6.0811e-06 -2.41746e-06 -9.94143e-07 1.3784e-06 7.58113e-07 2.17867e-06 3.06674e-06 3.33064e-06 
-1.41801e-06 1.11064e-06 1.84426e-06 2.14718e-06 2.29367e-07 6.26294e-07 2.21302e-06 -1.75751e-08 2.67868e-07 
1.42389e-07 3.28509e-07 -9.57273e-07 7.5181e-07 6.08547e-07 2.4928e-06 2.87594e-07 0.00286944 0.014547 
0.00824287 0.00636189 0.00141137 -0.000103216 7.76843e-06 8.69412e-06 4.3533e-05 2.407e-05 1.83312e-05 
-0.000138701 1.77229e-06 -1.4939e-05 -7.56187e-05 -2.93811e-06 -2.16805e-05 -0.000121704 -2.50734e-05 -3.17307e-05 
-6.19241e-05 -1.63706e-05 -2.43618e-05 -9.4661e-05 1.81236e-05 -0.000145239 -0.000315229 -0.000167039 -9.75578e-05 
-0.000110833 8.66368e-06 1.18009e-05 -2.86203e-06 3.75784e-06 2.73455e-05 3.47481e-05 4.01375e-05 -3.622e-05 
7.89293e-05 4.32456e-05 -6.37897e-05 0.000152215 3.16657e-05 -9.6029e-05 -0.000108437 0.000357334 -9.65192e-05 
0.000329907 9.47286e-05 0.000128381 -7.65905e-05 9.61315e-05 5.89888e-05 0.000657369 0.00360493 -0.000392232 
0.0115773 0.00952274 0.00218465 0.00753876 0.00281618 0.000667202 0.00645303 0.00409161 -0.000822504 
0.00507885 0.00520577 -0.000432978 0.003661 0.00553784 -0.000755333 0.00930855 0.0130049 0.00084839 
0.0135554 0.00993764 0.00175986 0.00664515 0.00310482 0.000865546 0.00555506 0.00387573 -0.0007784 
0.00374376 0.00554645 -0.000683174 0.00262311 0.0112165 -0.000789253 0.0116342 0.0111865 -1.13476e-05 
0.00756075 0.00654091 0.000583452 0.00620485 0.00310557 -0.000254688 0.0043217 0.00518546 -0.000642217 
0.00387862 0.00553323 -0.000691724 0.00949841 0.0136966 0.000650906 0.0142375 0.00969684 0.0014854 
0.0076815 0.00773308 0.000540237 0.0076436 0.00355873 0.000210199 0.00703169 0.00841837 -0.000363933 
0.0124872 0.0130581 0.00945103 0.00179172 -0.000911485 -0.000610551 0.000480006 -0.00109671 -0.000254148 
0.000518717 0.000174142 0.00115263 0.000563131 -7.38399e-05 0.00186459 0.000917096 -0.00017977 0.002147 
0.0019197 5.48603e-05 -0.000228916 0.000796264 -0.000134212 0.00280275 -0.000246146 0.00017876 0.00234028 
0.00153089 0.000343035 0.00431317 -0.000880644 -0.00041001 -0.0029539 -0.00239065 -0.001734 -0.00055799 
0.00013509 2.69962e-05 -0.00124563 -0.00385853 -0.000800734 -4.38387e-06 -2.69783e-06 -0.00111879 -1.63715e-05 
0.000105154 0.000634184 0.00173319 0.00232486 -0.00027392 0.000335572 0.000578981 0.000241211 0.000377992 
0.0006154 -0.000519189 -0.00022408 -0.000531554 0.000846235 6.1637e-05 -0.000596585 -0.000228421 -0.000337008 
-0.00114454 -0.000629057 1.96942e-05 -0.000232456 -0.000231597 -7.98146e-05 -0.00341835 -0.0036847 -0.000286988 
-2.56649e-06 -8.23733e-08 1.13854e-07 2.06055e-05 5.34449e-06 1.45037e-06 -9.70432e-06 -7.22549e-06 -0.00037737 
0.00142765 -0.000642997 -1.77906e-05 -0.00179454 -0.00140801 -0.000165043 0.000414437 -2.85401e-05 6.38303e-05 
-0.000208022 -0.00013425 0.000204086 0.000122647 -3.03193e-05 0.000925768 0.000484796 -0.000459632 -0.000166304 
2.28971e-06 -0.000646201 0.00168028 -0.00443082 -0.00172273 -0.000540202 7.67427e-05 0.000277363 0.0010452 
-0.000769505 -0.000933828 -0.000193326 7.66998e-07 4.30616e-06 -3.50319e-07 -4.17359e-08 -5.74107e-07 1.76231e-06 
-6.94261e-06 2.23751e-06 2.57302e-06 1.81138e-06 -9.80281e-07 -3.134e-06 4.89432e-06 -5.25453e-07 -1.82261e-06 
-5.50605e-07 6.03119e-06 8.47737e-07 -6.22579e-06 1.49608e-06 2.72563e-06 -1.71963e-06 -8.56116e-06 5.05655e-07 
2.24718e-06 2.64869e-06 -4.51102e-06 -9.93915e-07 -1.28002e-07 1.11829e-06 2.16768e-06 -6.94074e-07 1.18219e-06 
1.87178e-06 -1.90683e-06 2.2366e-06 1.10603e-07 1.05936e-05 2.10082e-06 -2.61064e-06 -9.72282e-07 1.68203e-07 
-1.00228e-06 -2.05103e-06 4.54393e-07 -1.6058e-06 -9.99135e-06 -2.24463e-06 5.59468e-06 3.70769e-06 -2.01916e-06 
8.9224e-06 6.15549e-06 4.3202e-06 6.59468e-06 9.80994e-06 2.01995e-06 -3.25253e-06 -5.29663e-06 -1.1116e-05 
-3.81712e-05 1.36972e-06 1.15717e-07 -4.81348e-07 -9.02712e-05 0.000100206 1.51916e-05 0.000116395 3.4273e-05 
-8.19362e-05 -9.05338e-05 1.21227e-05 -2.0511e-05 -2.58341e-05 3.38576e-05 2.84037e-05 8.59552e-07 2.34435e-05 
3.89272e-05 5.52999e-05 -2.00139e-05 2.28446e-05 4.83543e-05 2.77969e-05 2.49752e-05 3.20282e-05 2.71983e-05 
3.65347e-06 1.82675e-05 1.29158e-05 8.89727e-06 1.06476e-05 -3.61186e-06 8.42468e-06 1.43094e-05 -2.84192e-07 
1.09518e-05 1.66656e-05 8.83833e-06 3.97711e-06 9.19185e-06 7.27391e-06 1.23809e-05 1.47729e-05 1.03571e-05 
1.02483e-05 1.17747e-05 -1.7882e-06 1.42538e-05 7.99435e-06 -3.59951e-06 6.16572e-06 8.70637e-06 3.97519e-06 
5.5643e-06 7.4017e-06 4.4664e-06 1.05891e-05 5.93156e-06 8.0973e-06 4.48647e-06 4.3194e-06 1.57924e-06 
7.59257e-06 2.60387e-06 -3.75191e-06 1.38738e-06 -1.54932e-06 -2.5974e-06 1.64962e-06 2.53244e-06 -1.26678e-06 
2.81955e-06 -2.64833e-06 1.57451e-07 -1.82526e-06 -8.81539e-07 1.75952e-07 5.13785e-07 -2.7593e-06 -2.04852e-06 
-3.59905e-06 -4.25324e-06 -3.78807e-06 -2.01774e-06 -2.02408e-06 -4.33034e-06 -4.4437e-07 2.15058e-07 -3.30156e-06 
-1.22004e-06 -1.72112e-06 -8.10822e-07 -2.79721e-06 -1.35164e-06 5.29422e-07 -3.80767e-06 -3.94281e-06 -1.28352e-06 
-4.15692e-06 -2.42355e-07 -1.05043e-06 -2.1685e-06 -1.79093e-06 7.7114e-07 1.18638e-06 1.64924e-06 1.58949e-07 
5.3754e-07 1.02534e-06 2.15999e-06 1.95992e-06 1.07051e-06 2.25376e-06 -2.11394e-07 9.75516e-07 8.83323e-07 
-8.55534e-07 1.32469e-06 5.11859e-07 1.30954e-06 -1.70746e-05 -1.23281e-05 1.14552e-05 -8.31864e-05 4.41991e-05 
0.000286825 6.56832e-05 8.64624e-05 -0.000122845 -0.000585284 -0.000189768 0.00148222 9.4923e-05 -0.000330604 
2.83203e-05 1.23865e-05 7.15119e-05 -2.93229e-05 -5.30645e-05 -2.61283e-05 0.000128921 -4.27833e-06 -1.02226e-05 
0.000106167 -5.64603e-05 3.47906e-05 -1.61338e-05 0.000396641 0.000535965 0.000394787 0.00019155 0.000347969 
0.000237895 0.000553887 2.62259e-06 -3.13247e-05 0.000170748 8.29947e-05 0.000145254 0.000127593 -7.68865e-05 
0.000166015 -0.000130441 -5.24631e-06 -0.000219638 0.000846616 -0.000112684 0.000883523 0.00103134 -4.49116e-05 
0.000874076 -0.000195879 -6.6122e-05 -0.00016353 0.000128904 -7.90144e-05 5.69219e-05 2.91644e-05 -2.80616e-05 
0.000115961 -0.000141416 -1.70434e-05 -0.000268034 0.000491804 -9.71325e-05 0.000449418 -0.000105022 -7.75868e-05 
0.000138347 -8.30233e-05 -4.41396e-05 7.17748e-05 6.3095e-05 -0.000130678 8.10797e-05 -4.75051e-05 -9.96289e-05 
-0.00025247 0.000650278 -0.000118167 0.000751983 0.000564406 -9.72031e-05 0.00051426 -0.000121481 -0.000139115 
7.53046e-05 -0.000104413 2.51064e-05 6.90671e-05 0.000460172 -6.93371e-05 0.000648645 -2.42571e-05 3.33063e-05 
0.000247216 -0.000101725 0.000111594 -1.76004e-05 -0.000155547 -0.000107956 -5.60025e-05 -3.1458e-07 3.99602e-05 
0.000105693 0.000289134 -0.000129124 -1.89236e-05 0.000460791 5.71766e-05 7.02549e-05 -0.00016806 -8.58328e-05 
4.34198e-05 -5.67718e-05 0.000190777 -7.7595e-05 -1.18459e-05 -0.000199094 -7.28495e-05 -5.38757e-05 3.03026e-05 
6.31765e-05 1.62724e-05 -0.000159359 -0.00020245 -2.62086e-05 5.97704e-05 0.000240936 0.000552851 -0.000141202 
1.74858e-05 0.00020686 0.000165703 -0.000183163 -5.19602e-05 -1.45984e-05 -3.84445e-05 -0.000202 -6.25556e-05 
-5.04403e-05 1.37882e-06 1.46851e-05 -4.92098e-05 6.17256e-05 6.46161e-05 -2.60008e-05 -0.000566101 -1.40079e-06 
-4.55317e-06 1.48926e-05 3.80263e-05 -2.59503e-05 -0.0023409 -0.000179357 -0.000415625 5.1291e-05 -1.93989e-06 
-8.54842e-06 -2.14836e-05 2.76779e-05 -2.86487e-05 0.000281272 9.68449e-05 0.000390491 -0.00018783 -1.69371e-05 
-4.26968e-05 0.000213067 4.09915e-05 -0.000306132 -8.03158e-05 -1.42317e-06 0.000169018 0.000118608 0.000169545 
-3.01351e-05 -0.000346413 8.64043e-05 5.83812e-05 2.2725e-05 7.79086e-05 -0.00138612 0.000556079 0.000213117 
-6.29685e-05 -7.2331e-06 1.00788e-05 0.000518871 -0.000565816 9.7571e-05 -0.000341444 0.000178441 -0.000349404 
0.000255059 2.5197e-05 4.02075e-05 9.52328e-06 -1.69526e-05 -2.32227e-05 -5.30206e-07 -4.58708e-06 4.34734e-06 
-1.33379e-07 -2.24813e-06 -2.54762e-06 3.78812e-06 -2.41227e-06 -3.83216e-06 4.04604e-06 -5.50748e-07 -4.73852e-07 
-5.01539e-06 7.07573e-06 6.76054e-06 -3.27365e-06 -2.24093e-06 -5.91344e-07 -1.42542e-06 -4.63647e-06 3.27251e-06 
5.79898e-06 1.75445e-05 1.24998e-05 -1.76076e-06 -2.04768e-05 -7.33927e-07 5.37774e-06 -4.05101e-06 3.34999e-06 
-1.67382e-06 3.48123e-06 4.37522e-06 3.92741e-06 1.86738e-05 1.86239e-06 -1.78948e-06 -1.44737e-05 -7.84755e-07 
6.28233e-06 1.08618e-05 -2.16611e-06 3.62889e-06 1.20418e-05 1.21349e-06 8.23832e-06 -6.51804e-06 -1.42944e-07 
9.50804e-06 -7.15669e-06 -2.22027e-05 -8.04595e-06 1.63076e-06 -9.74174e-05 -6.61118e-05 -2.36663e-06 0.000199794 
3.93186e-05 0.000268143 3.11172e-05 2.40395e-05 -6.65457e-05 -7.46423e-05 -1.8894e-05 -3.52851e-05 1.57592e-05 
-2.74086e-05 -2.94455e-05 3.04428e-05 3.3364e-05 3.37695e-05 -6.71377e-06 -1.24917e-07 2.84365e-05 1.14983e-05 
1.51119e-05 2.53251e-05 2.56831e-05 1.11587e-06 5.05607e-06 2.19709e-05 -2.1374e-06 1.92584e-05 1.43725e-05 
7.19892e-06 1.35145e-06 -4.16373e-06 4.83185e-06 9.50759e-06 -2.2138e-06 7.48602e-06 1.0576e-05 1.36066e-05 
6.12751e-06 7.98487e-06 1.07173e-05 5.73769e-06 1.12354e-05 5.39649e-06 5.52868e-06 1.64663e-06 -1.23051e-06 
6.94288e-06 5.76842e-06 -3.21309e-06 1.89258e-06 3.49274e-06 5.7371e-06 5.45174e-06 5.02085e-06 4.85883e-06 
1.93113e-06 1.50375e-06 2.53005e-06 1.64399e-06 4.35495e-07 1.44035e-06 2.64617e-06 6.62351e-07 -1.92309e-06 
-2.80477e-06 -1.63613e-06 1.01241e-06 1.07926e-06 8.27671e-07 -1.03982e-06 -7.27672e-07 -1.80714e-06 -1.23948e-06 
-7.14196e-07 -2.02681e-06 -4.14035e-07 -1.69006e-06 -1.21748e-06 -1.27002e-06 -5.16572e-06 -2.05082e-06 -5.00772e-06 
-1.91153e-06 -8.27377e-07 -3.93092e-06 -5.2727e-07 -3.63911e-07 -1.3207e-06 -3.70092e-06 -8.06512e-07 1.38843e-06 
2.4671e-07 -9.77174e-07 -1.63441e-06 -1.21009e-06 -2.55169e-06 4.62057e-07 -2.84867e-06 -1.83421e-06 3.16434e-06 
3.16082e-07 2.17182e-07 1.07897e-06 -3.81727e-07 1.08026e-06 -5.08448e-07 4.27437e-07 -4.31958e-07 3.00748e-06 
2.59776e-06 4.64351e-07 1.57593e-06 0.000158884 -0.000415672 -1.26426e-05 0.000150076 -0.00013962 2.82442e-05 
4.73683e-06 6.98101e-05 0.000107369 3.97787e-06 8.01165e-05 -8.23963e-06 1.24226e-05 0.000107053 2.02734e-05 
7.8232e-06 -1.24249e-05 -5.87533e-05 0.000104131 1.63922e-05 0.000112872 -2.83919e-05 0.000135257 4.76773e-06 
3.85418e-06 -3.52077e-05 -2.34859e-05 2.30753e-05 -1.62152e-05 -6.56067e-05 -5.98644e-05 -4.68435e-05 1.61639e-05 
6.9101e-06 1.70632e-05 -2.2961e-05 -4.36331e-05 -3.57938e-05 -5.92325e-05 -1.47003e-05 -5.49186e-06 -3.60407e-05 
1.30965e-05 -1.97558e-05 -1.17162e-05 2.05038e-05 -3.27685e-05 -1.90484e-05 -2.15603e-06 -2.10142e-05 -1.43656e-05 
7.33287e-06 -1.42978e-05 -4.51789e-05 8.28456e-06 -1.90024e-05 -7.19677e-05 3.7808e-06 -4.14746e-05 -5.44583e-05 
-1.0192e-05 -5.72255e-05 -1.56316e-05 -2.62982e-05 -4.3568e-05 3.86626e-06 -1.29359e-05 -3.17011e-07 -5.62233e-05 
-3.93643e-05 2.22084e-05 -6.93672e-05 -1.49635e-05 0.0001097 -0.000159802 -9.57393e-05 0.000293993 0.000183682 
-7.04426e-05 5.56219e-05 6.93405e-05 0.000190756 -5.38892e-05 3.35104e-05 8.52649e-05 -3.58684e-05 0.000112359 
-3.18954e-06 2.97255e-06 2.30718e-06 4.96509e-05 4.66024e-05 6.86704e-05 4.07024e-07 -1.48163e-05 -3.30209e-05 
-5.74771e-05 1.49973e-06 -7.4374e-07 -2.29078e-08 7.23962e-07 -4.39063e-05 2.0334e-05 -8.32032e-05 1.16381e-05 
-5.18001e-05 5.14024e-05 1.96346e-05 2.70447e-05 -9.06246e-05 -0.000115552 -0.000261489 3.87001e-05 -1.30139e-05 
0.000138877 3.64823e-06 3.51826e-05 -2.94945e-06 -3.47916e-05 0.000229467 -0.000211483 7.90882e-05 -3.76769e-05 
-0.000107212 0.000181111 -4.1731e-07 -0.000209419 -0.00033533 -3.25097e-05 -1.86686e-05 0.0001508 0.000111066 
1.03734e-05 -0.000233216 0.000422782 5.64724e-05 -2.81865e-05 4.28854e-05 4.3172e-05 1.44276e-05 -7.30433e-05 
5.76533e-05 -1.61499e-05 5.2026e-05 -3.94534e-05 2.43892e-05 -9.81754e-06 -9.59397e-05 -2.63814e-05 -0.000119797 
4.25686e-05 -0.00479783 -0.00184359 0.000135548 1.63012e-07 0.000176586 1.06281e-05 0.000281133 -1.22444e-06 
-5.72653e-06 -1.72692e-05 -1.53031e-05 1.57866e-07 5.13486e-05 0.000208172 -3.45791e-06 3.24636e-07 -2.51656e-06 
6.9504e-06 1.04501e-06 1.01532e-06 2.55275e-07 4.47509e-06 7.09735e-06 -6.1895e-06 1.41048e-05 -1.86643e-06 
1.08785e-06 8.95059e-06 -4.51124e-07 6.27929e-06 -1.11124e-05 4.38151e-06 0.00098561 2.2824e-05 1.37562e-05 
3.46985e-05 -1.26196e-05 1.20643e-05 -2.00043e-05 -5.81869e-06 -1.10291e-05 5.22426e-06 -7.30811e-06 -1.09288e-05 
-2.72405e-06 -3.17883e-06 -2.02451e-05 8.00272e-06 -1.70672e-06 4.30147e-05 -3.36725e-06 -0.000102663 4.0512e-05 
9.00033e-05 2.53481e-05 6.72226e-05 4.25774e-06 2.21252e-05 3.47332e-05 1.27793e-05 -1.72543e-06 6.72949e-05 
3.74413e-05 2.0826e-05 3.38766e-06 2.15251e-05 -1.26992e-05 -9.50261e-06 1.06708e-05 8.10729e-06 1.50616e-05 
2.2349e-05 1.70511e-05 1.14713e-06 -9.40346e-08 1.51412e-05 3.77164e-06 1.5463e-05 6.8761e-06 4.88594e-06 
-4.13195e-06 -7.54771e-06 -9.73513e-07 9.33777e-06 -7.70314e-06 -2.83143e-07 -9.5579e-07 6.71719e-06 -4.74426e-06 
7.14929e-06 9.86486e-06 -3.14857e-06 5.08074e-06 -3.24474e-06 4.33088e-06 6.41577e-06 -4.75114e-06 2.24929e-06 
7.47275e-06 1.79741e-06 5.37607e-07 2.36805e-06 4.4666e-06 -9.39585e-07 3.48203e-06 4.8328e-06 -1.96993e-06 
2.49174e-06 -2.28298e-06 3.80281e-06 3.81207e-06 -2.57723e-06 -8.33011e-07 3.74819e-06 6.74502e-07 -2.43571e-06 
1.64428e-06 5.41681e-07 -1.28898e-06 7.34008e-07 -9.28807e-07 -2.31584e-06 1.51927e-06 -1.01306e-06 -6.99626e-07 
-2.42951e-06 4.97418e-06 -1.65516e-06 -1.76086e-06 -6.03907e-06 -6.0454e-06 -2.72659e-06 -7.22368e-06 -3.58792e-06 
6.92938e-08 -4.74122e-06 -2.12039e-07 4.25604e-07 1.91603e-06 -8.68513e-08 8.62651e-07 3.01442e-06 9.61005e-07 
-5.10856e-06 -4.52832e-06 -2.42214e-06 -1.78883e-06 3.03686e-06 -4.56848e-07 -7.00319e-07 -8.88977e-07 -1.01663e-06 
-2.4036e-06 5.44493e-07 -7.01194e-07 -9.75309e-07 4.28303e-06 1.0285e-06 2.88978e-06 1.55771e-06 -7.35169e-05 
7.65039e-05 0.000133109 -4.72002e-05 -1.19728e-05 2.37446e-07 0.00012274 -0.000169033 -6.70809e-06 -7.06701e-06 
4.23188e-05 7.11842e-05 -0.000149505 2.97645e-05 -1.27882e-05 1.17466e-05 -2.84594e-05 3.21916e-05 1.00652e-05 
-1.71206e-05 9.78829e-06 -1.67542e-05 5.67341e-06 8.2098e-07 8.4804e-07 2.12703e-05 -1.142e-05 -4.66213e-05 
-1.28951e-06 1.08878e-05 -1.73184e-06 -8.30712e-06 -1.3756e-06 7.89939e-06 -1.45531e-05 -3.05407e-05 -1.61495e-05 
2.39953e-06 1.5686e-05 -1.47513e-05 8.64046e-06 4.72641e-06 -2.12442e-05 -3.60503e-06 1.34796e-05 8.10447e-06 
-4.24872e-06 -4.64453e-06 -3.31214e-06 -1.62487e-05 2.30194e-05 -1.71385e-05 -1.93084e-05 -2.71414e-05 -2.96562e-05 
-1.80778e-06 -1.30472e-05 -2.95684e-05 -5.57986e-06 -1.87613e-05 -2.87305e-05 1.17289e-05 -7.07636e-07 -2.95337e-05 
6.77178e-05 8.30137e-05 1.04638e-05 6.16411e-05 1.13852e-05 -1.78619e-05 2.99861e-06 -1.52058e-06 -1.20324e-06 
1.16753e-05 4.00943e-05 -1.56252e-05 1.77205e-05 7.96321e-05 -1.08971e-05 -5.78549e-06 -3.2731e-05 -8.18211e-05 
0.00021343 1.06657e-05 -1.87332e-05 2.24634e-05 2.48151e-06 4.14222e-05 -0.000109563 7.40718e-06 1.27136e-06 
-7.95755e-06 4.65256e-05 -3.10359e-05 7.00554e-05 5.03986e-05 1.16457e-05 2.74523e-05 -8.32386e-05 5.89156e-05 
2.32274e-05 -5.1997e-05 -2.65861e-05 7.66156e-05 -3.02922e-05 3.23217e-05 4.50051e-05 -4.55297e-05 -5.62554e-05 
9.77339e-06 2.45608e-05 8.0077e-06 -1.91206e-05 1.29688e-05 -7.75198e-06 4.7115e-05 5.32425e-05 -3.38731e-06 
2.62934e-06 1.53759e-05 -1.07835e-05 1.61642e-06 -3.98616e-05 2.37369e-06 -0.00840561 -0.0049136 5.25004e-05 
-4.50359e-05 -0.000317948 2.47099e-05 4.47946e-05 2.45855e-05 -1.34144e-05 2.5862e-05 -2.23197e-05 1.08959e-05 
3.15727e-06 2.42581e-06 -6.60607e-07 -5.42173e-06 3.82511e-05 1.17471e-05 1.39601e-05 -1.57036e-06 4.01065e-05 
3.74869e-06 -1.68785e-05 2.01123e-05 -1.17234e-05 4.81428e-05 6.58446e-05 -0.000100385 -3.60296e-05 5.62462e-05 
1.26757e-05 3.30413e-05 2.30833e-05 2.87398e-05 -1.19549e-06 6.08561e-06 -7.1994e-06 -6.90453e-06 1.01344e-05 
2.92707e-06 1.47417e-05 1.71244e-05 7.37148e-06 2.35796e-07 2.25039e-06 6.62157e-06 1.69112e-06 7.34078e-06 
4.0987e-06 5.16396e-06 -1.30398e-05 -1.49517e-07 -3.0013e-06 -4.32064e-06 -6.97805e-06 -1.05018e-05 -1.03522e-05 
1.00391e-05 5.71497e-06 1.20096e-05 8.37473e-07 6.85486e-06 -6.69291e-09 -2.69873e-06 8.74725e-07 3.57931e-06 
-5.26754e-06 -2.17993e-06 3.89574e-06 -3.78265e-07 -3.78027e-06 -3.21892e-06 1.40854e-06 -4.54765e-06 1.17414e-06 
3.23688e-06 -1.52856e-07 -1.67895e-06 -1.91242e-06 -1.63489e-08 5.02553e-06 -2.60994e-06 -2.25034e-06 1.50126e-06 
1.72477e-06 -2.05626e-06 1.87923e-06 -3.4233e-07 -3.18119e-06 4.51974e-06 -3.06525e-06 -5.38813e-06 -3.3922e-06 
-9.98803e-06 -9.84273e-07 -2.69713e-06 2.59652e-06 -4.86175e-06 -5.81616e-06 -2.26381e-06 -6.38572e-06 4.42497e-07 
-2.32473e-06 -1.3297e-06 -2.84451e-06 -6.58989e-06 -4.70395e-06 9.21232e-06 3.50414e-07 7.38507e-06 -0.00247122 
0.00351732 -6.76308e-07 -1.4022e-06 -2.85041e-06 -3.89604e-09 -4.75683e-06 -6.0532e-07 1.20954e-07 -1.52463e-06 
2.23073e-06 -2.05534e-06 4.13435e-06 -2.60736e-07 -3.9785e-06 2.20017e-05 1.20891e-05 2.98874e-05 4.87232e-05 
-8.69207e-05 1.25506e-05 2.77303e-07 6.82502e-07 4.04559e-05 2.69489e-05 -1.65495e-05 -3.08102e-05 -3.9106e-05 
-3.90488e-05 1.52125e-06 -0.00165895 0.00216601 4.18859e-06 2.60631e-05 2.71906e-05 -2.8993e-05 7.92152e-06 
-1.24586e-05 -3.29683e-05 -5.05865e-05 6.11259e-05 1.99656e-06 -0.00139933 0.00276136 -1.79764e-05 2.1985e-06 
-4.23921e-06 2.09663e-06 4.57795e-06 7.41055e-06 -1.76942e-06 1.15738e-05 2.76628e-05 1.81459e-05 -0.000177406 
-5.74389e-05 1.15478e-05 8.37921e-05 2.72847e-05 -2.08376e-06 1.45495e-05 2.63146e-05 2.59472e-05 -2.04188e-05 
-6.37315e-06 1.03818e-06 1.26818e-05 -2.10354e-06 3.79615e-05 -1.76658e-05 -3.09707e-05 -1.29951e-05 -0.00104665 
0.00243865 2.37663e-05 -3.75988e-05 9.52209e-06 -2.5817e-05 -2.84106e-05 2.98446e-06 2.55669e-05 -4.13771e-06 
1.3025e-06 1.19634e-06 6.32013e-05 -7.04433e-05 7.18666e-06 2.06501e-05 9.73232e-07 -2.68904e-05 -3.08352e-05 
2.38299e-07 4.76191e-05 9.64001e-06 -8.70037e-06 5.53723e-06 -2.13734e-05 1.5635e-05 8.68103e-07 -1.3665e-05 
3.24911e-05 3.72723e-05 6.51226e-05 -1.28741e-05 1.98357e-05 8.5249e-06 3.43848e-05 6.30456e-05 5.22102e-05 
-8.67759e-06 -3.34353e-05 8.80972e-06 -6.1541e-05 -6.05776e-07 3.43224e-06 6.69031e-06 1.41818e-05 -1.15475e-05 
2.63725e-05 9.33533e-06 6.45993e-06 5.27984e-05 1.3428e-05 1.4797e-06 -6.74137e-05 2.09856e-06 -1.14881e-05 
-3.0771e-05 -4.29571e-06 2.78546e-05 6.10687e-07 -2.11221e-05 8.10647e-05 3.68079e-05 5.92562e-05 2.21833e-06 
-6.85055e-06 1.55666e-05 3.17878e-06 8.10176e-06 -6.48661e-07 8.03494e-06 4.53238e-06 1.69094e-05 1.05559e-05 
-1.89602e-05 -2.12916e-05 -1.34295e-05 -9.17683e-06 -8.1012e-06 8.32766e-06 -1.0959e-06 -1.93846e-07 1.26358e-05 
7.8098e-06 -1.81955e-05 -9.72585e-06 -3.49004e-06 -1.14689e-05 -2.28471e-05 1.08032e-05 -0.00030095 0.00173818 
7.41457e-06 6.43772e-06 2.88482e-06 6.46882e-06 -1.31261e-06 1.05203e-05 -6.2724e-06 -1.34242e-06 1.16169e-06 
-1.45137e-06 -2.31957e-06 -1.31969e-06 -1.00581e-05 -8.09674e-06 4.38525e-06 7.12494e-06 1.23614e-05 -5.88442e-06 
3.1433e-06 -1.11191e-06 2.30017e-06 -6.70166e-06 1.94719e-06 6.9357e-06 -6.18966e-06 1.85982e-06 -6.11197e-06 
-8.55058e-06 -9.07283e-07 5.29647e-06 -5.94642e-06 7.9077e-06 -1.81046e-06 -7.09437e-07 -1.89026e-05 -2.14319e-06 
-8.6185e-06 -1.46737e-05 -7.03211e-07 -1.47866e-05 -1.67297e-05 9.94295e-06 -3.89887e-06 -0.00135704 -0.000597439 
-4.11099e-06 -2.82823e-06 1.81142e-05 -7.11003e-06 -6.44791e-05 2.32156e-05 -2.10164e-05 3.87898e-06 2.75503e-05 
-2.11385e-05 -1.01447e-05 3.20536e-05 -3.08177e-05 -3.45849e-06 -6.08972e-05 -1.74333e-05 -2.43084e-06 3.37311e-05 
-3.56838e-06 3.97694e-05 2.22589e-05 -1.08112e-05 1.83268e-05 -1.56575e-05 -0.00125779 0.00172281 7.9007e-06 
1.96914e-05 2.9751e-05 4.06274e-05 7.45984e-06 -3.20885e-06 -2.9892e-07 1.51637e-05 1.2959e-06 7.69964e-06 
8.72893e-05 0.00252584 -6.07323e-06 -7.44997e-06 2.85017e-06 -2.45424e-06 -6.32119e-06 4.91329e-06 8.17686e-06 
3.59863e-05 2.87295e-05 1.55032e-05 -3.46032e-06 -3.84479e-05 4.23337e-05 -5.40264e-05 -4.15669e-05 2.37303e-05 
1.86232e-05 3.2473e-05 -4.88322e-06 -2.46058e-05 -2.87043e-06 -1.00803e-05 1.893e-05 7.35314e-06 -2.0526e-05 
-1.54932e-05 4.76101e-05 -6.9605e-05 -4.66248e-05 4.28554e-05 -2.99441e-05 1.88535e-05 -1.59133e-05 2.9868e-05 
-5.31035e-05 -6.09824e-05 -4.6911e-05 -2.41331e-05 6.16023e-05 1.43713e-05 -3.89704e-06 1.02551e-05 1.91142e-05 
7.02563e-06 -2.58378e-06 2.33086e-05 -3.0668e-06 8.91465e-06 -1.11289e-05 6.07127e-06 -4.94266e-06 -2.61332e-05 
-1.05817e-06 6.4883e-06 1.61013e-05 1.3101e-05 5.21349e-06 -2.22166e-06 -1.58452e-05 -3.79101e-06 -5.2089e-05 
-7.82013e-06 3.56445e-05 -3.05956e-05 -5.36813e-05 -3.21939e-05 -2.21952e-05 -4.39629e-06 -3.23233e-06 -1.58717e-06 
4.10144e-05 5.09682e-06 1.83882e-06 -2.35459e-05 -3.49543e-05 -1.34226e-05 4.5873e-05 -5.70279e-06 -2.00208e-05 
-1.80243e-05 9.61892e-07 4.17064e-05 1.46819e-05 -4.7242e-06 -2.26622e-05 -3.57395e-07 -1.69364e-05 -1.47599e-05 
5.50429e-06 -1.12447e-06 1.88214e-05 -1.25314e-05 1.01051e-05 -1.94372e-05 -2.11797e-05 1.24208e-05 1.94709e-05 
-6.07391e-06 -3.37661e-06 7.13846e-06 -1.67158e-05 1.02949e-05 1.58766e-05 -1.09099e-05 -3.39531e-06 7.18599e-06 
1.43028e-05 -4.65244e-06 3.04507e-06 -6.21139e-06 -2.77602e-05 -8.93039e-06 5.12237e-05 -2.044e-05 -1.75412e-05 
2.86918e-05 -5.07824e-05 3.68684e-05 1.45096e-05 -1.93851e-05 5.18387e-06 8.48736e-06 -1.74824e-05 -7.49532e-07 
2.90512e-05 1.96813e-05 8.72122e-06 7.02609e-06 2.07573e-05 1.29681e-05 -2.01539e-06 2.16191e-05 2.18526e-05 
-2.12551e-05 -5.23257e-07 1.35424e-05 4.24199e-05 -7.81564e-06 -2.90431e-05 -2.08412e-05 -1.26397e-06 7.92319e-06 
-2.55648e-07 -2.46532e-05 6.35275e-06 -5.54013e-06 1.61405e-05 -2.35956e-05 -1.09217e-05 -1.24747e-05 -1.10002e-05 
-1.76437e-05 -5.0454e-06 1.37869e-05 3.3702e-05 2.26639e-05 -1.64237e-06 3.87661e-06 1.12146e-07 1.64893e-06 
-4.707e-07 -7.8744e-07 1.1095e-06 4.48041e-07 -3.29e-06 -1.28901e-06 1.50193e-07 -1.57364e-06 3.98128e-06 
5.5476e-06 3.85107e-07 2.72136e-07 -3.06909e-06 -1.53895e-06 -1.34066e-06 -5.816e-08 -5.15599e-06 1.2424e-06 
6.84493e-06 1.7455e-06 -2.60112e-06 1.2449e-06 -4.94658e-06 2.95616e-07 -1.26246e-07 7.90634e-08 6.73628e-06 
-3.5048e-06 1.16445e-06 -1.60732e-05 -7.8651e-06 2.27537e-06 -1.22056e-05 -3.22734e-06 6.76733e-06 4.19058e-07 
7.03983e-06 1.35707e-06 4.27611e-06 -4.63095e-06 1.28875e-05 -1.59627e-06 -1.28719e-05 4.07972e-08 2.4351e-06 
-3.11181e-06 9.40904e-06 1.69267e-06 1.72472e-06 -2.3086e-06 -4.62625e-06 6.20207e-06 -1.35904e-06 1.39233e-05 
1.07245e-05 -1.61352e-06 -1.33101e-05 1.11297e-05 -1.05968e-05 -7.15993e-06 -0.00549685 -0.00219788 -0.0237754 
-0.000100285 -0.000125711 -0.00175038 4.57977e-05 0.00016913 -6.35111e-05 5.73381e-05 1.07659e-05 1.07368e-05 
-4.47955e-05 3.5313e-07 5.79781e-07 -8.21194e-06 2.31723e-05 1.5829e-05 9.83187e-06 1.62472e-05 1.51202e-05 
1.37675e-05 1.57727e-05 -2.51416e-06 4.35617e-06 3.40808e-06 8.46233e-06 4.71751e-07 3.65952e-06 8.07538e-06 
1.9237e-06 8.65467e-06 2.95677e-06 5.46371e-07 -5.33039e-06 8.78831e-06 -3.76462e-07 7.75647e-07 4.75074e-06 
3.91785e-06 1.66864e-06 2.1743e-06 -1.59582e-07 -9.00731e-07 -7.10582e-07 -2.04319e-06 -6.20716e-06 2.49221e-06 
5.5951e-06 4.0717e-06 3.62096e-06 2.35219e-06 -5.09515e-07 -2.42992e-06 -1.42903e-06 -5.54775e-06 1.80028e-06 
-8.37373e-06 -9.40736e-06 4.43445e-06 -6.21325e-06 -3.05027e-06 1.49601e-06 2.89411e-07 -2.01013e-06 1.81264e-06 
-5.099e-06 -7.0704e-06 4.15136e-07 -5.38278e-06 -4.08299e-06 3.8585e-07 -1.99666e-06 -4.84136e-06 9.47498e-07 
-5.75708e-06 -4.67911e-06 -2.25204e-07 -2.86396e-06 -1.91421e-06 8.05476e-07 -1.49314e-06 -4.48362e-06 2.41925e-07 
-4.45574e-06 -3.71577e-06 -3.71162e-07 -1.00722e-06 2.71789e-08 1.13798e-06 3.77886e-07 6.55995e-07 -1.53713e-06 
-5.6641e-07 -3.80134e-07 3.54335e-07 -2.24348e-07 -5.10246e-07 -7.91255e-07 6.06954e-07 -1.61642e-06 4.55106e-07 
0.0102956 6.36829e-06 2.84821e-06 -1.39832e-06 9.90605e-06 -9.78153e-07 -1.34244e-06 3.29429e-06 6.4892e-06 
-1.41964e-05 -3.0732e-06 1.14152e-05 -6.00024e-06 3.7182e-06 2.47944e-05 4.57885e-05 7.42729e-05 -0.000102768 
2.42567e-05 -5.21972e-05 -0.000153031 -9.37946e-05 2.61738e-05 0.000152434 -0.000100541 2.35018e-05 0.000115328 
5.8593e-05 -2.6032e-05 -0.000188559 0.000173192 -7.5053e-06 0.000167991 0.000129703 -0.000124562 -5.94524e-05 
-0.000300757 -0.000105073 -2.43347e-05 0.000103573 -6.87942e-05 -4.0866e-05 5.04972e-05 -3.67904e-05 -2.66437e-05 
1.87477e-05 -1.91009e-06 -1.02504e-05 -1.21684e-05 2.45432e-05 3.91822e-05 -7.02299e-05 0.000505113 9.43142e-05 
-0.000195457 0.000756215 0.000100883 -0.000286457 -0.000285663 0.000463495 -0.000527152 -0.00798061 -7.14753e-05 
-2.52526e-06 0.0243855 0.0403622 0.0484729 0.0165541 0.00571146 -0.0153914 0.0312139 0.0288931 
-0.0173006 0.0283885 0.0262628 -0.0139981 0.0267778 0.0278393 -0.0142002 0.0293949 0.0305216 
-0.0130598 0.0151541 0.0139231 -0.0158466 0.0301525 0.0287382 -0.0161784 0.0269927 0.0264771 
-0.0129687 0.0252199 0.027421 -0.0127362 0.0240224 0.0297519 -0.0125249 0.0269162 0.0252852 
-0.0136433 0.0254039 0.0243214 -0.0101412 0.0238874 0.0248065 -0.012588 0.0280067 0.0292362 
-0.0128306 0.015702 0.0136668 -0.0152909 0.031262 0.0295346 -0.0159495 0.0319857 0.0288496 
-0.0109835 0.0336603 0.0316353 -0.013616 0.0142551 0.0179776 -0.0173835 0.0206544 0.0216203 
0.00133224 0.00339431 0.00140554 0.00199285 0.00318722 0.000177553 0.000727048 0.000233828 0.00199764 
0.00184609 -0.00088758 0.00176194 0.00228994 -0.000575033 0.00217518 0.00229423 -0.000841679 0.00266153 
0.00415596 -0.000999151 0.0033853 0.00432352 -0.00181086 0.00100788 0.00327792 -0.00259253 0.00348088 
0.00769389 -0.00539388 0.0129536 0.0195146 -0.00392629 0.0141795 -0.017713 -0.00759254 -0.00143649 
0.00882413 -0.00169131 0.000275489 -0.000307775 -0.00297306 -0.00148902 -0.00391126 -0.00239981 0.000157766 
-0.00455523 -0.00348671 0.00078795 -0.00722681 -0.00462543 0.000870196 -0.00449604 -0.00324108 -0.00303648 
-0.00475331 0.00562278 -0.0102729 -0.00996482 -0.00805404 -0.0108219 0.00221783 -0.0116504 -0.0106905 
0.00361958 -0.00401299 -0.00709596 -4.38648e-06 -6.35502e-06 4.90292e-07 -5.14913e-05 6.89183e-06 0.000119415 
-8.18177e-05 0.000298954 0.000139412 0.00017406 -0.0199845 -0.00383309 -0.0156381 0.0110314 0.0152525 
-0.00659767 0.0117673 0.00849195 -0.00512535 0.00433917 -0.000419473 0.00824403 8.22096e-05 -0.012053 
0.00296624 -0.000174399 0.00466251 4.03132e-05 0.00379676 0.00435212 0.00539615 0.000481549 -0.00617897 
9.22803e-08 -0.0216292 -1.17595e-06 -8.36063e-07 2.68541e-06 -1.26421e-06 -6.90988e-07 4.18977e-07 9.38075e-08 
3.64376e-06 1.64242e-06 -1.47081e-06 -1.81371e-06 -1.70268e-06 4.72309e-07 -7.49454e-07 6.84517e-07 3.02137e-06 
3.63201e-06 7.14453e-07 -9.56556e-07 -1.22494e-06 -1.20995e-06 1.49707e-06 3.27655e-06 5.28896e-07 -1.11048e-06 
-1.88094e-06 5.47822e-07 -3.88582e-07 -4.23306e-08 -5.9423e-06 -3.27377e-06 3.14325e-06 -2.52403e-06 -7.93355e-07 
1.99392e-06 -2.84375e-06 -1.09714e-07 3.68323e-06 -3.71519e-07 -2.11318e-06 -8.3502e-06 -2.09184e-06 -4.82884e-07 
2.02432e-06 -4.03558e-08 -3.5171e-06 -8.31635e-06 2.77431e-06 2.33236e-06 -5.75632e-06 -3.55698e-06 1.15272e-07 
6.66126e-06 3.61262e-06 1.0128e-06 -1.28955e-05 5.90159e-05 -7.97877e-05 0.000128 -0.000142286 -0.000129767 
0.000323085 -8.7386e-05 8.20835e-05 -0.00282437 -0.00260984 -5.52839e-05 7.84923e-05 6.1061e-06 3.33189e-05 
-5.09514e-05 2.7937e-05 3.08429e-07 -1.8625e-05 -2.54517e-07 1.96735e-05 -3.05643e-07 1.00165e-05 -9.8161e-06 
3.70765e-05 -3.27993e-06 1.0914e-05 1.43072e-05 1.30097e-05 5.01799e-06 -6.42708e-06 2.67068e-06 5.97427e-07 
6.39443e-06 5.91372e-06 1.31858e-05 8.87193e-06 1.11715e-05 3.05765e-07 3.75085e-06 9.46953e-06 1.97568e-06 
2.64719e-06 -2.83361e-06 5.45976e-06 1.20113e-06 8.18246e-06 2.00201e-06 -3.25306e-06 9.16363e-06 -1.29622e-06 
1.08528e-06 -1.86219e-06 6.17414e-07 5.46012e-07 -2.89346e-06 4.3753e-06 -7.8677e-07 -4.54194e-06 5.42492e-08 
-3.21649e-06 3.81335e-06 3.8102e-07 -3.30949e-06 4.5763e-06 1.98928e-07 1.87783e-06 -3.60897e-06 3.9254e-06 
-3.94041e-06 2.06079e-06 -2.76082e-06 -2.73269e-06 -1.63445e-06 -1.26523e-06 1.41253e-06 -2.59988e-06 6.91128e-08 
-1.37848e-06 2.13084e-06 -2.63311e-06 3.16483e-07 -3.7661e-06 6.63966e-07 2.48856e-06 -5.05269e-06 4.13399e-07 
-1.88946e-06 2.60539e-06 -2.091e-06 2.79784e-07 8.96443e-07 -1.02351e-06 1.06379e-06 -1.26578e-06 1.37302e-06 
-1.96176e-07 6.36428e-07 1.45252e-07 1.21653e-06 1.72489e-06 -4.51363e-07 1.8214e-07 5.87766e-06 1.15763e-06 
-3.93555e-05 -7.29736e-05 -3.20196e-06 -1.54908e-05 -1.29293e-06 -1.93755e-05 -9.03564e-05 -1.1445e-05 4.31718e-06 
1.40896e-05 3.772e-07 3.36592e-05 -3.45652e-05 5.38998e-06 -5.15825e-05 4.10766e-05 -6.98376e-05 -0.000346978 
0.000164532 -3.85613e-05 -7.6874e-07 -1.56455e-05 -1.67385e-06 -3.48006e-05 1.88038e-05 5.20479e-05 -6.28295e-05 
0.000269301 0.000153604 -0.000128487 0.000565264 0.000145519 7.4206e-05 0.000388255 -0.000312509 0.000270283 
0.000212716 0.000343282 0.000210913 0.0021301 0.000512702 -0.0100937 0.000106392 -0.00632381 -0.00231886 
-0.00110434 -0.00471729 -0.00360971 0.000371048 -0.00312753 -0.00479523 0.000717315 -0.00239743 -0.00319161 
0.000481771 -0.00355296 -0.00305599 5.88285e-05 -0.00519068 -0.00261902 0.000528843 -0.00378225 -0.00373191 
0.000688416 -0.00267308 -0.0053057 0.000709291 -0.00294986 -0.0030186 0.000962071 -0.00184149 -0.00126142 
0.000896679 -0.00400697 -0.00292948 0.000796239 -0.00321906 -0.00445932 0.000458556 -0.00257972 -0.00291043 
0.000613558 -0.00321586 -0.00298656 0.000124379 -0.00268306 -0.00258112 0.000604942 -0.00536615 -0.0025575 
0.000681875 -0.00223053 -0.00356907 0.000678295 -0.000235486 -0.000781724 -0.0124163 -0.00151329 0.000873704 
0.000282153 0.000840234 -0.00046183 0.000294485 -0.000632454 -0.000194826 -0.000267403 -0.000572022 0.000132558 
3.46466e-05 -0.000232993 0.000246249 0.000100187 -0.000307856 0.000160072 -0.00048647 -0.000524233 -0.000503284 
0.000594299 0.00066113 -0.00110059 1.16086e-05 0.0006864 0.000488958 0.000665538 0.000401534 -0.000138834 
0.00160611 0.000793597 0.00126399 0.0018604 9.34892e-05 0.000648131 0.000975591 0.00120532 0.00112696 
1.51675e-05 -0.00018175 5.60412e-07 4.75235e-06 -7.45993e-07 -5.92724e-07 -5.46964e-05 6.68572e-06 -7.80381e-06 
0.000307775 0.0001372 1.64515e-05 -0.000679181 0.00105645 0.00707014 0.000869058 0.000375693 -0.000105004 
0.00102417 0.000898782 -0.000217086 -0.00162766 -2.49225e-07 -3.48564e-06 -0.00358221 -0.0017843 -3.97592e-05 
0.000396563 0.000949835 -0.000111782 -5.80144e-05 0.000104652 1.46646e-05 1.45472e-05 -8.40392e-06 -3.75673e-05 
-0.000348215 7.87262e-05 7.50774e-06 -6.16975e-05 5.00333e-05 -5.6604e-05 -0.000199503 -0.000979386 8.01597e-05 
0.000172448 8.0738e-06 0.000206804 -0.00113289 -0.00400436 -0.000315233 -0.00048421 -9.84509e-05 -0.000260501 
0.00113132 0.000797646 0.000421437 -0.000747522 -0.000475931 -0.000364862 -0.000279821 -0.000200945 -0.00170244 
-9.48834e-05 -0.000952038 -6.52227e-05 7.50619e-05 -0.00124014 0.000452309 0.000376271 -2.48687e-06 6.43604e-05 
-0.000348652 0.000825961 -0.000625134 0.000264965 2.55344e-07 6.61882e-07 1.87508e-06 -2.55253e-06 -5.83896e-07 
-1.32064e-06 2.01233e-06 -2.33107e-06 2.56619e-06 -6.15899e-07 -2.96023e-07 4.18025e-06 -6.60888e-07 7.7146e-07 
2.96737e-06 -4.7601e-06 -2.09497e-06 1.15804e-06 3.80693e-06 2.72003e-06 -2.49307e-06 -2.07502e-06 4.24238e-06 
-3.4977e-06 -1.60845e-06 -5.01245e-07 3.93644e-06 3.63799e-06 2.59974e-06 -1.95784e-06 -5.21389e-06 1.96531e-06 
-1.17838e-05 4.43561e-06 7.55799e-07 -1.16924e-05 5.18923e-06 2.65843e-06 -3.66129e-06 -8.29522e-06 1.2013e-05 
1.2276e-05 1.28924e-05 -6.5847e-05 2.10521e-06 -9.54994e-07 8.15264e-07 5.70811e-05 0.000177005 3.33733e-05 
6.52275e-06 -0.0001508 -0.000309949 -0.000115221 -1.65343e-05 1.3371e-05 2.54552e-05 -2.54495e-05 3.29988e-05 
1.85812e-05 2.81531e-06 6.20253e-06 1.28541e-05 4.89215e-06 1.43933e-06 8.96949e-07 1.5969e-05 -8.49088e-07 
8.68956e-06 3.56643e-06 1.04414e-05 3.20436e-06 6.46777e-06 6.09372e-07 1.09242e-05 6.00392e-06 -3.26636e-06 
3.1284e-06 1.04837e-05 3.78343e-06 2.15656e-06 5.39238e-06 4.86097e-06 -2.17264e-08 3.8706e-06 1.1835e-06 
3.94051e-06 2.16383e-06 -6.41353e-07 1.14216e-06 3.64036e-06 5.15968e-06 -4.21918e-06 2.9197e-06 -1.09342e-07 
-3.62461e-06 1.87174e-06 5.18992e-07 -4.96982e-07 4.97959e-07 -9.51962e-07 -3.64127e-06 -2.29629e-06 3.29507e-06 
-1.46662e-06 -1.03341e-06 -1.49464e-06 -5.00931e-07 -2.00938e-06 -1.546e-06 -3.20562e-06 -2.81239e-06 -2.06368e-06 
9.65705e-07 -2.40031e-06 1.6158e-06 1.39596e-06 -2.51144e-06 -3.74949e-07 -3.04985e-07 -2.50164e-06 -5.06219e-08 
-1.34225e-06 2.35394e-06 -7.86182e-07 1.83531e-06 -2.12919e-06 4.3519e-08 1.40193e-06 -1.05113e-06 2.39855e-06 
0.000251245 6.34482e-05 -4.55648e-05 5.21442e-06 1.02787e-05 5.25985e-06 5.50348e-06 -1.54896e-06 3.0998e-07 
2.04299e-06 -1.76502e-06 1.84494e-06 -4.05826e-05 -2.74141e-06 -0.000100432 3.2711e-05 3.9938e-05 2.25774e-05 
1.76129e-05 -7.23821e-05 2.59937e-05 8.87468e-06 -0.000187673 -2.02371e-05 9.82002e-05 1.3181e-06 -0.0001146 
3.09738e-05 0.000707796 -3.97412e-05 -7.04242e-05 -6.71989e-05 -8.27428e-05 -0.000140498 -8.74169e-05 9.37125e-05 
-4.75784e-05 -9.78627e-05 6.39211e-05 8.62248e-06 -7.3283e-05 3.1406e-06 -3.56913e-05 1.89575e-05 3.74827e-05 
6.18973e-05 4.34737e-05 2.76174e-05 4.08615e-06 7.5229e-05 7.23253e-05 7.57968e-06 7.36676e-05 7.02667e-05 
-5.62147e-05 4.50911e-05 5.0135e-05 -7.55923e-06 -4.32208e-05 -8.954e-06 -0.000147997 -5.31462e-05 5.41345e-05 
-1.51348e-05 -0.000107146 6.62987e-05 8.50252e-05 2.50759e-05 -7.85127e-06 0.000252256 0.000107354 -0.000688728 
0.00101564 1.49053e-05 5.45573e-06 -1.86306e-05 -5.98553e-05 7.22204e-06 8.16031e-05 -1.43325e-06 -6.6636e-05 
-1.27055e-05 4.75714e-05 8.51956e-06 0.000194322 -0.000193832 -0.00107385 0.00074336 6.92004e-05 0.000102542 
-8.6392e-05 5.30308e-05 -0.000464659 -0.00116085 -1.77747e-05 -6.46061e-05 -0.000116386 5.43575e-05 6.78908e-05 
-0.000147483 0.000128673 0.00013609 0.000226905 -0.000301348 6.80484e-05 6.14154e-05 0.000181833 -7.97476e-05 
1.24298e-05 -1.20425e-05 1.11456e-05 0.000137109 6.54848e-05 -2.42417e-05 0.000180117 0.00017727 2.13869e-05 
0.000181109 0.000197023 -6.75282e-06 -7.3826e-05 -2.14301e-05 8.98125e-05 2.69363e-05 1.36899e-06 1.15305e-06 
8.33917e-08 0.000237267 0.000115761 8.853e-05 0.000416291 3.07638e-05 -0.000365825 8.69188e-05 -4.7316e-05 
3.17798e-05 -7.14316e-07 1.1655e-06 5.05794e-08 2.08995e-06 -0.000253684 0.000112883 -0.000132018 0.000156042 
-6.70076e-06 -4.90304e-05 2.5819e-06 1.54495e-07 -5.75533e-05 -7.0569e-05 -0.00103709 -6.75122e-05 3.30906e-05 
-4.57267e-06 -5.2079e-05 2.20809e-05 1.32069e-05 -5.88665e-05 7.75121e-05 8.64113e-06 -8.8441e-06 0.000132187 
0.000216256 7.25077e-05 1.47158e-05 3.60506e-05 7.509e-05 -5.18288e-05 3.26501e-05 -0.000261068 6.36548e-06 
0.000805504 -6.40161e-05 7.36959e-06 -6.52532e-05 -6.43125e-05 3.80275e-07 -3.05566e-06 4.96527e-06 5.4158e-06 
2.43833e-06 1.2506e-06 1.5344e-06 2.19204e-06 1.29331e-06 2.15255e-06 1.14127e-05 -4.82629e-06 -7.75173e-06 
-1.61517e-07 -1.04462e-05 -8.04419e-06 9.8e-06 -1.53779e-05 -1.9843e-05 1.41603e-05 -1.43763e-05 1.65421e-05 
-5.37491e-06 -8.51431e-06 -3.24449e-05 -0.000429077 0.000238764 0.000172758 -0.000166255 -0.000179891 -2.1385e-05 
2.45813e-05 -2.61542e-06 1.01799e-05 -1.92365e-05 9.19633e-06 1.15286e-05 5.70913e-06 3.83341e-06 1.07083e-05 
-3.588e-06 1.50558e-06 -2.23824e-07 1.24126e-06 3.08688e-06 3.96361e-06 -1.7814e-06 7.58892e-06 5.83476e-06 
2.06941e-06 2.46314e-06 8.90688e-06 3.59468e-06 2.61414e-08 2.14756e-06 -1.1201e-06 -5.48494e-08 4.37895e-06 
-1.45979e-06 1.86412e-06 2.11364e-06 2.10466e-06 -2.31943e-06 2.50904e-06 7.01855e-07 -7.8002e-07 1.02174e-06 
-2.70009e-07 -1.30845e-06 3.26126e-06 -1.98389e-06 -2.8566e-07 -1.8382e-06 5.68913e-07 -3.50067e-06 -3.72502e-06 
2.33704e-06 -2.14196e-06 -4.91673e-07 -1.31589e-06 -1.45148e-06 -2.68555e-06 -1.9879e-06 -2.49404e-07 -3.31217e-06 
-4.58723e-06 7.33553e-07 -2.68132e-06 5.93746e-07 -8.41163e-07 -4.05008e-06 1.72934e-06 -1.64121e-06 1.92668e-08 
3.3489e-07 3.00125e-07 -1.24276e-07 1.1684e-06 1.65664e-07 -1.72661e-06 -1.02389e-06 2.52596e-06 -6.15838e-06 
1.14398e-06 4.8636e-05 8.44506e-05 2.66058e-05 2.5754e-05 8.70672e-05 -9.83652e-05 -1.90648e-05 0.00797264 
-2.60604e-05 1.59708e-05 3.02189e-05 -6.47576e-05 -3.40481e-05 2.89865e-05 -4.82281e-06 2.059e-05 -3.94489e-06 
3.77818e-05 -5.02993e-06 -3.14039e-06 4.51932e-06 -3.60431e-05 2.27472e-05 8.40076e-06 -2.33841e-06 1.4067e-05 
4.10947e-06 2.55865e-06 2.03485e-05 1.94056e-05 3.9893e-06 5.91946e-06 2.23209e-05 4.53937e-06 7.71126e-06 
9.0178e-06 -7.96501e-06 -9.82556e-06 -1.10871e-05 -1.24188e-05 -8.70387e-07 1.49351e-06 -3.15606e-05 -7.43536e-07 
1.7228e-05 3.74773e-06 -3.38244e-05 8.193e-06 5.26534e-06 -2.74111e-06 -7.93523e-06 -1.39398e-05 8.36694e-07 
3.28554e-07 4.13787e-06 -1.51102e-05 8.37186e-05 0.000511369 -0.000146679 -8.69808e-05 -5.79686e-05 -1.77334e-05 
-2.85721e-06 1.35321e-05 3.7712e-06 2.96699e-06 -9.66023e-07 0.000195315 -0.000227322 0.000253492 -2.15697e-05 
-0.000299223 0.000117794 1.49631e-05 -0.000279678 -2.35704e-05 3.69674e-05 8.65252e-06 -0.00041564 0.000110493 
2.80831e-05 1.88485e-05 0.000137846 4.8229e-05 -3.2088e-05 -1.7212e-05 -0.000220548 0.000239424 -0.000219038 
-9.16173e-05 3.61687e-05 1.35621e-05 6.74406e-05 1.82621e-05 4.07748e-05 3.8719e-05 -0.000108885 -0.000122616 
6.1289e-05 -8.67219e-05 -0.000203167 0.000114976 -6.16636e-05 5.37435e-05 -6.04795e-07 1.93347e-06 1.41287e-06 
-4.58688e-05 4.42887e-05 2.58205e-06 1.15021e-08 -1.37907e-05 4.7867e-05 9.86499e-05 8.98236e-06 -2.54806e-06 
1.05859e-06 1.79476e-06 1.76383e-06 3.57737e-05 3.67161e-06 1.8335e-05 5.40115e-06 -4.54812e-08 2.89702e-06 
4.37873e-05 -1.16175e-05 -6.53099e-05 2.99563e-05 0.00010094 -5.15696e-06 5.21932e-05 -5.9056e-05 7.48708e-06 
7.47605e-05 6.43111e-05 -4.01106e-05 3.08951e-05 4.0254e-06 3.60753e-05 -4.47876e-05 8.0437e-05 1.78529e-05 
4.28491e-05 -1.50451e-06 2.7136e-06 1.07438e-05 2.11995e-05 3.28917e-05 5.61808e-05 -6.40613e-06 -3.95683e-05 
1.11203e-05 2.04107e-05 5.73224e-06 0.000178852 5.45303e-05 -1.59133e-05 7.22946e-05 -3.71433e-05 3.76206e-08 
7.76316e-06 3.72884e-06 -3.90015e-06 2.2668e-06 -0.00018459 1.92102e-05 -5.88385e-05 -3.9998e-05 -7.80168e-05 
1.18093e-05 8.26168e-06 8.5385e-05 -5.99944e-05 -1.69052e-06 5.24004e-06 5.82954e-06 6.51606e-06 -4.07279e-06 
3.97056e-06 4.68484e-06 3.69969e-07 8.57952e-06 -3.66182e-07 1.62977e-07 9.71478e-07 4.70781e-06 -4.16868e-06 
-1.51634e-06 -2.58055e-06 -1.08844e-08 9.96487e-07 -3.58996e-06 -2.2556e-06 2.97111e-06 -9.20979e-08 -6.88226e-07 
1.11718e-06 2.06769e-06 -2.31206e-06 1.98113e-06 -2.6332e-07 -9.52818e-08 1.31659e-06 -1.49311e-06 -4.02789e-06 
-1.6448e-06 1.78009e-06 -1.74728e-06 5.89412e-07 -2.27473e-06 -8.19817e-07 1.39748e-06 -6.42986e-06 -1.01434e-06 
-1.83094e-06 -3.19531e-06 4.34699e-06 -2.12663e-06 -6.8737e-06 4.56031e-07 -3.83483e-06 -7.54036e-06 -3.41495e-07 
-1.00955e-06 3.32433e-07 -3.8152e-07 -1.22855e-06 -2.39706e-06 2.22787e-06 -3.58449e-07 3.23145e-06 2.59438e-05 
3.11696e-06 2.67925e-05 -1.94613e-05 -2.05312e-06 -1.56398e-06 -6.3853e-06 -9.32876e-06 -8.51625e-07 2.7105e-05 
-4.96068e-05 -3.59295e-05 -1.9863e-05 2.68195e-06 -3.15691e-05 -3.06652e-05 -8.11334e-05 3.55865e-05 3.55401e-05 
1.22576e-05 -9.70218e-06 -1.96047e-05 -6.16556e-05 9.83988e-06 5.35238e-05 6.07992e-05 3.24428e-05 -1.13478e-07 
3.16655e-06 -3.47621e-06 1.68561e-06 -5.49051e-06 -6.11274e-06 3.91602e-05 -4.48699e-06 8.44987e-06 -1.30936e-05 
2.52494e-05 1.94912e-05 2.39841e-05 -3.55621e-06 -1.1217e-07 -1.3418e-05 1.32231e-06 2.13127e-05 -1.0315e-05 
6.40682e-06 -1.9581e-06 1.23155e-06 2.55578e-05 -4.34576e-05 1.41828e-05 1.07537e-05 2.26229e-05 6.28462e-06 
-6.85004e-06 -8.05726e-06 1.99325e-05 1.67006e-05 -1.53244e-06 -2.6769e-05 -1.21204e-05 -1.54303e-05 4.43996e-05 
1.5047e-05 1.06043e-05 3.8715e-05 5.86869e-05 5.00839e-05 4.64815e-06 -2.29916e-05 7.20076e-06 -0.000162556 
2.66108e-05 1.37218e-05 2.94545e-06 -1.38019e-06 -2.08852e-05 1.6243e-05 9.06107e-05 4.94927e-06 6.94625e-07 
1.71527e-05 5.1704e-06 1.37334e-05 -9.06374e-05 0.000129607 4.48807e-05 -7.61019e-06 2.72487e-05 -8.57724e-05 
2.94002e-06 1.04437e-05 1.48502e-06 9.15207e-07 2.5159e-06 2.78433e-05 2.04032e-05 -4.43614e-05 2.11342e-05 
4.30167e-06 -2.77006e-07 -2.44694e-05 2.53575e-05 2.1014e-06 -3.94843e-05 -6.79281e-06 -2.09992e-05 -3.94262e-06 
1.00202e-05 2.74711e-05 -2.62175e-05 1.71686e-05 -5.16009e-05 4.21731e-05 7.42678e-05 -6.58461e-05 -1.47651e-05 
3.47383e-06 -2.08381e-06 3.29269e-06 -4.551e-06 6.33878e-06 -2.56587e-06 -3.86386e-06 1.20168e-06 3.5436e-07 
-4.49748e-05 3.90134e-05 3.78504e-05 9.97267e-05 2.17626e-06 -6.19234e-06 -7.02689e-06 2.87477e-05 -6.28575e-05 
2.22336e-05 1.20974e-05 1.19638e-05 1.7483e-05 0.000103508 -1.22461e-05 6.41345e-05 -4.73465e-05 6.80065e-05 
-5.10016e-05 2.25547e-06 -9.99799e-06 6.48987e-05 8.14501e-05 -0.000109365 -6.22814e-05 4.78469e-06 1.79944e-05 
0.000121412 -0.000103776 -3.49844e-05 -9.89583e-06 1.60519e-05 1.00234e-06 -8.85625e-06 -0.000161057 -0.000121045 
-3.32702e-06 6.88373e-06 1.21072e-05 1.89442e-05 4.1727e-06 -6.9098e-06 -4.52033e-06 -1.71003e-06 5.6514e-07 
-7.6408e-06 -2.55287e-06 2.16916e-06 -1.4314e-06 -1.80887e-06 1.1067e-06 5.62908e-08 -3.03994e-06 8.396e-07 
-3.10149e-06 6.71664e-06 1.98889e-06 -2.63168e-07 -9.77604e-06 -4.79642e-06 -8.71202e-06 -2.29578e-06 -2.96487e-06 
1.1164e-05 1.21802e-05 3.83117e-06 1.02425e-05 -8.7725e-07 -4.37832e-06 -8.26762e-06 1.47332e-06 4.05246e-06 
-5.51872e-06 -1.74878e-06 2.43128e-06 -5.81369e-06 2.20859e-06 2.38429e-06 1.00835e-05 1.35226e-06 3.97148e-05 
-1.07155e-05 9.06648e-05 1.02838e-05 -2.72492e-06 -2.45114e-05 -4.67697e-05 -4.79216e-05 -4.2421e-05 2.21479e-05 
1.8523e-05 4.30238e-05 7.28127e-05 3.55793e-05 -2.92443e-05 5.19994e-05 -3.94254e-06 7.84339e-06 1.45296e-05 
2.84097e-05 -1.97317e-05 -5.14894e-05 -2.54467e-05 -3.77209e-06 1.17319e-05 9.22081e-06 -3.12077e-05 -2.62068e-05 
-2.07859e-05 2.0426e-05 -3.78065e-05 -3.83222e-06 2.07407e-05 -1.13573e-05 -5.41572e-05 8.15524e-06 3.78088e-05 
2.58912e-05 3.28663e-05 1.21123e-05 6.61608e-06 4.04466e-05 2.83575e-06 3.57185e-05 2.33102e-05 3.5655e-05 
-4.37524e-07 5.96155e-07 -3.9921e-06 2.54847e-07 1.12273e-06 0.00010399 1.27627e-05 2.77796e-05 7.1805e-05 
-1.15127e-06 4.47971e-06 -3.70787e-05 -1.20108e-05 -1.25277e-05 4.28989e-05 -3.25215e-07 8.00583e-06 -1.41756e-06 
-5.36209e-05 -7.72624e-05 1.64606e-07 9.52574e-06 9.29939e-06 -1.58836e-05 -0.000143151 2.22342e-05 -5.20906e-05 
6.2047e-06 4.68973e-06 1.26967e-06 -2.05915e-05 -3.9398e-06 -5.46655e-06 1.37697e-07 -7.15104e-07 6.22447e-06 
-1.43475e-05 4.54228e-06 -2.19571e-05 2.41699e-06 -3.11881e-05 -4.77502e-06 -1.2232e-05 2.51844e-05 3.89009e-05 
3.83551e-05 -4.80895e-06 -2.6737e-05 -1.37007e-05 -8.99408e-06 -2.00678e-05 2.98967e-05 -1.57794e-05 2.05874e-05 
1.60278e-05 5.32339e-06 3.27368e-05 9.02937e-06 -1.25417e-05 -6.72002e-06 -1.37086e-06 -5.29546e-06 7.81135e-05 
4.94813e-06 -1.15886e-05 -2.23175e-06 -2.15605e-06 3.71758e-06 1.48532e-05 2.14963e-05 9.20233e-05 2.42691e-05 
3.00487e-06 1.84408e-06 -3.77414e-06 -4.37273e-06 1.27534e-06 5.20088e-06 -5.17475e-06 -6.61847e-06 -8.04395e-06 
-1.72997e-05 -8.72728e-06 8.84869e-06 -1.50093e-05 6.28128e-05 -4.95634e-06 -2.46822e-06 -2.82312e-05 1.6608e-05 
2.18638e-05 3.63784e-06 -3.33326e-06 1.98895e-05 -4.81802e-06 -6.89598e-06 -5.14193e-05 7.56224e-07 1.57289e-05 
-1.10276e-05 7.30008e-06 -1.8184e-05 -9.78792e-05 1.06303e-05 -3.74827e-05 8.09576e-06 3.44845e-06 5.57131e-05 
1.44995e-06 1.52401e-06 7.17983e-06 2.39087e-05 2.64055e-05 9.03404e-07 4.25685e-05 4.03052e-05 6.28334e-06 
-2.25461e-05 -5.61646e-06 -9.35723e-06 -1.01308e-05 1.80959e-05 2.39581e-05 -8.34921e-06 -6.90456e-06 -8.67942e-06 
1.18398e-05 -2.28917e-05 1.52442e-05 -1.13546e-05 6.56086e-06 3.17581e-05 -1.45915e-05 2.89833e-05 3.70839e-06 
5.93901e-05 -1.77742e-05 -2.57542e-05 -4.84321e-06 1.95398e-05 3.51896e-05 -3.89416e-06 7.86212e-06 5.45871e-06 
2.79564e-06 2.29483e-05 -2.2316e-07 -4.15727e-07 2.79452e-05 -4.68095e-06 1.30576e-05 -2.08713e-05 -1.46168e-05 
-1.13168e-05 1.01117e-06 4.56947e-05 -2.92554e-05 4.68377e-05 -1.69958e-05 -3.02438e-05 -3.93753e-05 8.88796e-05 
-3.92563e-05 4.87394e-05 -8.19165e-06 1.49949e-05 1.93543e-05 -1.06952e-05 7.36248e-06 -2.99176e-06 1.5631e-06 
2.6465e-05 -9.9086e-05 -1.71472e-07 -2.41433e-06 -5.64882e-06 -5.92192e-05 -3.01377e-05 -2.50052e-06 -1.61334e-05 
-5.04222e-06 2.47355e-06 -1.43269e-05 -3.7614e-06 6.36045e-07 -7.33364e-06 -1.05797e-05 1.0477e-05 1.14013e-05 
1.88071e-05 2.15308e-06 2.73119e-06 1.37916e-05 -8.03718e-06 -2.07938e-06 -6.38627e-06 5.55857e-05 -8.84507e-05 
-1.42622e-05 -1.4024e-05 2.39432e-05 9.27724e-06 -1.7312e-05 -5.95994e-06 -2.16242e-06 -6.48862e-06 -3.22778e-05 
3.32277e-05 -7.8171e-05 1.01475e-05 1.45787e-05 2.69016e-05 7.14814e-06 3.04829e-05 -2.6078e-06 -6.40005e-06 
-1.97643e-05 5.34063e-06 -3.79162e-05 -3.45092e-06 -2.0065e-05 2.61693e-05 -4.20809e-05 1.55088e-05 -3.65006e-06 
1.82409e-05 1.94958e-05 2.30124e-05 2.27721e-06 -9.51882e-06 -1.38058e-05 2.2105e-05 -2.43843e-05 -2.31065e-05 
6.49179e-06 -0.0105358 -1.29343e-06 2.15887e-05 1.62131e-05 -3.95274e-05 4.14058e-05 1.9059e-05 -1.19513e-05 
7.71967e-05 9.70314e-06 3.97814e-06 2.8215e-06 -1.14163e-05 -1.33762e-05 -2.7677e-05 7.14337e-05 -2.12488e-05 
3.28808e-06 1.29839e-05 -6.85246e-06 -2.02615e-05 7.91856e-06 -2.18265e-05 1.24538e-05 -4.68835e-07 2.92784e-05 
1.27512e-05 -1.24458e-05 4.84062e-06 -7.80241e-06 -1.27251e-05 7.98456e-07 5.15208e-05 -3.07261e-06 2.94024e-05 
-7.03598e-06 4.88409e-06 -0.0477838 0.0252923 6.13482e-06 -2.04922e-06 -8.27387e-06 6.09379e-06 3.0575e-06 
8.34957e-06 7.82522e-06 -5.23009e-06 -5.47664e-06 -8.36345e-05 2.66552e-05 -0.000145306 -0.000356276 -0.000178637 
0.000104797 -0.000106812 1.41619e-05 -0.000265129 5.38751e-05 0.000332588 -0.000577838 -0.00157972 -0.00134057 
-0.00198985 0.00314779 -0.000409838 5.27505e-05 -0.000111075 -3.40619e-05 5.00055e-05 -0.000105068 -0.000240347 
8.86161e-07 4.66109e-05 -1.87787e-05 0.000162037 4.14051e-05 0.000273547 -8.13605e-05 1.02125e-07 8.34294e-05 
-4.98214e-05 6.05235e-05 -4.93386e-06 -3.1369e-05 2.90408e-05 -2.85606e-05 0.059487 -2.12315e-06 5.74273e-06 
-0.0153248 -0.00530009 -0.00296989 -0.000502814 -8.65617e-05 -0.000201075 -0.00024865 -0.000265773 -0.000175507 
-2.31902e-05 -6.40369e-05 -2.44822e-05 -7.44333e-05 -5.24105e-05 -6.5389e-05 -6.04113e-05 -5.42298e-05 -6.10083e-05 
-6.91543e-05 -2.87876e-05 -3.06766e-05 -2.84573e-05 -2.6908e-05 -2.21232e-05 -1.90398e-05 -3.84739e-05 -3.31312e-05 
-1.91739e-05 -1.91858e-05 -1.6894e-05 -1.01517e-05 -1.15404e-05 -9.74557e-06 -1.97096e-05 -1.97155e-05 -1.59763e-05 
-1.24779e-05 -1.1842e-05 -5.24996e-06 -5.65033e-06 -5.42377e-06 -1.78365e-05 -6.0428e-06 -1.09922e-05 -9.76822e-06 
-4.76839e-06 -8.88339e-06 -9.44929e-06 -5.69181e-06 -5.78894e-06 -6.29432e-06 -7.07657e-06 -7.82157e-06 -9.96117e-06 
-1.60291e-06 -2.24215e-06 -3.67849e-06 -6.89405e-06 -5.62056e-06 -2.81603e-06 -3.71907e-06 -2.90441e-06 -2.36999e-06 
-2.24548e-06 -1.62342e-06 4.05185e-07 1.77815e-06 -7.41683e-06 -5.69816e-06 -9.27543e-06 -5.1849e-06 -6.47808e-06 
-0.000118841 -6.19158e-05 -3.57922e-05 -1.471e-05 -1.76044e-05 -5.00947e-06 -7.42217e-06 -3.07685e-06 2.95171e-06 
1.48241e-06 -2.16249e-06 2.3693e-06 -1.31779e-06 -2.10791e-06 -9.80942e-07 -3.58397e-06 -1.04434e-07 -3.08554e-06 
3.22099e-06 -8.54774e-06 -8.65537e-07 -1.00919e-05 3.14872e-06 -6.35867e-06 1.06515e-06 3.31655e-06 -1.13117e-06 
-2.49296e-06 4.10432e-06 -3.65648e-06 1.38408e-05 8.2976e-06 1.80061e-05 -7.63787e-06 -1.65319e-06 1.83429e-05 
1.3399e-05 1.6551e-05 6.0242e-06 1.40245e-05 7.22366e-07 -5.26733e-06 3.10767e-07 7.36556e-06 -5.90518e-06 
4.13714e-06 -1.79528e-05 -6.14824e-06 -1.58042e-05 6.8544e-06 -3.09856e-06 -6.17556e-06 -4.90083e-06 -5.56744e-06 
3.55376e-08 1.41839e-05 2.50418e-06 0.000260341 0.00202197 0.000780891 -0.000233527 -0.000272642 -0.00027358 
-7.02935e-05 -0.000258423 -0.000525492 -0.000449698 -0.000120926 -7.56392e-05 0.00013264 -0.000341813 -0.000138235 
-0.000361161 0.000277044 2.40814e-05 -0.000435548 -0.00138259 -0.000980134 -0.00315364 0.000412083 -0.00504158 
-0.00136568 0.000139491 -0.000637399 0.000283303 3.16484e-06 0.000367154 -3.72611e-05 0.000176871 0.000339727 
0.000214593 0.000380097 0.000213349 0.000132531 0.000219249 0.000329387 -0.000115784 0.000524257 0.00112981 
0.000781413 0.00167934 0.000801448 -0.00348086 0.00419271 -0.000933532 0.00261409 0.00388161 0.00212704 
-0.00145103 0.0015453 -0.00235391 0.00115671 -0.0024455 0.00240706 -0.00247298 0.00235873 -0.00202586 
0.00277314 0.00284324 -0.000404111 -0.00314704 -0.00278628 0.00359105 -0.00281797 0.00282987 -0.00126754 
0.00104021 -0.00110775 -0.00091162 -0.000630926 -4.54194e-07 3.57591e-06 2.27822e-06 1.3902e-06 -0.000766884 
-0.00157347 -0.000981414 0.00048586 0.000280395 -0.000770632 0.000214621 -5.87103e-06 -0.000444124 -6.38563e-05 
-1.08955e-05 -8.52616e-05 0.000544088 -0.000760499 0.00249573 0.00138416 0.00157149 -0.000721207 -0.00123261 
0.00394008 0.00612008 0.000150091 -0.00010674 3.54093e-05 -8.3037e-05 -0.000376347 0.000248694 0.00344337 
-0.00960607 0.0158131 0.0407952 -0.00788226 -0.000864579 0.00258377 -2.7713e-05 1.40333e-05 -4.42032e-05 
2.32078e-05 -0.000145694 2.34244e-05 -7.49499e-05 0.000213975 0.000131057 -3.74748e-05 -0.000142595 -4.41112e-05 
-4.40976e-05 8.45183e-05 -4.42406e-05 1.53566e-06 -1.57403e-06 3.91176e-06 6.05819e-06 1.98285e-06 -4.5063e-07 
-5.71938e-06 2.16259e-05 -1.00573e-05 4.70378e-05 -5.56959e-05 -7.13835e-05 4.83884e-05 -8.87174e-07 -2.53099e-05 
2.25032e-05 -2.47724e-05 -2.4881e-07 1.44447e-05 -1.41592e-05 -3.4587e-06 -4.80611e-06 2.94679e-06 2.78814e-06 
1.83346e-05 -1.08435e-05 1.92312e-05 2.67898e-05 -4.18409e-05 -4.70829e-06 -4.42821e-06 3.61018e-06 1.75796e-05 
-4.75545e-06 3.32803e-05 5.48712e-06 4.77017e-06 -1.51714e-06 -0.00571438 -0.00381259 -0.0128188 0.00329669 
4.57228e-05 2.17833e-05 1.44275e-06 -1.3004e-06 3.39265e-06 -5.85545e-06 -0.000267282 -0.000705236 0.00178172 
0.000843569 -0.00212833 -0.00373356 -0.028164 6.39699e-07 5.24134e-06 2.00668e-06 5.36085e-06 -1.98529e-06 
1.21156e-05 -3.56533e-08 2.856e-06 -1.69376e-06 3.4673e-06 -8.39446e-06 -0.000138446 2.22358e-05 5.08692e-05 
-2.16341e-06 -3.56589e-06 4.75096e-06 -4.03123e-06 -2.19132e-06 0.000286481 -2.51112e-05 -0.000604439 -0.00396082 
-1.55824e-05 -1.75628e-05 1.4446e-05 -9.73413e-05 3.8672e-05 -1.72133e-05 -0.00118351 4.01149e-06 -3.34711e-06 
7.16838e-07 -4.38342e-08 2.16922e-06 -1.2858e-06 -0.000192997 -4.31573e-05 -9.13207e-05 -5.30849e-07 -8.86639e-07 
1.26643e-06 4.5561e-07 -1.10205e-06 4.36596e-06 1.79282e-06 3.91639e-06 2.17161e-07 3.2355e-06 -0.000256369 
0.000187479 4.20222e-05 1.29155e-06 -1.54473e-06 -5.18447e-07 -3.79438e-07 2.15296e-06 4.74004e-06 -3.48259e-06 
-3.82481e-06 5.84383e-06 1.39674e-05 -3.54944e-06 9.34771e-06 -2.30192e-06 6.27327e-06 -1.523e-06 -3.82545e-07 
3.50608e-07 4.21666e-07 1.60403e-07 0.000129493 -8.52002e-06 0.000216377 0.000229198 1.62894e-05 -0.000230232 
-0.00078454 -1.01718e-06 6.45669e-06 1.41677e-06 0.0255635 0.0305055 -0.0159859 -0.0128933 -4.95066e-08 
2.03534e-06 1.56572e-06 2.28097e-05 6.01228e-07 1.20442e-05 -7.61405e-06 3.11375e-05 -7.38063e-05 -3.59833e-06 
-7.06065e-05 2.23505e-06 -1.01463e-05 6.67537e-06 8.20465e-06 0.00492274 -9.66998e-06 -1.52051e-05 -6.37132e-06 
1.06333e-05 -1.53098e-05 5.65946e-06 4.75699e-07 -7.72472e-06 0.000104329 -0.00094763 0.0294262 0.0296923 
-5.50849e-06 -8.95852e-06 -8.41596e-06 1.71394e-06 -1.08601e-07 -5.90036e-06 5.0743e-06 0.00147129 -1.28628e-05 
1.62771e-05 -7.06489e-05 2.16787e-06 -1.14417e-06 -8.55033e-07 0.000290907 -0.000249173 0.000416641 9.84273e-06 
-4.32155e-06 -3.80717e-06 0.00272904 -0.00530228 0.00286375 -5.48385e-08 -1.26138e-06 -3.1711e-07 6.25399e-07 
3.40172e-06 -7.13477e-06 0.0301351 -0.0291725 0.000745933 -0.00525608 -0.0119461 -7.8175e-07 1.90378e-06 
2.30102e-06 1.23641e-06 4.5649e-06 -1.34562e-06 2.17298e-06 6.14423e-06 1.80016e-06 2.18118e-06 6.45006e-06 
4.40357e-06 -4.06966e-06 3.23358e-06 -0.0051874 -0.00289411 0.00178408 -1.12018e-05 5.8047e-07 9.31281e-06 
9.79207e-06 5.6029e-06 9.71761e-08 -1.98602e-06 -6.05344e-08 9.15578e-06 -5.13931e-06 -1.27661e-05 -1.51888e-05 
1.55258e-05 -9.65829e-05 5.91545e-05 1.93133e-06 0.000451256 -0.000145869 6.03611e-06 -1.52037e-05 8.34282e-06 
2.31214e-05 3.26175e-05 2.53444e-05 4.77683e-05 3.12321e-05 2.26495e-05 -6.81135e-06 0.0301426 -0.00304566 
-1.11035e-05 -7.64809e-06 -4.05664e-05 0.000238835 -0.000145357 -0.000138243 -2.05898e-06 -1.19678e-06 6.3544e-05 
-7.89847e-05 -4.62404e-06 -3.22158e-06 6.62266e-07 -1.57362e-05 -1.09074e-05 4.07364e-05 -1.52024e-06 7.87371e-06 
-0.00016418 0.000247186 0.00012578 0.0292377 -1.99941e-05 -2.54207e-05 1.1424e-05 -6.15053e-07 -5.62775e-07 
5.54958e-07 -2.18621e-05 3.65835e-07 -4.32805e-05 -9.66455e-06 -2.30325e-05 -0.0120332 0.0121833 -0.0177951 
0.0046988 -2.38751e-05 -1.47983e-05 9.85318e-06 -9.49709e-07 7.76464e-07 1.7267e-06 -3.12068e-06 8.46855e-07 
2.56971e-06 0.000230459 0.000444459 0.000456799 -2.14442e-06 -1.26256e-07 -0.000285972 -6.52497e-05 0.00135367 
-0.00114317 -0.000582696 -0.00025212 -1.62013e-06 -1.19741e-08 -0.000136839 0.0380571 -0.000263578 0.0292988 
0.00247858 -0.0130824 0.0018997 -1.10948e-05 -1.61227e-05 -1.50658e-06 6.34805e-05 -0.000122412 4.53277e-05 
-2.31581e-07 0.00139284 -1.15251e-07 0.000558614 3.635e-06 -4.98072e-06 5.29278e-06 -6.40706e-06 3.60747e-06 
6.40001e-05 -8.1993e-05 -2.46554e-07 1.30018e-06 -2.08578e-07 -9.51295e-07 -4.34389e-07 -2.17015e-07 1.55301e-06 
1.8047e-06 1.65707e-07 7.97165e-07 -1.58628e-06 -8.8386e-06 -3.19504e-05 3.74322e-05 1.65219e-06 -4.37927e-06 
-7.27647e-06 -0.000330873 -7.96023e-06 -8.79823e-05 1.43458e-06 -5.82472e-06 -3.64634e-06 -0.000252483 0.00123396 
-0.000211439 -4.56935e-06 -6.44033e-05 -4.58248e-06 -8.45673e-07 0.027418 1.83265e-05 -3.12269e-07 -1.62718e-06 
8.9577e-06 1.76805e-05 -2.44033e-05 -1.63723e-06 4.09045e-06 1.23913e-06 -1.4678e-06 -0.000137375 1.37242e-05 
-1.3567e-05 2.8897e-06 1.17107e-06 0.00353534 0.00243988 -0.0322811 -0.00421561 -0.00382215 -0.0135357 
-1.78518e-06 5.10754e-07 1.03016e-05 -1.70309e-05 -2.2028e-05 2.91038e-05 0.000985291 -0.0030923 -0.00316686 
0.00580002 5.51967e-05 -0.000115838 -0.000139112 0.000148329 -0.000251563 -2.82095e-06 3.01627e-06 -5.22062e-07 
-2.40633e-06 5.28551e-08 4.05326e-06 -1.83041e-06 -0.000331757 -0.00104251 -0.0029437 -3.70614e-06 -2.67274e-06 
-1.47218e-06 2.11385e-06 -5.22814e-06 4.77653e-07 -7.32738e-06 -1.6275e-06 1.11022e-06 1.10947e-06 2.94822e-06 
-3.87124e-06 4.44938e-06 7.45773e-06 6.22628e-06 -0.000164372 -3.50242e-05 0.00012743 0.000119767 -0.00015691 
-2.75124e-06 1.80393e-05 -1.68696e-05 6.96322e-06 0.00188656 -0.00153198 0.00199612 2.4025e-06 -1.87865e-06 
-3.75344e-06 -3.34678e-06 7.35362e-07 3.17548e-06 -9.90557e-06 -2.34e-06 9.68014e-06 7.15584e-06 0.00541683 
-0.00255755 -0.0059622 0.00271252 4.47388e-05 -5.04418e-05 9.9563e-06 2.71832e-05 -2.21806e-05 0.00102791 
0.000400326 -0.0308491 1.85637e-05 -1.15673e-05 -2.24986e-05 1.32666e-06 -5.13567e-08 -3.43278e-06 2.54665e-05 
5.18988e-05 -2.46266e-05 -1.07277e-05 0.00014552 0.000667189 0.00139263 0.00506675 -0.00127523 -0.00300615 
-0.00295831 -0.000432666 0.00448232 -4.84592e-07 -0.00506494 -0.00032092 -2.03575e-05 -7.92631e-05 -5.83055e-05 
-1.87428e-05 2.21242e-05 2.00877e-05 -2.16888e-06 -3.30618e-06 -0.000147308 -1.70197e-05 3.98259e-05 6.7143e-05 
4.2731e-05 0.000157498 -6.78087e-07 2.83903e-06 2.02014e-06 1.7904e-06 -2.38565e-06 0.000880395 0.000889754 
1.6531e-07 -6.55016e-08 -1.74029e-06 -0.000145555 8.45384e-05 0.00017875 -4.74231e-06 -3.04058e-06 -3.43976e-06 
4.37922e-06 -4.99855e-06 2.59191e-06 -6.0209e-05 0.000160455 -0.00404825 7.19487e-05 -2.05551e-05 4.98807e-06 
-2.89511e-06 -1.39701e-05 -1.12928e-05 8.06629e-07 4.83753e-06 6.11939e-06 -8.19203e-06 1.06781e-05 -2.09427e-05 
5.30785e-07 1.07027e-06 1.25261e-05 1.69728e-05 -0.000148041 0.00112302 0.000523455 -4.07016e-06 2.75357e-06 
4.82957e-06 -1.26614e-05 2.59948e-06 7.78014e-07 2.1084e-06 4.03725e-06 1.31239e-06 9.26713e-07 -3.47561e-07 
-4.25023e-08 3.41268e-06 -3.22331e-06 -8.02544e-06 -5.41786e-06 2.01357e-05 -3.06263e-06 7.06115e-07 9.14034e-07 
3.02158e-05 -1.29081e-05 2.14613e-05 1.06878e-06 3.62745e-06 -2.42777e-06 5.48098e-08 -8.7496e-07 -5.85587e-06 
-0.0111624 -0.00857142 6.28636e-06 1.78311e-05 3.17679e-05 -9.90797e-05 1.40873e-07 2.67729e-07 1.06714e-06 
-8.27347e-08 -0.00101756 -0.000185344 0.000363033 -1.20464e-06 -1.79045e-06 -5.85946e-07 0.0364434 5.14105e-06 
-9.10809e-06 -1.45824e-05 1.19149e-05 3.66776e-06 3.31403e-05 0.000100494 -2.27497e-06 -0.000133457 8.78458e-05 
0.000615842 -4.81256e-06 4.21456e-05 6.33582e-06 1.49491e-05 -2.16586e-05 4.27053e-05 -3.76028e-05 -5.19689e-05 
-3.46087e-05 -1.47529e-06 -0.00526064 0.00277541 0.00110179 1.45145e-07 8.27118e-07 1.21625e-06 -1.03603e-05 
-1.12691e-05 -2.43578e-05 3.41574e-05 -2.47534e-06 3.43094e-06 2.18578e-06 1.97799e-06 1.44465e-05 3.12354e-05 
3.16975e-05 -3.0482e-05 -1.74721e-05 -3.88631e-05 -6.40416e-05 4.86022e-06 -1.15176e-05 2.17811e-05 7.43527e-07 
-1.07971e-05 5.18567e-06 1.21137e-06 1.04383e-05 7.59311e-05 4.99299e-05 -1.73479e-05 -2.29162e-05 2.68174e-05 
-9.48779e-06 -3.20844e-06 2.53909e-06 8.1495e-07 7.98389e-06 3.30902e-05 -6.81966e-06 0.000103827 -0.000151999 
-0.00565189 3.10023e-06 2.01616e-06 9.06953e-06 -1.5118e-05 -1.24116e-05 -1.22544e-05 8.5346e-05 -1.65351e-05 
-1.35355e-05 -3.11424e-05 -8.63469e-05 1.5406e-06 1.23641e-05 0.000354488 -5.13361e-05 0.000121812 8.70079e-06 
-7.73032e-06 -0.000305458 8.16563e-05 -7.35371e-05 -0.00019609 -2.48833e-05 2.96703e-05 -5.19152e-05 4.17302e-05 
-1.80343e-05 -1.3819e-05 1.76787e-05 0.010342 0.0158601 0.000312712 3.82815e-06 -1.86651e-05 3.80097e-06 
-5.66135e-06 4.60272e-06 3.38167e-05 3.861e-06 -4.34913e-05 -2.56164e-05 -0.00829852 -0.00814956 0.000626412 
-0.00116532 0.000249919 7.561e-05 -5.86681e-05 -6.6389e-05 9.92155e-05 -2.03636e-05 -7.59658e-05 1.19257e-05 
2.7028e-05 -1.85352e-05 -1.08281e-05 7.91933e-06 -1.0448e-05 -1.48271e-05 8.76094e-06 -8.53741e-06 9.24413e-06 
-1.35702e-05 0.000495682 -0.000770098 -3.32304e-05 3.84935e-05 1.89572e-05 -0.000153862 7.40641e-05 0.000742533 
-0.00240793 0.00167628 -0.00300288 -5.35492e-06 -3.67266e-06 3.78914e-05 2.4477e-05 -0.000139306 -0.000115173 
0.000197463 0.000158954 -9.04856e-07 1.41421e-06 -6.30154e-07 1.69775e-06 -3.54052e-05 1.36759e-05 9.09037e-06 
-1.55956e-05 -1.03716e-05 -0.000213754 -8.63126e-05 0.00155134 -0.000257366 5.0022e-05 -0.000246818 -6.06987e-05 
-5.67596e-06 -2.71118e-05 -1.09616e-05 5.41627e-07 7.27639e-08 5.05551e-08 1.37668e-06 -0.00316933 0.00140529 
-0.00883087 0.00250928 0.0157612 -0.00732974 -1.60565e-05 1.6654e-05 1.85197e-05 0.000275888 0.00254189 
0.00309569 0.000296308 5.46043e-05 0.000230272 7.12414e-05 -1.82138e-06 9.18606e-07 9.10521e-07 -1.91812e-06 
-7.84598e-07 1.2258e-06 9.33812e-07 1.57037e-06 -4.88194e-06 5.06812e-05 -4.36728e-06 9.13022e-05 -2.46122e-07 
9.38174e-07 2.37555e-08 1.14293e-06 5.39578e-07 1.03316e-06 -3.18851e-07 1.08478e-07 0.000111359 0.000163142 
-4.42328e-06 -1.00979e-05 -2.04318e-06 -5.77346e-05 -0.000246411 -0.000107129 0.00223702 -0.0284905 2.24633e-06 
5.70609e-06 2.47153e-05 -0.000140727 6.80997e-05 -0.000160416 0.00158528 9.63577e-06 -2.23037e-05 -9.64092e-06 
-7.07714e-06 -3.38508e-06 -2.37231e-06 1.86024e-06 -9.07679e-06 8.15048e-06 -2.20093e-05 -2.36815e-05 5.96904e-07 
8.833e-07 -3.15071e-06 -0.000816672 -8.84305e-06 2.29147e-06 -7.06997e-06 1.85076e-05 -1.87035e-05 -5.20184e-06 
-2.985e-06 3.25793e-06 6.82017e-06 1.04527e-05 -0.000114354 -4.30896e-05 -0.000232768 -0.000273154 1.19114e-05 
1.57556e-05 -2.81925e-06 2.63393e-05 4.17834e-05 -2.35849e-05 -6.63003e-05 -4.62468e-05 2.42096e-05 3.0266e-05 
5.13816e-06 -3.82869e-05 1.71057e-05 -7.61254e-05 -3.01332e-06 2.41564e-06 -5.83846e-06 -1.45244e-05 5.23041e-06 
0.0311444 1.29476e-05 1.87498e-05 8.92537e-05 0.000174022 -3.39396e-05 5.17569e-05 1.20783e-06 1.55355e-05 
-1.05384e-06 1.32857e-07 -2.29901e-05 2.01995e-05 -6.96053e-06 1.6639e-05 5.85966e-05 -0.000153248 -5.24866e-06 
1.21473e-06 -7.30217e-06 1.58403e-05 -4.05327e-05 -1.68696e-06 9.79804e-07 1.26042e-05 -6.18382e-05 -0.000161458 
-5.68211e-06 -1.09044e-05 5.72908e-05 -5.82441e-05 -1.24579e-05 -5.57856e-06 -0.000441559 3.46974e-05 -1.83041e-05 
3.73451e-05 2.35634e-05 2.79001e-06 7.8758e-06 -3.96736e-06 -0.000247197 -5.05816e-05 -4.53092e-05 0.000206488 
-0.000262231 -2.80898e-07 2.05851e-06 0.000102802 -0.0004585 6.03408e-05 2.96869e-05 -0.00507271 0.00126021 
0.000178552 -0.00017812 6.98038e-05 0.000164641 -3.38294e-06 0.00562517 -7.50182e-06 -1.79833e-05 -3.22834e-05 
-9.19876e-05 -4.79628e-05 -7.16224e-06 -1.13122e-05 -5.96166e-06 7.237e-06 0.0307191 -0.0126091 -0.00365525 
-0.00521294 0.0315626 0.00111515 4.7494e-05 3.36009e-05 4.58974e-05 -2.85033e-05 1.98388e-05 1.50788e-06 
0.0253675 0.00174941 -0.0277516 -0.00011228 -0.000386423 0.0299113 3.16961e-05 2.19964e-05 2.48189e-05 
1.84385e-05 9.15158e-05 -4.03173e-07 1.44246e-06 -2.63323e-07 -1.55491e-06 9.84777e-07 -4.94475e-05 4.3732e-05 
-1.15623e-05 0.00535621 1.12256e-06 -5.15627e-07 -1.98381e-06 -9.98101e-07 -5.68951e-06 5.95777e-06 3.35359e-07 
1.14411e-06 2.50928e-06 0.000102586 1.51184e-05 -7.70807e-07 -1.74223e-06 2.76675e-06 0.0303082 0.0394961 
-0.0101933 -7.79719e-07 -5.52876e-06 4.47434e-05 -2.53102e-05 -1.85625e-05 -1.53274e-05 -3.9652e-06 1.48664e-07 
-4.39137e-06 -1.65477e-07 -0.00499391 2.746e-06 1.43602e-05 -1.00238e-05 -1.91096e-05 1.15983e-06 1.32203e-05 
1.22637e-05 -1.33232e-05 -5.51783e-07 2.04327e-05 1.84969e-06 7.20026e-05 3.59175e-05 -4.00555e-06 -6.3158e-06 
-4.623e-06 7.90853e-06 -2.7773e-06 -9.42622e-06 8.75588e-06 -2.97946e-05 2.13061e-05 1.25526e-05 -6.71171e-05 
9.59804e-06 1.40183e-06 1.58017e-05 1.21092e-05 -1.0913e-05 8.64165e-06 8.2362e-07 -0.00959054 0.00347741 
0.00385911 3.08288e-05 -7.24304e-05 8.61332e-06 -0.00015832 2.63602e-05 -0.000135766 -9.71811e-07 2.05159e-06 
1.98883e-06 -1.81651e-05 5.19086e-06 8.95895e-06 -4.20226e-05 -8.76372e-07 1.76949e-06 -2.5787e-07 6.87296e-07 
6.27488e-07 -2.81927e-07 5.30695e-07 5.39294e-07 1.00912e-06 1.60736e-06 -4.88465e-07 -4.47218e-06 -2.35652e-06 
2.26708e-05 0.000111293 -8.00951e-05 -3.44043e-06 5.99649e-06 -2.31025e-06 -2.02781e-05 -1.78679e-05 -2.57741e-05 
1.35196e-05 -6.09119e-08 1.64361e-06 1.47523e-05 -1.4444e-06 -1.83341e-05 2.29422e-06 1.71108e-05 1.20968e-06 
7.19305e-05 -1.37819e-05 3.36316e-05 0.000101766 1.48659e-06 -6.44743e-06 6.72162e-06 -3.18913e-06 -1.26241e-05 
-1.93372e-05 6.49104e-06 3.01714e-07 -1.78865e-05 7.16961e-07 4.96827e-06 -1.80031e-06 9.21808e-07 1.27894e-06 
-0.00440189 0.000452211 -7.85067e-05 9.03478e-06 -1.12662e-05 -4.75763e-06 1.09498e-06 -1.08541e-05 -2.27206e-05 
-5.8878e-06 1.86931e-05 -1.84373e-05 2.47502e-05 3.76241e-06 -1.70406e-05 3.52622e-06 1.56664e-05 -1.46824e-05 
-4.8094e-06 -6.32436e-05 -7.82383e-06 1.17851e-05 -4.43532e-05 9.86515e-05 5.87564e-05 -1.76133e-05 -3.96195e-07 
9.48503e-07 2.91925e-05 1.30474e-05 -2.36416e-06 -2.02467e-05 0.000121582 -0.000102402 9.48943e-05 4.06027e-06 
1.84495e-06 1.81816e-06 1.50227e-06 -4.08492e-05 3.3655e-05 -2.03701e-05 3.48074e-06 -2.42506e-05 1.69044e-05 
-2.80737e-05 -2.42743e-05 -3.69102e-05 2.58728e-05 -7.5979e-05 2.97549e-05 2.42014e-05 -8.12215e-06 3.63016e-06 
-3.65292e-06 3.37776e-06 -4.9658e-08 -1.1334e-05 6.33547e-05 -0.000102834 1.97857e-05 -1.18254e-05 5.79336e-06 
5.48946e-06 3.35703e-05 9.94159e-06 -3.68299e-06 -7.2089e-07 3.91185e-06 7.4823e-06 4.15535e-06 1.05007e-05 
9.50672e-06 8.69165e-06 0.000200848 1.52329e-05 0.0287914 -0.0120286 6.40912e-06 -9.14777e-08 0.000174691 
-0.000170906 4.32586e-06 -2.35128e-06 -8.00798e-07 6.75937e-06 2.21408e-06 -1.10794e-05 4.8377e-06 -1.90588e-05 
8.14467e-06 2.58722e-05 2.13714e-06 -1.67586e-06 7.9912e-07 -1.23265e-06 -3.09396e-06 -3.15028e-06 4.19397e-06 
3.28364e-06 1.70196e-06 -6.35187e-07 -0.000274872 -0.000437606 0.000445797 -7.59216e-06 -2.55153e-06 1.91016e-05 
-1.37965e-05 2.60791e-05 4.12831e-05 0.000228963 -0.000306751 -3.66391e-05 -9.07708e-06 7.1123e-05 1.82308e-05 
-6.35231e-05 -3.92007e-05 -1.7812e-05 -5.50327e-05 -0.030214 0.000110603 -5.66912e-05 8.84605e-05 -6.74894e-05 
-0.000351473 -0.000209834 9.70264e-05 -1.93545e-05 1.6209e-05 9.8513e-06 4.6396e-05 -3.36264e-05 -6.39219e-05 
4.45449e-06 -3.51207e-05 8.61443e-06 1.70991e-07 6.34867e-07 -5.61972e-07 -7.22458e-05 -3.5039e-05 1.61413e-05 
-4.77243e-05 1.28197e-05 -2.19428e-05 -4.45776e-05 2.15046e-05 -1.18654e-06 -2.05837e-05 -0.000538702 -0.00182535 
-0.000381105 -7.70287e-05 6.82481e-07 5.6849e-07 -3.92984e-05 -3.42487e-05 -2.23183e-05 -2.95202e-07 1.23309e-07 
8.50408e-08 1.93081e-05 -3.33103e-05 -1.22372e-06 -9.89048e-07 -5.69675e-06 1.5443e-05 0.000139617 -5.44409e-06 
-5.44397e-06 -4.62139e-05 9.46918e-06 -1.67063e-05 1.42761e-06 1.53282e-05 2.03142e-05 -1.47545e-05 -1.09568e-05 
1.51745e-05 2.74292e-05 -3.95641e-05 -4.19277e-06 -3.14381e-06 3.9577e-06 -0.000413412 -0.000201837 -0.000726072 
3.33963e-05 -8.32347e-06 -1.03305e-05 -2.07688e-05 4.8305e-05 -0.000174594 -1.16081e-05 -8.05125e-06 1.10544e-05 
5.53706e-05 -2.35092e-05 2.1115e-06 -3.95951e-06 6.60212e-05 -4.27435e-06 8.16188e-06 3.12366e-06 -0.000266083 
-0.000469887 0.000202922 -0.000229388 -1.43344e-05 2.41992e-05 4.44114e-05 0.00010379 1.99067e-05 1.38296e-05 
3.62587e-05 -1.67377e-05 -4.02103e-05 -4.99581e-07 3.88128e-06 6.2354e-07 -7.80934e-06 2.54912e-06 -1.1737e-06 
1.09914e-05 -2.24328e-06 -5.37846e-06 -9.48016e-06 6.74943e-05 6.14234e-05 2.91241e-05 2.76543e-05 -0.00476024 
2.30646e-06 -1.40974e-06 -3.82187e-06 -1.11934e-05 2.19772e-05 0.00018394 1.5408e-06 6.39415e-06 7.21144e-06 
-6.71957e-06 3.75058e-05 -8.50538e-05 4.50009e-05 0.00011927 0.000128784 2.92551e-05 -8.08573e-05 2.0871e-05 
2.61329e-06 -1.06011e-06 2.0431e-06 -0.00107572 0.000958493 -0.000529271 5.32165e-05 -7.55312e-06 -0.00579065 
-0.00149915 0.00214187 -4.51367e-06 4.29419e-05 7.73558e-05 -3.53397e-05 -1.7647e-05 -2.14788e-06 -1.63355e-05 
-5.61679e-06 -4.70592e-05 -3.73641e-05 -1.36609e-05 1.80348e-05 -4.71229e-06 2.72384e-05 5.50661e-06 -0.000290198 
0.000338393 -3.23319e-06 -5.07134e-05 -0.00223269 4.50929e-06 2.88467e-06 3.72682e-05 3.15623e-06 -7.49995e-05 
-0.000151691 0.000107132 0.000129367 -1.81505e-05 5.7803e-05 4.33801e-05 1.11608e-05 3.15525e-05 1.55318e-05 
1.10592e-05 -1.88093e-05 -3.25924e-05 4.3244e-05 -9.23171e-06 -1.55706e-05 2.34282e-05 2.97293e-06 5.82014e-06 
6.36205e-06 -3.444e-05 -5.57583e-06 -1.81203e-05 1.0981e-05 4.94471e-07 -1.354e-05 -1.40144e-05 1.86256e-05 
6.50155e-06 -6.9966e-06 2.20371e-06 -2.05899e-06 8.32071e-07 -5.1348e-05 -6.49484e-06 6.59932e-05 -2.56737e-05 
-7.77019e-06 -0.000258966 0.000180342 -1.88468e-05 2.28357e-06 -4.75417e-07 3.24478e-06 -8.98021e-06 -1.75808e-05 
2.79807e-05 -6.30305e-05 1.66715e-06 -2.03248e-07 -7.64364e-06 1.28409e-05 -2.42088e-06 -3.67107e-06 -1.75007e-07 
1.66787e-07 1.14917e-06 1.50474e-06 -0.000201216 0.000143591 3.13895e-05 -1.64816e-05 7.25077e-06 5.06238e-07 
-9.6697e-06 5.45446e-06 -2.99597e-06 2.06594e-06 -3.28561e-06 1.96702e-06 1.94466e-07 -7.03462e-07 -8.73513e-07 
-1.29758e-05 1.52985e-05 1.98506e-05 8.3453e-06 1.54686e-05 -2.28865e-05 -1.21644e-05 5.50541e-06 1.73873e-06 
4.45897e-06 1.05543e-06 5.66799e-05 6.98327e-05 0.000192471 0.00162826 0.00126904 0.000440096 6.0592e-05 
0.00237179 -5.74413e-06 -5.62428e-06 5.82748e-06 -1.09461e-05 -5.60858e-06 5.96627e-06 -0.0003248 -0.000304747 
0.000102346 -5.22008e-06 -7.66076e-07 -1.96303e-06 -0.000183187 -0.000179894 4.60325e-05 -1.25415e-05 -9.77398e-05 
0.000907497 5.44777e-05 2.79442e-05 6.33818e-06 -1.38705e-05 0.0183362 -0.0432515 0.0218434 -0.0383112 
1.49574e-05 -1.93275e-05 -3.70204e-05 1.42169e-07 1.11778e-06 1.40487e-06 -3.31002e-06 1.27193e-05 -4.29142e-06 
-2.35449e-06 -4.04156e-06 -6.47337e-06 -2.8912e-05 2.64137e-05 -4.051e-05 1.70429e-06 -3.47869e-06 -2.07865e-05 
2.13677e-05 2.86164e-05 7.01022e-06 1.21047e-05 -1.01178e-05 -2.31148e-06 2.23975e-06 -1.28768e-06 2.27312e-06 
1.33415e-06 1.0799e-06 -1.03474e-06 -8.39799e-06 -1.19563e-05 -8.52879e-06 1.0955e-07 2.66214e-05 -2.38941e-05 
7.17802e-05 1.79702e-06 -1.1729e-08 2.33375e-06 5.45645e-07 0.000101218 1.73941e-05 2.18859e-05 -1.40611e-05 
0.00807592 0.00992053 2.74809e-06 4.01359e-06 -0.000336861 0.000179618 0.000236608 9.84828e-06 2.68288e-06 
-2.10133e-07 -1.09424e-06 6.35786e-06 9.77911e-06 -2.89863e-06 3.06464e-06 0.0309485 -0.03014 -1.97258e-05 
-0.000949842 1.90396e-05 -0.000101392 -0.00571861 -1.77403e-06 -1.21702e-06 7.79002e-05 -2.44823e-05 1.50586e-05 
-0.0170445 0.000237205 -0.000763608 7.13123e-07 9.43479e-08 -0.00107357 0.000195705 -0.000223113 -2.96877e-08 
-0.000186719 4.494e-05 -0.000115916 -1.2988e-06 3.98898e-05 1.98453e-05 7.1735e-06 -2.18552e-06 2.89623e-06 
0.000178171 -0.000259077 6.17375e-05 -0.000281869 -3.75238e-05 -3.57865e-06 3.34922e-05 -7.1469e-08 -3.50664e-06 
1.10303e-06 9.01424e-07 2.01518e-06 -7.11752e-05 -3.90556e-07 6.93336e-07 2.44993e-06 4.17319e-07 3.10618e-07 
7.2098e-07 -2.0953e-05 -6.58815e-05 -2.9474e-05 1.26897e-06 6.53089e-07 2.19363e-06 0.0105632 2.19877e-05 
5.48312e-08 -1.06263e-06 4.65321e-06 2.87813e-06 2.71377e-07 3.80261e-06 1.60499e-05 -8.15024e-05 -4.92895e-05 
1.54657e-05 1.19798e-05 -1.51458e-05 -1.25987e-05 -0.000108882 0.000138283 0.000147825 7.50053e-06 0.00254344 
0.00666606 -0.00266839 7.38409e-06 3.56849e-06 3.92359e-06 4.39797e-07 -0.000168899 5.14499e-05 3.90674e-05 
-3.54663e-05 -4.99015e-06 3.75676e-06 1.02663e-07 4.57198e-06 2.97111e-06 -4.90508e-06 -2.61652e-06 -1.45461e-06 
0.00210201 0.00150224 -0.0032222 -1.24598e-05 -8.90057e-06 3.59876e-06 -3.68592e-06 -0.000163969 -0.00179198 
-0.000148594 0.00036641 0.00397129 0.000528239 -6.02126e-05 1.34183e-05 1.71691e-05 8.35932e-06 0.00946729 
-0.0105873 -0.0110598 0.00826998 -0.000274288 3.74263e-08 3.81145e-06 -3.25877e-05 2.28981e-05 -3.25387e-05 
0.000493416 -0.000982291 1.22642e-06 2.6685e-05 -0.000104715 -3.05943e-06 -4.72564e-06 -1.18956e-05 3.65956e-06 
-0.000267309 1.69931e-05 1.88591e-06 2.32922e-06 1.45193e-06 -2.02195e-06 -0.00266993 -0.00548712 0.000467682 
-1.07952e-05 5.7565e-05 3.22378e-05 0.00363715 -0.00343845 -3.1238e-06 -4.73782e-05 0.000115467 -3.34113e-06 
-2.11234e-05 -1.14221e-05 4.25012e-05 -2.00236e-05 -5.30666e-06 -2.12258e-05 -0.000253634 -8.89206e-05 0.029742 
-0.0281261 1.86139e-05 0.00705543 0.00716541 -6.06846e-05 3.18353e-05 2.86897e-05 -0.00485783 7.87911e-05 
0.00149559 4.55506e-05 3.4933e-05 3.39441e-06 7.83132e-07 -1.03339e-06 1.58284e-06 2.25154e-05 7.22566e-07 
-6.88552e-07 -1.76626e-06 2.20058e-06 9.69042e-07 1.01506e-06 0.000138192 -2.17494e-05 5.6038e-05 -1.95143e-05 
0.000810589 0.00140137 -2.2441e-08 7.16638e-08 -1.20955e-06 3.66899e-06 -3.11714e-06 -6.34271e-07 9.00245e-06 
3.5533e-06 4.68532e-07 -6.60254e-06 -5.1733e-06 1.38829e-07 -3.80502e-07 -2.81706e-06 -1.7802e-05 9.99461e-06 
5.86697e-06 1.67058e-05 -5.89362e-06 -1.92741e-05 9.35544e-06 1.20471e-05 -1.24306e-05 1.26938e-05 -1.49056e-05 
-2.13347e-05 1.49987e-05 -1.8247e-05 7.37395e-06 1.15765e-05 -1.81445e-06 4.04148e-07 1.30479e-06 4.66013e-07 
-9.12903e-06 -3.2276e-06 -7.5637e-06 1.06151e-05 -8.94009e-06 -5.11637e-06 -6.17451e-06 3.10311e-05 -0.0230235 
0.00874311 -3.1942e-06 -3.44617e-07 -3.39024e-07 7.28502e-06 -1.05868e-06 5.0389e-06 -0.000211728 -2.80461e-05 
-0.00240586 -3.8085e-05 -6.68843e-06 0.00118197 -0.000334978 -8.79762e-06 8.63748e-06 -1.7492e-05 1.74259e-06 
6.75187e-07 0.000106093 6.05949e-05 -8.73367e-07 7.52195e-07 0.000121004 -4.20677e-06 2.44183e-06 1.2837e-05 
-8.58175e-06 0.000152043 0.00090811 -0.000235294 -1.55017e-05 -2.92089e-06 3.58924e-06 2.91813e-06 5.36008e-06 
-7.55164e-06 4.06095e-05 -0.0160818 -2.3575e-05 -1.84421e-05 2.31646e-06 1.38095e-06 -4.02199e-06 -8.57159e-05 
8.84166e-05 2.10762e-06 2.22938e-05 3.69773e-05 -3.1139e-05 0.00625513 -1.25154e-06 1.90683e-06 5.00709e-05 
0.00144367 0.0054289 -9.89932e-06 1.13997e-05 -3.40724e-05 3.54284e-05 -0.00173432 -3.96912e-07 -2.557e-06 
8.1956e-06 -7.51961e-07 -2.13945e-05 8.23104e-06 -9.68177e-06 7.46673e-07 -2.10774e-05 -2.60515e-06 3.74211e-06 
1.47667e-05 2.57975e-07 0.00199202 -0.000233622 -1.37696e-05 7.39729e-05 0.000177127 -1.06454e-06 3.50245e-06 
1.21723e-06 4.28131e-05 2.24901e-05 -1.13218e-06 -1.02497e-05 5.33799e-06 -5.98895e-06 1.21291e-05 -1.53979e-05 
-6.96574e-05 0.000282324 1.01747e-05 1.84077e-06 3.00865e-05 1.54397e-05 4.52237e-05 -0.000162173 6.95282e-06 
-2.70804e-05 -6.26362e-07 1.80688e-05 -1.56209e-05 -5.07049e-06 -2.93056e-06 2.16822e-06 7.80849e-06 1.94738e-05 
0.000102575 -0.000341021 2.03228e-05 3.4623e-05 3.43845e-06 -1.62279e-05 -0.000144482 0.00582102 -1.50734e-05 
6.6007e-05 -5.69174e-05 -0.000188787 -3.4611e-05 -3.38757e-05 -0.000108679 -3.53007e-06 -4.246e-05 4.3022e-05 
4.00982e-05 0.0319227 -0.0289396 -0.00369522 0.00102295 1.69392e-05 -9.44617e-05 0.000516975 -2.28977e-05 
1.11363e-07 2.24597e-05 8.35427e-06 2.60041e-05 -1.10602e-05 1.78096e-06 -3.58067e-07 -1.26112e-06 1.58237e-05 
-0.000121673 -2.88536e-05 -6.12238e-06 3.03953e-05 -2.75568e-05 2.00856e-05 -1.50278e-05 -1.03608e-06 -1.72447e-05 
1.22518e-05 1.97049e-05 1.64721e-05 -1.43505e-06 0.000678849 1.25577e-05 5.69125e-05 1.12387e-05 -8.60889e-06 
-1.82081e-05 1.2785e-05 -4.60236e-06 -1.12873e-06 -6.12315e-06 1.11676e-05 -1.66964e-05 -3.59081e-05 -8.63416e-07 
2.41945e-06 1.34204e-05 -1.6147e-05 2.47637e-06 1.95002e-05 3.73541e-05 -0.000104665 -1.56479e-06 2.95389e-06 
1.34118e-05 -0.00430632 -7.17506e-06 1.20375e-06 3.00383e-07 1.28466e-05 0.000295623 5.27099e-05 0.000883911 
-1.20998e-05 2.06084e-05 -1.68265e-05 -9.10136e-06 1.82873e-05 -4.43324e-06 -8.20853e-06 4.37508e-06 3.99944e-07 
0.000286046 -0.000274549 0.000237694 -0.00229247 0.0066338 -3.07479e-05 -1.47332e-05 1.60611e-05 1.82512e-05 
-7.62362e-06 -1.92652e-06 2.94253e-05 1.74991e-06 3.52786e-06 4.97145e-06 -3.17503e-06 -1.00324e-06 1.37357e-06 
-5.95915e-05 4.35452e-06 0.000116538 -3.62112e-06 4.07564e-07 3.48156e-05 -2.52201e-05 5.50395e-05 -3.4037e-08 
-1.69351e-05 1.22491e-06 -0.00186572 0.00134667 0.00429997 1.09156e-05 -8.37675e-05 -7.01658e-05 -0.000126873 
1.16172e-06 -3.97237e-05 3.40971e-05 -1.81823e-05 0.000121734 8.62068e-06 -1.91603e-05 -2.42366e-05 -0.0056071 
0.000306042 6.79319e-07 7.89633e-05 -2.10053e-05 2.31505e-06 4.38438e-06 -3.92196e-06 -2.60738e-05 -1.22344e-05 
-1.72709e-06 3.74989e-05 5.89243e-05 -4.40951e-05 6.95833e-06 -5.62831e-06 1.5917e-06 5.57605e-05 1.99623e-05 
2.4709e-05 1.50731e-05 -1.07607e-05 2.2339e-05 -1.519e-05 1.73506e-05 5.03102e-06 1.68215e-05 2.81841e-05 
3.9974e-06 2.41735e-06 -7.14476e-06 -4.77723e-05 3.78977e-06 1.77031e-05 -4.46243e-07 1.63032e-05 9.46271e-06 
5.08255e-06 -1.14367e-07 -1.72775e-06 1.12065e-06 -0.000293536 -2.5651e-06 -5.60551e-05 5.66806e-06 -1.11036e-05 
5.75173e-06 -0.00842534 6.87097e-05 0.0056287 3.51568e-05 3.56938e-07 -2.71701e-06 0.000501729 0.00134025 
0.00110232 -0.000296292 0.000204739 2.8696e-06 3.79274e-06 4.87347e-06 -4.87174e-05 -3.01249e-06 7.67647e-07 
3.63527e-06 -1.14408e-06 1.34426e-06 2.097e-07 -6.33499e-07 1.28928e-06 -4.06445e-05 0.000152354 0.000619248 
-0.000740695 1.13537e-05 0.00381742 -1.58992e-07 1.90031e-06 -0.00239589 -0.00418186 -6.60442e-07 1.61477e-06 
7.93399e-06 6.94749e-07 1.03317e-05 -3.07772e-06 0.00010373 0.00595969 -0.00539108 -0.000349436 -0.000538278 
7.08302e-05 1.22407e-05 -8.41268e-06 -7.33064e-06 6.23944e-06 1.45361e-05 1.28445e-05 1.38148e-05 1.74007e-05 
0.000257679 1.01937e-05 8.3579e-06 -1.08149e-05 0.00400508 -0.000341115 0.00623977 -0.00561936 0.00078581 
3.09048e-06 -3.1105e-05 -6.10624e-05 5.59423e-07 0.000440764 1.46315e-05 -1.19914e-05 -7.62495e-06 -0.0124749 
0.00203476 8.37485e-06 2.70356e-05 -2.06696e-05 1.524e-05 1.52223e-05 9.88114e-06 -1.8353e-06 -1.26117e-05 
1.32131e-05 9.17359e-06 -8.31537e-06 2.76432e-05 -5.22503e-06 -2.12792e-06 1.07507e-06 -2.09442e-06 9.26069e-06 
1.03562e-05 2.608e-06 -5.72002e-08 -5.55866e-07 6.25747e-06 -5.80379e-06 6.27396e-05 4.75036e-06 3.7284e-06 
1.87296e-06 1.71301e-07 -3.09499e-05 8.36693e-05 0.00210015 -1.33029e-05 -1.1364e-05 1.20469e-06 9.07354e-06 
1.02206e-05 0.000717875 -0.000199122 0.00119217 1.9e-06 1.08749e-05 1.05527e-05 1.08599e-06 -8.74676e-06 
4.06406e-06 6.50182e-06 4.99482e-06 -5.79023e-06 -2.8597e-06 3.19101e-07 -8.08835e-07 1.03964e-07 3.57286e-07 
-1.16494e-06 0.000170709 -0.000148319 0.000124707 -0.000295533 0.000559836 3.53394e-05 0.000187166 6.92362e-05 
-1.17486e-06 -3.86022e-06 -5.05699e-07 -0.0294116 -0.00712044 -0.000207485 -7.05118e-05 3.60294e-06 -2.4426e-06 
-0.000292304 6.40757e-05 0.00102996 0.000510551 0.00563428 0.000587653 -2.79802e-06 -0.0048932 0.00352903 
-4.48994e-05 0.000201334 -8.44076e-05 1.30964e-05 5.39475e-05 -2.34961e-05 3.88707e-06 -4.57388e-07 -4.56862e-07 
-2.84716e-08 -2.2742e-06 5.96706e-06 -3.24708e-06 3.31592e-06 8.67775e-06 0.000159059 -0.00305582 5.73095e-07 
1.01353e-06 -9.9801e-06 -3.67722e-06 0.000611159 -0.000233065 -1.75488e-05 -0.0275157 0.029143 -1.35273e-06 
2.22219e-05 -4.84369e-06 -0.0119333 0.0377619 2.23873e-05 -5.04598e-06 0.000158248 8.3177e-07 7.39543e-05 
-1.73864e-05 -0.00011968 -2.96474e-05 0.000211432 -0.000119037 8.62985e-06 6.38836e-08 4.31962e-07 -1.94692e-06 
-7.56193e-07 -1.63234e-06 3.62784e-05 2.06455e-05 2.13951e-05 -2.75189e-05 1.58905e-06 4.67912e-05 3.13392e-06 
-2.73361e-06 4.11247e-06 2.4544e-05 0.000197324 -0.000161306 2.86066e-05 -1.24292e-06 3.41749e-06 -1.28907e-05 
2.72935e-06 -2.702e-05 -5.73753e-08 9.35635e-07 7.10315e-07 -2.64084e-06 2.58071e-05 -1.00096e-07 -6.53638e-07 
8.40834e-08 9.60424e-05 -3.48158e-06 2.35473e-05 8.40808e-06 -0.000449141 -0.000560815 -0.000279051 -7.76708e-06 
2.14662e-06 5.51667e-05 2.03227e-06 -2.48298e-05 4.21701e-05 -3.19824e-06 -7.01837e-08 1.0919e-05 -4.58675e-05 
-2.10297e-05 1.20576e-05 2.39124e-05 -1.64768e-05 -3.44607e-06 -0.000107945 -4.03715e-05 7.33308e-05 1.22738e-06 
1.51757e-06 7.51365e-07 0.00138704 -0.000291632 -0.000442915 1.22548e-05 5.72937e-05 -0.008215 0.000265927 
0.000360838 -0.00012422 -4.09894e-07 3.12709e-07 -0.000141913 1.45438e-06 2.10199e-05 -2.14596e-06 5.53773e-07 
-4.10486e-06 -1.02974e-05 2.24979e-06 -6.84599e-06 8.38071e-06 4.40631e-05 -1.55512e-05 1.80284e-05 8.69405e-07 
-0.00283149 0.00144737 9.52248e-05 -0.000116908 4.67211e-06 1.4893e-05 -1.13429e-05 3.38694e-05 -8.65309e-06 
-1.78752e-07 -9.64155e-08 5.78726e-07 1.35361e-05 7.71784e-06 -1.64059e-06 -7.59258e-06 -1.9947e-05 1.27666e-05 
-1.16562e-05 -8.69497e-06 1.51394e-05 -0.000184635 -2.78647e-05 1.93606e-05 2.15212e-06 -0.000134473 2.56642e-05 
-5.87842e-05 -4.36891e-07 -1.72412e-06 4.75861e-06 -8.30609e-05 -5.62901e-06 -2.9059e-06 1.615e-05 1.76604e-05 
3.91023e-06 -2.61935e-06 5.90757e-07 1.88021e-06 1.63553e-05 -1.42777e-05 1.85928e-05 1.89934e-06 4.70035e-06 
0.000210307 -0.000501346 7.51047e-06 -1.6484e-05 -4.60815e-06 1.64797e-05 -9.55004e-06 -2.7829e-06 -1.88156e-06 
2.13623e-06 -1.46295e-06 -1.47402e-06 -2.55998e-06 2.59183e-07 -3.8746e-06 -4.57437e-06 -1.93754e-06 -6.41498e-06 
3.10887e-05 8.14422e-06 -1.47365e-06 -8.6808e-07 -1.4681e-06 0.00188168 -0.000502144 -0.00265727 0.000109565 
2.64446e-05 -0.0330217 5.30205e-07 -6.75843e-05 -0.000467098 1.55186e-05 -0.000131592 -0.00504161 3.48968e-05 
0.00131645 0.000573221 7.75822e-05 -0.00969207 -2.01322e-05 -9.00403e-06 -2.44906e-06 3.69531e-05 -9.0144e-06 
0.00546881 0.00364357 0.000165813 0.00422769 1.68071e-06 3.38867e-06 3.75077e-06 -1.46685e-06 1.31123e-06 
-2.14575e-06 2.92125e-07 -3.07611e-05 -6.78506e-06 7.06399e-06 -2.10462e-05 -1.83606e-05 -3.77226e-05 2.15828e-06 
1.93455e-06 -8.43869e-06 -4.16809e-05 1.69565e-05 4.79199e-07 -0.000108536 2.37862e-06 -3.94005e-06 0.00566551 
2.08576e-06 7.00818e-06 -0.000124006 0.000138106 -2.09699e-05 -8.26573e-06 2.81594e-05 -1.14406e-05 1.1471e-05 
3.10724e-05 2.17437e-06 2.22775e-06 3.5562e-06 -5.24876e-07 6.60955e-07 -2.52073e-05 -3.43177e-05 -5.87035e-05 
-2.76171e-06 7.50469e-06 1.87677e-05 -9.05813e-05 -0.0104651 1.29547e-05 -1.62959e-05 -3.17036e-07 -3.37943e-07 
-1.49042e-05 1.36401e-06 4.77987e-05 0.00240297 -0.0320776 0.000187187 -5.00638e-06 -5.5938e-06 -5.09303e-05 
-8.3528e-07 -8.17872e-07 -7.9455e-06 -1.12772e-05 -5.10381e-05 3.58186e-05 -6.294e-05 9.55491e-06 -1.03842e-06 
0.00151393 -8.7792e-06 1.66076e-06 -1.33392e-05 -6.38948e-05 9.95235e-05 2.80761e-07 -2.09072e-05 2.90402e-05 
0.00415491 -4.52411e-06 1.42193e-05 5.11965e-06 -1.16453e-05 -0.00296185 -2.51078e-05 -3.87272e-05 -0.0272906 
-3.71649e-05 0.00554213 0.000901023 -0.00059227 -0.000563147 -9.31076e-05 -6.86568e-05 -7.24848e-07 -3.93711e-06 
0.0319485 -4.49256e-06 -2.59908e-05 -7.65792e-05 3.13369e-07 3.34266e-07 -1.47608e-06 8.06903e-05 6.8394e-06 
-2.36829e-05 5.28399e-05 1.40102e-05 4.9811e-05 1.82548e-07 0.00199148 0.000128675 -3.59353e-06 -4.22231e-05 
3.32773e-05 3.34738e-05 -7.38768e-05 -1.49592e-05 3.34406e-07 1.24226e-06 -0.000234973 -1.50933e-05 -2.15506e-06 
5.83862e-05 0.00022337 -3.15736e-05 -2.40673e-05 -0.00132079 -0.00013493 0.000615083 9.67211e-06 -1.08278e-05 
-1.71792e-05 -3.86343e-06 -4.72749e-06 8.49986e-06 8.54631e-06 -4.22075e-05 3.75618e-06 2.08322e-06 -1.68949e-06 
9.33566e-05 0.000133026 -1.61353e-05 -2.33087e-05 1.57394e-06 0.000204443 1.08285e-05 -1.54052e-06 -4.51007e-05 
0.000266062 -0.00240498 1.73858e-05 -2.32166e-05 9.86958e-06 2.34167e-05 -3.29727e-06 4.91996e-06 2.15985e-05 
0.000159848 -4.93933e-06 -5.82997e-07 2.56464e-07 -3.24289e-06 -7.16889e-06 -2.73629e-06 2.72543e-05 -1.22224e-07 
-1.33534e-05 1.61984e-05 1.11383e-05 -0.000259638 8.02591e-05 0.00587015 -7.39843e-06 -8.91426e-06 0.000152699 
-2.57246e-05 -3.99881e-06 -5.38474e-06 -1.88267e-06 -1.67532e-05 -1.50102e-05 0.00614328 1.79387e-06 -0.000512848 
0.00109243 -0.000165837 6.34243e-07 -0.000164669 5.00209e-05 -0.0056908 0.0306382 1.60259e-05 -1.50315e-05 
2.83939e-06 -0.00153358 -0.000135381 -9.39793e-05 -4.0731e-06 -4.13744e-06 1.08401e-05 -0.00579527 -0.00579269 
-1.87694e-05 1.25769e-06 0.000242863 4.60192e-06 -3.02761e-06 0.000152133 -1.70614e-07 0.00129248 0.00236638 
3.38392e-07 -5.26274e-07 -7.40136e-05 8.40434e-05 -2.83772e-05 -1.29145e-05 9.49283e-06 4.71003e-06 1.24142e-06 
3.59353e-06 -3.33158e-05 -2.00422e-05 -7.02672e-06 -1.48637e-06 7.90492e-06 3.77011e-06 6.26458e-06 -1.62647e-05 
3.1844e-06 -0.00340411 -0.00652018 0.0251306 -3.68433e-06 -2.65553e-05 -2.70581e-05 6.70334e-07 0.00332054 
5.29766e-05 -1.30106e-05 1.88185e-06 1.89441e-05 2.55162e-05 0.00612145 -5.11118e-06 -8.3408e-06 -6.00692e-05 
-0.00137136 5.92172e-05 6.08732e-05 -0.000226364 -2.4889e-06 0.000337302 -2.2308e-05 -5.46075e-05 5.70196e-05 
-0.000120878 -1.23107e-05 1.16279e-06 1.02537e-05 -3.41588e-05 5.84498e-07 1.91008e-05 -1.31603e-05 1.52571e-05 
-2.33354e-05 -2.23051e-05 6.77747e-06 1.10297e-05 2.32287e-05 -1.3658e-06 -9.07436e-06 -0.000164117 2.82198e-06 
1.76262e-05 1.27626e-06 -1.13385e-05 2.41285e-05 -2.1422e-05 -2.06279e-05 2.89369e-06 -1.03263e-05 1.40216e-06 
-6.20655e-06 3.72887e-06 -0.00208439 1.60017e-06 -7.36748e-07 -2.30634e-05 -0.00161308 -1.85993e-06 -0.000397779 
1.97986e-05 -8.79822e-05 0.000528934 6.61207e-06 -1.26663e-07 -5.24939e-05 -3.75537e-07 2.6118e-06 -2.73697e-06 
-4.98475e-07 -6.49829e-06 0.0019658 -2.72041e-06 0.0331993 0.000101513 2.60862e-05 -1.41867e-05 1.18786e-05 
0.00172551 -0.000499535 -1.02785e-06 -7.08202e-06 -1.48801e-05 -0.000383579 0.00400781 -1.68338e-05 -0.00579067 
-0.00643949 2.14373e-06 -2.66295e-05 0.000674658 0.000306916 -5.55554e-06 -7.40012e-05 -9.45332e-06 -5.18841e-05 
-6.49087e-06 0.0317954 0.000113245 -2.2753e-05 9.247e-05 -2.16903e-06 -0.000161359 7.25037e-06 -0.0308271 
-1.15408e-05 0.000134573 -1.847e-06 1.19582e-06 -0.000341578 -1.81491e-06 -1.46715e-05 0.000150919 
Strain%20zz%20component 1 9350 double
-0.162142 1.24431e-06 1.23666e-06 -0.165247 -0.133383 -0.133374 -0.133339 -0.133335 -0.070022 
-0.0913273 -0.0891898 -0.0570635 -0.0949789 -0.0588918 -0.138178 -0.0697163 1.33505e-06 -0.0402866 
-0.0616127 -0.0340273 -0.0340449 -0.0350353 -0.0516686 -0.0579262 -0.0345846 -0.0348541 -0.033611 
-0.0451565 -0.0346674 -0.0334318 -0.0317942 -0.0519413 -0.0610207 -0.0364535 -0.0347465 -0.0524613 
-0.0618068 -0.099853 -0.0791263 -0.0558158 -0.00042501 -0.0453575 -0.0456067 -0.0449237 -0.0427946 
-3.2828e-05 -0.00039304 -0.0431143 -0.0432104 -0.042727 -0.0411778 -6.33865e-06 -0.0438187 -0.0454901 
-0.0449284 -0.040652 -7.01997e-05 -0.00046559 -0.0442804 -0.0435402 -0.0464202 -0.00187864 0.000268693 
-0.000504302 -0.133356 -0.133349 -0.133288 -0.13316 -0.132981 -0.13274 -0.132423 -0.13201 
-0.131538 -0.131029 -0.130461 -0.1298 -0.12925 -0.128698 -0.128272 -0.128047 -0.128001 
-0.128203 -0.12863 -0.129292 -0.130013 -0.130842 -0.13163 -0.132369 -0.13294 -0.133291 
-0.133364 -0.311328 -0.135177 -0.127655 -0.123641 -0.121079 -0.119994 -0.119706 -0.120216 
-0.120913 -0.121891 -0.122929 -0.124 -0.125108 -0.126234 -0.127337 -0.128379 -0.129469 
-0.130402 -0.131283 -0.132128 -0.132845 -0.133448 -0.133995 -0.134386 -0.134664 -0.134829 
-0.134867 -0.134761 -0.134582 -0.134319 -0.134025 -0.133686 -0.133389 -0.133131 -0.132926 
-0.132792 -0.132741 -0.132754 -0.132826 -0.132933 -0.133051 -0.133187 -0.133293 -0.133355 
-0.133334 -0.133414 -0.133105 -0.132206 -0.130795 -0.12926 -0.128757 -0.130161 -0.132108 
-0.131708 -0.127864 -0.12167 -0.114749 -0.110876 -0.113405 -0.119294 -0.123156 -0.124014 
-0.122662 -0.120901 -0.120095 -0.121732 -0.125852 -0.135547 -0.170034 -0.0611777 -0.058544 
-0.0640552 -0.0583015 -0.057725 -0.0568366 -0.0572474 -0.0494665 -0.0462837 -0.0466442 -0.0449979 
-0.0340406 -0.05236 -0.0551739 -0.0567955 -0.0649366 -0.065175 -0.0529412 -0.0715054 -0.0681717 
-0.0514125 -0.0388839 -0.133345 -0.133351 -0.133265 -0.133065 -0.13277 -0.132344 -0.131797 
-0.131154 -0.130503 -0.129745 -0.129006 -0.128386 -0.128028 -0.128048 -0.128358 -0.129073 
-0.12995 -0.13098 -0.131991 -0.132774 -0.133279 -0.133399 -0.167127 -0.136824 -0.126077 
-0.121811 -0.12028 -0.120061 -0.120593 -0.121536 -0.122944 -0.124204 -0.125594 -0.126988 
-0.128359 -0.129653 -0.130849 -0.131899 -0.132877 -0.133666 -0.134237 -0.134618 -0.134828 
-0.134847 -0.134705 -0.134406 -0.134009 -0.1336 -0.13326 -0.132975 -0.132799 -0.132751 
-0.132818 -0.132961 -0.133127 -0.133267 -0.13335 -0.133359 -0.133355 -0.13326 -0.132629 
-0.1315 -0.130091 -0.128869 -0.129018 -0.131082 -0.132429 -0.130909 -0.12657 -0.120483 
-0.11438 -0.110641 -0.114797 -0.120944 -0.123833 -0.123542 -0.121798 -0.120261 -0.119651 
-0.121052 -0.124795 -0.134965 -0.264393 -0.0472361 -0.0588602 -0.0583661 -0.0616781 -0.0653633 
-0.0645231 -0.0582347 -0.0647553 -0.0566544 -0.0493905 -0.0167923 -0.0530408 -0.0580569 -0.0619806 
-0.0600789 -0.0571713 -0.0581517 -0.0700556 -0.0515243 -0.0457686 -0.0575867 -0.0715157 -0.133292 
-0.133239 -0.133132 -0.132991 -0.132803 -0.132555 -0.132252 -0.131906 -0.131522 -0.131086 
-0.130646 -0.130205 -0.129821 -0.129474 -0.129262 -0.129149 -0.129209 -0.129432 -0.129776 
-0.130263 -0.130835 -0.131428 -0.131966 -0.132446 -0.132795 -0.133042 -0.209631 -0.147956 
-0.137533 -0.131133 -0.127768 -0.126151 -0.125201 -0.125069 -0.125 -0.12532 -0.125991 
-0.126634 -0.127312 -0.128063 -0.128808 -0.129587 -0.130361 -0.131044 -0.131716 -0.132301 
-0.132836 -0.133287 -0.133632 -0.133894 -0.134083 -0.134158 -0.13417 -0.134073 -0.133955 
-0.133778 -0.133564 -0.133348 -0.133162 -0.133 -0.132889 -0.132811 -0.132804 -0.132831 
-0.132888 -0.132976 -0.13307 -0.133164 -0.133232 -0.133286 -0.132344 -0.131576 -0.130567 
-0.129704 -0.129074 -0.128173 -0.126347 -0.124149 -0.121047 -0.118645 -0.118622 -0.12038 
-0.122929 -0.124969 -0.1264 -0.126853 -0.127106 -0.128084 -0.130951 -0.138464 -0.145531 
-0.163974 -0.185067 -0.238405 -0.208592 -0.199095 -0.196772 -0.196539 -0.201062 -0.224505 
-0.199881 -0.195043 -0.195389 -0.195069 -0.204076 -0.198072 -0.198845 -0.194018 -0.194438 
-0.201429 -0.225822 -0.20124 -0.201322 -0.198556 -0.204549 -0.234592 -0.249943 -0.175979 
-0.120438 -0.103726 -0.103459 -0.10298 -0.107486 -0.111986 -0.115244 -0.11991 -0.113546 
-0.134992 -0.127072 -0.149373 -0.113497 -0.104772 -0.106705 -0.111611 -0.116109 -0.12091 
-0.130864 -0.129709 -0.12231 -0.137232 -0.145927 -0.171979 -0.132894 -0.151957 -0.14994 
-0.119368 -0.130435 -0.135632 -0.16128 -0.133125 -0.133003 -0.132855 -0.132678 -0.132461 
-0.132215 -0.131924 -0.131628 -0.131323 -0.131021 -0.130739 -0.130514 -0.130328 -0.13024 
-0.130203 -0.130286 -0.130501 -0.130787 -0.131067 -0.131432 -0.131795 -0.13214 -0.132422 
-0.131992 -0.150749 -0.142188 -0.136577 -0.133288 -0.130841 -0.129581 -0.128862 -0.1285 
-0.128459 -0.12852 -0.128818 -0.129177 -0.129613 -0.130085 -0.130591 -0.131088 -0.131545 
-0.131996 -0.132377 -0.132728 -0.133026 -0.133234 -0.133411 -0.133518 -0.133554 -0.133541 
-0.13349 -0.133399 -0.133307 -0.133205 -0.133087 -0.132983 -0.132901 -0.132847 -0.132823 
-0.132838 -0.132866 -0.132921 -0.132985 -0.133059 -0.133126 -0.133192 -0.164531 -0.162846 
-0.131483 -0.130869 -0.12966 -0.126822 -0.122666 -0.119717 -0.118176 -0.128263 -0.128411 
-0.128863 -0.129706 -0.130932 -0.132953 -0.136258 -0.141551 -0.149225 -0.131558 -0.150417 
-0.166321 -0.166368 -0.165784 -0.165208 -0.165177 -0.166588 -0.166264 -0.164575 -0.164531 
-0.164389 -0.164244 -0.164714 -0.163068 -0.164466 -0.164478 -0.16459 -0.166109 -0.166223 
-0.163327 -0.165059 -0.168412 -0.172593 -0.135484 -0.119159 -0.107185 -0.107786 -0.108801 
-0.110255 -0.113642 -0.115892 -0.117163 -0.111786 -0.12893 -0.116975 -0.111533 -0.126224 
-0.132534 -0.12013 -0.150457 -0.108643 -0.104972 -0.116833 -0.110491 -0.114275 -0.123189 
-0.134743 -0.139366 -0.139385 -0.142222 -0.12584 -0.138219 -0.13859 -0.132907 -0.132774 
-0.13263 -0.132466 -0.132288 -0.132081 -0.131885 -0.13171 -0.131528 -0.13145 -0.131408 
-0.131316 -0.131244 -0.131245 -0.131376 -0.131507 -0.131598 -0.131699 -0.131857 -0.13201 
-0.132 -0.133045 -0.144833 -0.140099 -0.13718 -0.134685 -0.133066 -0.132049 -0.131388 
-0.130953 -0.130693 -0.130666 -0.13073 -0.130894 -0.131098 -0.131359 -0.131629 -0.131884 
-0.132125 -0.132326 -0.132515 -0.132691 -0.132806 -0.132886 -0.132944 -0.132968 -0.132979 
-0.132966 -0.13294 -0.132922 -0.132897 -0.132858 -0.132832 -0.13282 -0.132816 -0.132823 
-0.132846 -0.132877 -0.132915 -0.132967 -0.133029 -0.132012 -0.121492 -0.131594 -0.132973 
-0.153738 -0.160619 -0.135759 -0.139085 -0.143626 -0.148951 -0.117445 -0.120091 -0.117755 
-0.141879 -0.158739 -0.161655 -0.160984 -0.161509 -0.162028 -0.161918 -0.1617 -0.161923 
-0.162024 -0.162128 -0.161894 -0.162 -0.161943 -0.161918 -0.161837 -0.161355 -0.160979 
-0.160644 -0.160218 -0.160277 -0.131833 -0.152305 -0.125294 -0.113784 -0.115454 -0.116532 
-0.131402 -0.126061 -0.129183 -0.119094 -0.128644 -0.143577 -0.117216 -0.123711 -0.131613 
-0.133311 -0.121302 -0.132162 -0.136599 -0.114629 -0.124683 -0.131672 -0.138107 -0.134001 
-0.131398 -0.14028 -0.135664 -0.132685 -0.132748 -0.132656 -0.132567 -0.132483 -0.132398 
-0.132316 -0.132257 -0.132201 -0.132466 -0.132439 -0.13232 -0.132267 -0.132313 -0.132407 
-0.132317 -0.132176 -0.132036 -0.132041 -0.133485 -0.134249 -0.140586 -0.142927 -0.140126 
-0.137744 -0.13595 -0.134703 -0.133718 -0.133 -0.132521 -0.13224 -0.132067 -0.131968 
-0.131918 -0.131923 -0.131974 -0.132033 -0.132086 -0.132142 -0.132202 -0.132259 -0.132287 
-0.132317 -0.132343 -0.13237 -0.132406 -0.132447 -0.132516 -0.132576 -0.132639 -0.132695 
-0.132734 -0.132766 -0.132796 -0.132823 -0.132843 -0.132863 -0.132891 -0.133884 -0.138913 
-0.126556 -0.120898 -0.124765 -0.155388 -0.144648 -0.149404 -0.137494 -0.137185 -0.155178 
-0.158005 -0.158747 -0.157961 -0.158078 -0.158527 -0.15881 -0.158751 -0.158716 -0.158746 
-0.158535 -0.157991 -0.157561 -0.157004 -0.15623 -0.155144 -0.153124 -0.113026 -0.122569 
-0.122959 -0.132846 -0.121517 -0.128475 -0.132943 -0.13468 -0.130516 -0.12076 -0.138337 
-0.146114 -0.134797 -0.125269 -0.135826 -0.135558 -0.133468 -0.13245 -0.132279 -0.133937 
-0.132753 -0.132773 -0.132807 -0.132847 -0.132818 -0.133262 -0.133817 -0.133366 -0.133421 
-0.133204 -0.133485 -0.132822 -0.134389 -0.124908 -0.145508 -0.142451 -0.140008 -0.138152 
-0.136702 -0.135539 -0.134632 -0.133978 -0.133475 -0.133023 -0.132685 -0.132436 -0.132278 
-0.132122 -0.131994 -0.131898 -0.131822 -0.131777 -0.131713 -0.131688 -0.131689 -0.131701 
-0.13175 -0.131826 -0.131986 -0.132175 -0.13234 -0.132476 -0.132608 -0.132681 -0.132753 
-0.132808 -0.132821 -0.132824 -0.132822 -0.134879 -0.148985 -0.136362 -0.127575 -0.135598 
-0.145404 -0.149554 -0.135949 -0.137647 -0.1542 -0.15393 -0.154303 -0.155472 -0.155115 
-0.154837 -0.154601 -0.155301 -0.154239 -0.153642 -0.152994 -0.152182 -0.150925 -0.126176 
-0.132774 -0.128985 -0.124523 -0.130436 -0.128735 -0.141222 -0.133389 -0.123984 -0.134027 
-0.123842 -0.133649 -0.135158 -0.126148 -0.131862 -0.13367 -0.131753 -0.134121 -0.133062 
-0.133319 -0.134716 -0.134014 -0.135161 -0.14421 -0.141722 -0.139778 -0.138164 -0.136838 
-0.13586 -0.135036 -0.134359 -0.133671 -0.133072 -0.132785 -0.132398 -0.132037 -0.131751 
-0.131541 -0.131327 -0.131118 -0.131025 -0.130979 -0.130973 -0.130982 -0.130997 -0.131262 
-0.131641 -0.131994 -0.132236 -0.132503 -0.132718 -0.132827 -0.132849 -0.132809 -0.147395 
-0.137155 -0.133464 -0.151159 -0.151657 -0.150373 -0.150794 -0.150097 -0.149441 -0.148634 
-0.128359 -0.131119 -0.130264 -0.133259 -0.134463 -0.129068 -0.127294 -0.132889 -0.126441 
-0.133265 -0.149923 -0.140537 -0.134506 -0.130576 -0.133028 -0.12795 -0.126866 -0.14542 
-0.128473 -0.132402 -0.145615 -0.142926 -0.140898 -0.139242 -0.137934 -0.136725 -0.135669 
-0.134689 -0.133659 -0.132906 -0.13224 -0.131678 -0.131253 -0.130987 -0.130471 -0.130177 
-0.130248 -0.130042 -0.130215 -0.129987 -0.13007 -0.130983 -0.131745 -0.132417 -0.132971 
-0.135704 -0.13255 -0.126156 -0.138864 -0.142862 -0.128848 -0.146308 -0.147445 -0.145077 
-0.146527 -0.130342 -0.133059 -0.129475 -0.13176 -0.143085 -0.134784 -0.133476 -0.132443 
-0.130131 -0.129065 -0.127884 -0.140398 -0.136676 -0.128446 -0.143654 -0.141417 -0.140208 
-0.13871 -0.137175 -0.136162 -0.131692 -0.130879 -0.129363 -0.134115 -0.132366 -0.131213 
-0.140931 -0.138326 -0.133276 -0.1332 -0.13306 -0.132849 -0.132557 -0.132189 -0.131729 
-0.131271 -0.130762 -0.130278 -0.129856 -0.129533 -0.129443 -0.129553 -0.129874 -0.130386 
-0.130983 -0.131629 -0.132198 -0.132652 -0.133046 -0.174537 -0.147119 -0.135148 -0.129331 
-0.126603 -0.125595 -0.125413 -0.125864 -0.126477 -0.127087 -0.12794 -0.12888 -0.129791 
-0.130624 -0.131507 -0.132236 -0.13286 -0.133386 -0.133761 -0.134002 -0.134094 -0.134061 
-0.133922 -0.133725 -0.133496 -0.133251 -0.133046 -0.132899 -0.132834 -0.132835 -0.132902 
-0.133005 -0.133118 -0.133207 -0.132992 -0.132666 -0.132053 -0.131226 -0.130313 -0.128506 
-0.126947 -0.124824 -0.122574 -0.120186 -0.117774 -0.121395 -0.123987 -0.125879 -0.126639 
-0.126853 -0.127048 -0.127904 -0.130266 -0.136233 -0.147784 -0.165875 -0.236963 -0.181033 
-0.202962 -0.203192 -0.201842 -0.196288 -0.172109 -0.19547 -0.198026 -0.197917 -0.194554 
-0.195451 -0.19649 -0.20076 -0.197862 -0.171929 -0.196331 -0.198799 -0.206592 -0.184952 
-0.241128 -0.127701 -0.102419 -0.0977125 -0.103677 -0.106503 -0.109774 -0.113735 -0.117803 
-0.115018 -0.115286 -0.130892 -0.189313 -0.115503 -0.105422 -0.107649 -0.113032 -0.117995 
-0.12265 -0.113686 -0.120598 -0.141763 -0.139624 -0.142853 -0.140375 -0.130002 -0.120406 
-0.172104 -0.175701 -0.144367 -0.125123 -0.140474 -0.144069 -0.13306 -0.13314 -0.132726 
-0.132481 -0.132201 -0.131896 -0.131606 -0.131331 -0.13105 -0.13085 -0.130752 -0.130756 
-0.130878 -0.131088 -0.131334 -0.131625 -0.131967 -0.132234 -0.132501 -0.116799 -0.139131 
-0.147115 -0.160488 -0.13416 -0.131061 -0.129894 -0.129468 -0.129141 -0.129206 -0.129497 
-0.129862 -0.130293 -0.130836 -0.131381 -0.131911 -0.132345 -0.132737 -0.133036 -0.133257 
-0.133382 -0.133415 -0.133383 -0.133328 -0.133209 -0.133086 -0.132992 -0.132904 -0.132855 
-0.132849 -0.132874 -0.132931 -0.133005 -0.133073 -0.131899 -0.129549 -0.131276 -0.120721 
-0.125172 -0.115897 -0.129138 -0.129938 -0.130051 -0.131414 -0.133445 -0.136081 -0.141396 
-0.150032 -0.162499 -0.117506 -0.150964 -0.165511 -0.164794 -0.164287 -0.164682 -0.164513 
-0.164028 -0.164297 -0.164161 -0.164648 -0.164826 -0.164314 -0.163957 -0.16455 -0.164926 
-0.165205 -0.166208 -0.166073 -0.153846 -0.110369 -0.112557 -0.108163 -0.105426 -0.10892 
-0.110714 -0.115909 -0.13136 -0.115702 -0.11201 -0.110147 -0.123814 -0.121025 -0.129641 
-0.1263 -0.132917 -0.129299 -0.118776 -0.136221 -0.114315 -0.134065 -0.13745 -0.137669 
-0.131806 -0.127663 -0.124756 -0.148334 -0.137207 -0.113111 -0.110962 -0.142656 -0.126402 
-0.132403 -0.132688 -0.13228 -0.132167 -0.132076 -0.132015 -0.131989 -0.131989 -0.131986 
-0.132044 -0.132033 -0.131977 -0.131966 -0.132031 -0.118096 -0.133003 -0.144571 -0.141338 
-0.154931 -0.133366 -0.132402 -0.13176 -0.131398 -0.131284 -0.131316 -0.131427 -0.131626 
-0.131852 -0.132078 -0.132279 -0.132454 -0.132606 -0.132707 -0.132773 -0.132813 -0.132815 
-0.132818 -0.132812 -0.132808 -0.132809 -0.132818 -0.132835 -0.132854 -0.132883 -0.132924 
-0.134358 -0.134585 -0.131977 -0.132538 -0.131762 -0.136655 -0.134185 -0.143309 -0.149419 
-0.157963 -0.16063 -0.160724 -0.161091 -0.161249 -0.161326 -0.161391 -0.161185 -0.160918 
-0.160613 -0.160315 -0.160087 -0.159835 -0.159807 -0.116652 -0.132465 -0.113403 -0.159892 
-0.131599 -0.139384 -0.139787 -0.143945 -0.132973 -0.147183 -0.119307 -0.119093 -0.13702 
-0.12111 -0.117157 -0.116372 -0.12345 -0.132851 -0.140821 -0.123678 -0.133071 -0.132963 
-0.135813 -0.132873 -0.133902 -0.126055 -0.160065 -0.128891 -0.132768 -0.133087 -0.133166 
-0.133272 -0.133315 -0.133038 -0.133315 -0.132616 -0.132213 -0.136812 -0.135822 -0.134863 
-0.136224 -0.133175 -0.132786 -0.132435 -0.132218 -0.132112 -0.132057 -0.132034 -0.132023 
-0.132046 -0.13206 -0.132093 -0.132123 -0.132193 -0.13228 -0.132398 -0.132514 -0.13262 
-0.132713 -0.132789 -0.132828 -0.132853 -0.132867 -0.122498 -0.138355 -0.121982 -0.154036 
-0.14891 -0.157726 -0.156896 -0.156261 -0.157874 -0.157621 -0.157532 -0.157173 -0.156646 
-0.156109 -0.155552 -0.154921 -0.153977 -0.132925 -0.132832 -0.139584 -0.138702 -0.137816 
-0.133835 -0.140265 -0.133561 -0.124196 -0.121198 -0.153477 -0.136901 -0.124341 -0.141943 
-0.130622 -0.128312 -0.135179 -0.132881 -0.135606 -0.13275 -0.120545 -0.13273 -0.132813 
-0.133911 -0.146208 -0.132504 -0.139066 -0.156465 -0.126163 -0.147575 -0.142161 -0.120229 
-0.13452 -0.134655 -0.132205 -0.13672 -0.138384 -0.1371 -0.133896 -0.134626 -0.132638 
-0.13227 -0.131997 -0.131757 -0.131562 -0.13143 -0.131411 -0.131415 -0.131468 -0.131586 
-0.131822 -0.13207 -0.13232 -0.132547 -0.132719 -0.132812 -0.132847 -0.132845 -0.13893 
-0.133179 -0.153908 -0.151881 -0.153697 -0.128472 -0.154614 -0.151276 -0.13605 -0.153543 
-0.153364 -0.152756 -0.152138 -0.151386 -0.150206 -0.148909 -0.133998 -0.140421 -0.134493 
-0.134899 -0.134359 -0.125351 -0.124306 -0.134032 -0.133278 -0.125612 -0.136606 -0.132147 
-0.130191 -0.13543 -0.142506 -0.132891 -0.143217 -0.1338 -0.124233 -0.126995 -0.134316 
-0.133036 -0.13285 -0.146526 -0.135679 -0.133632 -0.126779 -0.123558 -0.131913 -0.134644 
-0.133679 -0.134462 -0.132185 -0.132699 -0.131194 -0.130859 -0.13066 -0.130558 -0.130546 
-0.130701 -0.130949 -0.131429 -0.131885 -0.132313 -0.132648 -0.132844 -0.132872 -0.149712 
-0.150461 -0.150065 -0.128282 -0.12986 -0.135562 -0.138345 -0.148908 -0.148168 -0.147564 
-0.146573 -0.145152 -0.127343 -0.126856 -0.142145 -0.133996 -0.131648 -0.135677 -0.123412 
-0.133012 -0.1398 -0.131904 -0.136907 -0.133387 -0.142143 -0.133348 -0.126272 -0.128067 
-0.127655 -0.135753 -0.127021 -0.14601 -0.134423 -0.133945 -0.130734 -0.1297 -0.130228 
-0.129155 -0.12957 -0.131265 -0.131954 -0.132666 -0.132999 -0.133033 -0.137776 -0.1444 
-0.143237 -0.129145 -0.130906 -0.143799 -0.129677 -0.132873 -0.133476 -0.145777 -0.12622 
-0.137953 -0.129483 -0.129632 -0.130438 -0.140693 -0.128466 -0.125541 -0.136596 -0.135971 
-0.131793 -0.129319 -0.139948 -0.128271 -0.129669 -0.134207 -0.133834 -0.130561 -0.135396 
-0.131596 -0.132141 -0.140757 -0.133456 -0.138002 -0.12812 -0.126069 -0.118292 1.36786e-06 
1.39078e-06 1.12076e-06 8.8181e-07 -0.0682991 8.7606e-07 8.71572e-07 8.63001e-07 8.48196e-07 -0.0612429 
8.49186e-07 8.38987e-07 8.36354e-07 8.33335e-07 8.48587e-07 8.5283e-07 8.5949e-07 8.50069e-07 -0.0632563 
8.47163e-07 8.50243e-07 8.92192e-07 -0.0606227 -0.0713052 -0.134227 -0.128735 -0.0762428 8.89789e-07 
8.26453e-07 7.79811e-07 7.76095e-07 7.85918e-07 7.80414e-07 8.14952e-07 7.87465e-07 7.71824e-07 7.79151e-07 
7.69286e-07 7.89111e-07 7.94128e-07 7.75692e-07 7.68227e-07 7.62768e-07 7.95158e-07 8.17505e-07 7.88586e-07 
7.86331e-07 7.83016e-07 7.51546e-07 8.36537e-07 9.06773e-07 1.08254e-06 -0.133346 -0.133361 -0.13332 
-0.13323 -0.133079 -0.132865 -0.132591 -0.132218 -0.131788 -0.131289 -0.130744 -0.130138 
-0.129519 -0.128956 -0.12848 -0.128139 -0.128009 -0.128092 -0.128378 -0.128949 -0.129657 
-0.130412 -0.131242 -0.132015 -0.132659 -0.133147 -0.133338 -0.133354 -0.226816 -0.159439 
-0.133611 -0.125197 -0.122043 -0.120493 -0.119795 -0.119922 -0.120496 -0.121353 -0.122409 
-0.123439 -0.124564 -0.125673 -0.126787 -0.127861 -0.128918 -0.129943 -0.130856 -0.131714 
-0.132495 -0.133152 -0.133742 -0.134213 -0.134544 -0.134753 -0.13486 -0.134818 -0.134687 
-0.134462 -0.134173 -0.133856 -0.133531 -0.133251 -0.133027 -0.13285 -0.132764 -0.132737 
-0.132782 -0.132877 -0.132991 -0.133121 -0.133244 -0.133327 -0.133349 -0.133335 -0.133393 
-0.133304 -0.132717 -0.131542 -0.129959 -0.128785 -0.129371 -0.131398 -0.132545 -0.130265 
-0.124878 -0.118231 -0.112319 -0.111343 -0.11659 -0.121764 -0.123966 -0.123445 -0.121639 
-0.120126 -0.120057 -0.123873 -0.129716 -0.150883 -0.250842 -0.11693 -0.0655501 -0.0571929 
-0.0595184 -0.0596447 -0.0537328 -0.0521349 -0.0563256 -0.0470706 -0.0504271 -0.0455333 -0.0432566 
-0.0552249 -0.0762156 -0.0580125 -0.0431843 -0.0490783 -0.0512688 -0.0573854 -0.0593989 -0.0573242 
-0.0611447 -0.0719262 -0.0523344 -0.04066 -0.0436621 -0.133339 -0.133352 -0.133321 -0.133175 
-0.132933 -0.132567 -0.13209 -0.131499 -0.13083 -0.130126 -0.129357 -0.128655 -0.128182 
-0.128032 -0.128136 -0.128654 -0.12951 -0.130458 -0.131508 -0.132428 -0.133034 -0.133384 
-0.13338 -0.248227 -0.152894 -0.128981 -0.123487 -0.120752 -0.120037 -0.120242 -0.120998 
-0.12219 -0.123573 -0.124901 -0.126294 -0.127672 -0.129013 -0.130279 -0.131392 -0.132408 
-0.133303 -0.133978 -0.134453 -0.13475 -0.134849 -0.134805 -0.134571 -0.134218 -0.133798 
-0.133422 -0.133102 -0.132878 -0.132759 -0.132772 -0.132881 -0.133045 -0.133202 -0.133322 
-0.133355 -0.133341 -0.133344 -0.13335 -0.132973 -0.132104 -0.130799 -0.129397 -0.128797 
-0.129822 -0.13214 -0.132331 -0.128827 -0.123689 -0.117464 -0.111227 -0.112294 -0.118094 
-0.122935 -0.123987 -0.122773 -0.120857 -0.119664 -0.120103 -0.122332 -0.131939 -0.155206 
-0.228219 -0.053148 -0.0512204 -0.0511017 -0.0597711 -0.0558913 -0.060886 -0.0606171 -0.0578864 
-0.0555622 -0.0599872 -0.053551 -0.0295722 -0.0304249 -0.0534199 -0.0459682 -0.0510856 -0.0555158 
-0.0573264 -0.0528172 -0.051408 -0.0635632 -0.0628216 -0.0464777 -0.0470686 -0.0528827 -0.0768429 
-0.133368 -0.133338 -0.0892774 -0.0624837 -0.0664432 -0.0630686 1.24431e-06 1.23666e-06 1.33505e-06 
8.56941e-07 0.00186269 8.75374e-07 -0.000586294 -0.0364661 -0.00832919 -0.027527 -0.0166035 -0.0189178 
-0.0238812 -0.0133002 -0.0304254 8.02522e-07 -0.000526031 -0.0332488 -0.0113464 -0.0233163 -0.0191756 
-0.0162655 -0.0260081 -0.00777753 -0.031884 -0.0343953 -0.0136037 -0.0229535 -0.0199557 -0.0160274 
-0.0255548 -0.00662184 -0.0320982 8.08576e-07 -0.000717902 -0.0351977 -0.0123866 -0.0251567 -0.0187158 
-0.0156655 -0.0303017 -0.00157204 8.28053e-07 8.92338e-07 -2.40065e-05 -0.000142168 1.79832e-06 -9.92103e-05 
-7.94631e-05 -0.133337 -0.133327 -0.133311 -0.133296 -0.133262 -0.133261 -0.133208 -0.133142 
-0.133191 -0.133072 -0.132981 -0.133069 -0.132889 -0.132772 -0.132901 -0.132637 -0.132493 
-0.132676 -0.132331 -0.132125 -0.132413 -0.131956 -0.131714 -0.13209 -0.131528 -0.131277 
-0.131716 -0.131057 -0.130782 -0.131297 -0.130542 -0.130227 -0.130862 -0.129994 -0.12973 
-0.130434 -0.129543 -0.129268 -0.130004 -0.129096 -0.128889 -0.129638 -0.128757 -0.12868 
-0.129348 -0.128609 -0.12857 -0.129207 -0.128616 -0.128722 -0.129174 -0.128828 -0.129047 
-0.129293 -0.129212 -0.129527 -0.129593 -0.129777 -0.130124 -0.13003 -0.130445 -0.130831 
-0.130555 -0.13115 -0.131529 -0.131114 -0.131791 -0.13216 -0.131702 -0.1324 -0.132677 
-0.132213 -0.132873 -0.133028 -0.132635 -0.133148 -0.133207 -0.13294 -0.133341 -0.0547197 
-0.133229 -0.198915 -0.247237 -0.158733 -0.143906 -0.138179 -0.164076 -0.132747 -0.130917 
-0.141905 -0.127728 -0.126226 -0.133906 -0.124544 -0.123833 -0.129171 -0.123159 -0.122947 
-0.126954 -0.122497 -0.122773 -0.125506 -0.122671 -0.123031 -0.125017 -0.122967 -0.123453 
-0.124939 -0.123617 -0.124105 -0.125134 -0.124504 -0.124983 -0.125673 -0.125342 -0.125879 
-0.126282 -0.126208 -0.12678 -0.126962 -0.127143 -0.127703 -0.127683 -0.12807 -0.12858 
-0.128447 -0.128997 -0.129525 -0.129206 -0.12992 -0.13038 -0.129962 -0.130716 -0.131161 
-0.13071 -0.131488 -0.131917 -0.131391 -0.132212 -0.132563 -0.132033 -0.132844 -0.133136 
-0.132566 -0.133361 -0.133634 -0.133073 -0.133803 -0.133999 -0.133484 -0.134129 -0.13427 
-0.133789 -0.134365 -0.134451 -0.134004 -0.134482 -0.134517 -0.134119 -0.134506 -0.134458 
-0.134171 -0.134411 -0.13432 -0.134135 -0.134262 -0.134133 -0.134025 -0.134045 -0.133905 
-0.133869 -0.133789 -0.133625 -0.133673 -0.13352 -0.133371 -0.133456 -0.133281 -0.133149 
-0.13325 -0.13307 -0.132971 -0.133074 -0.132904 -0.132849 -0.132938 -0.132802 -0.13278 
-0.132852 -0.132778 -0.132784 -0.132801 -0.132796 -0.132831 -0.132807 -0.13286 -0.13291 
-0.132855 -0.132957 -0.133014 -0.132931 -0.133061 -0.133128 -0.133022 -0.133174 -0.133226 
-0.13312 -0.13326 -0.133291 -0.133202 -0.133321 -0.133313 -0.133261 -0.132687 -0.132253 
-0.13186 -0.131186 -0.131997 -0.130685 -0.129953 -0.131078 -0.129574 -0.129192 -0.130087 
-0.129121 -0.129547 -0.129336 -0.12924 -0.12998 -0.128577 -0.129135 -0.128856 -0.12741 
-0.127676 -0.1261 -0.125471 -0.124101 -0.121472 -0.122711 -0.120028 -0.117011 -0.11973 
-0.11654 -0.115032 -0.118539 -0.115909 -0.117 -0.119283 -0.118356 -0.120982 -0.121816 
-0.12202 -0.123937 -0.124052 -0.124595 -0.125097 -0.125947 -0.1253 -0.12476 -0.126731 
-0.124832 -0.124137 -0.126895 -0.124538 -0.124406 -0.127298 -0.125678 -0.1269 -0.128926 
-0.129821 -0.13293 -0.134037 -0.136085 -0.140872 -0.141085 -0.151092 -0.164721 -0.154748 
-0.182344 -0.181465 -0.164519 -0.165463 -0.159571 -0.187726 -0.153095 -0.153294 -0.233141 
-0.150751 -0.150636 -0.180965 -0.149523 -0.149042 -0.179943 -0.15003 -0.148685 -0.178585 
-0.145185 -0.143599 -0.177008 -0.149298 -0.146467 -0.218236 -0.146119 -0.145401 -0.217357 
-0.14652 -0.146668 -0.175468 -0.14777 -0.147235 -0.177451 -0.146347 -0.145296 -0.17775 
-0.145113 -0.14492 -0.176 -0.145437 -0.144491 -0.215181 -0.146774 -0.147786 -0.176338 
-0.148637 -0.148341 -0.175092 -0.148044 -0.145438 -0.176132 -0.146732 -0.146129 -0.1757 
-0.149902 -0.147786 -0.219237 -0.146552 -0.146021 -0.218778 -0.148519 -0.147385 -0.178535 
-0.14877 -0.150115 -0.178477 -0.146308 -0.141771 -0.176964 -0.152078 -0.153127 -0.22353 
-0.166393 -0.159936 -0.23924 -0.207406 -0.191059 -0.094952 -0.117612 -0.0883378 -0.0891502 
-0.107979 -0.0875121 -0.0862376 -0.105025 -0.088719 -0.0897759 -0.0987088 -0.0924431 -0.0919265 
-0.101441 -0.0945369 -0.0946621 -0.105296 -0.0970833 -0.0978951 -0.108047 -0.1019 -0.100324 
-0.111912 -0.102568 -0.101114 -0.112632 -0.107449 -0.10748 -0.117126 -0.099628 -0.104124 
-0.13357 -0.108123 -0.158655 -0.141879 -0.117985 -0.0814484 -0.0822704 -0.0891159 -0.103161 
-0.0884646 -0.0912877 -0.0939531 -0.0958189 -0.104519 -0.0976948 -0.10029 -0.10299 -0.10418 
-0.113346 -0.108091 -0.108137 -0.118166 -0.104748 -0.118809 -0.109541 -0.117024 -0.12433 
-0.115658 -0.114206 -0.123478 -0.117066 -0.115656 -0.123828 -0.134533 -0.160564 -0.133316 
-0.161001 -0.133154 -0.132984 -0.167335 -0.15745 -0.165811 -0.159646 -0.179735 -0.13581 
-0.113793 -0.11823 -0.142708 -0.122174 -0.140437 -0.1241 -0.14516 -0.142804 -0.147163 
-0.171832 -0.132468 -0.100701 -0.109238 -0.132958 -0.132644 -0.171733 -0.125348 -0.240424 
-0.133179 -0.133128 -0.133065 -0.132994 -0.133068 -0.132926 -0.132823 -0.13293 -0.132742 
-0.132618 -0.132764 -0.1325 -0.13236 -0.132568 -0.132225 -0.132067 -0.132345 -0.131913 
-0.131722 -0.132075 -0.131572 -0.131361 -0.131771 -0.131202 -0.130991 -0.131469 -0.130827 
-0.130618 -0.131179 -0.130473 -0.130281 -0.130889 -0.130162 -0.130003 -0.130631 -0.12989 
-0.129804 -0.130409 -0.129763 -0.129686 -0.130282 -0.129695 -0.129699 -0.130213 -0.12977 
-0.12984 -0.130246 -0.129969 -0.130138 -0.130382 -0.130285 -0.130522 -0.130646 -0.130667 
-0.130946 -0.130937 -0.131147 -0.131423 -0.131238 -0.131615 -0.13188 -0.131599 -0.132058 
-0.132286 -0.131964 -0.132438 -0.132585 -0.132297 -0.132152 -0.131778 -0.133289 -0.150362 
-0.144378 -0.140273 -0.136638 -0.146036 -0.133817 -0.132351 -0.139408 -0.130536 -0.129702 
-0.134928 -0.128561 -0.128064 -0.131995 -0.127426 -0.127393 -0.13005 -0.126978 -0.126989 
-0.129092 -0.126781 -0.126921 -0.12863 -0.1269 -0.1272 -0.128504 -0.127291 -0.127556 
-0.128491 -0.127732 -0.128074 -0.12863 -0.12824 -0.128621 -0.128991 -0.128846 -0.129198 
-0.129412 -0.129457 -0.129821 -0.129855 -0.130102 -0.130472 -0.130333 -0.130719 -0.131065 
-0.130826 -0.131286 -0.131627 -0.131321 -0.131866 -0.132141 -0.131782 -0.132346 -0.132603 
-0.13219 -0.132776 -0.133001 -0.132547 -0.133143 -0.133321 -0.132888 -0.133421 -0.133559 
-0.13314 -0.133647 -0.133741 -0.133338 -0.133804 -0.133832 -0.13347 -0.133851 -0.133867 
-0.133536 -0.133847 -0.133803 -0.133551 -0.133779 -0.133724 -0.133521 -0.133677 -0.13359 
-0.133441 -0.133533 -0.13344 -0.133349 -0.13338 -0.133278 -0.133261 -0.133216 -0.133124 
-0.133151 -0.133075 -0.132996 -0.133033 -0.132946 -0.132903 -0.132934 -0.132867 -0.132827 
-0.132875 -0.132823 -0.132817 -0.132836 -0.132825 -0.132839 -0.132823 -0.13285 -0.132876 
-0.132847 -0.132909 -0.132946 -0.132895 -0.132984 -0.133028 -0.13295 -0.133064 -0.133108 
-0.133023 -0.133148 -0.133177 -0.133094 -0.13321 -0.13324 -0.133159 -0.164811 -0.168523 
-0.175275 -0.171658 -0.154904 -0.157939 -0.131521 -0.131018 -0.130727 -0.130295 -0.131233 
-0.129699 -0.129284 -0.128069 -0.127338 -0.128144 -0.125661 -0.124563 -0.124576 -0.123017 
-0.122098 -0.121129 -0.121009 -0.11983 -0.118605 -0.119693 -0.124212 -0.125389 -0.125664 
-0.126716 -0.126881 -0.12762 -0.128693 -0.12805 -0.128313 -0.128937 -0.129112 -0.130187 
-0.130151 -0.130704 -0.13171 -0.132385 -0.133939 -0.134239 -0.136075 -0.140308 -0.138567 
-0.146469 -0.143912 -0.15082 -0.145319 -0.154583 -0.128375 -0.139696 -0.153656 -0.160405 
-0.174933 -0.172044 -0.164505 -0.168704 -0.170293 -0.167195 -0.169069 -0.168473 -0.167174 
-0.167839 -0.167567 -0.166451 -0.168333 -0.16586 -0.166228 -0.169046 -0.167579 -0.165594 
-0.167268 -0.168178 -0.166163 -0.164616 -0.167507 -0.165383 -0.166699 -0.166924 -0.165599 
-0.166944 -0.166552 -0.165523 -0.167258 -0.164635 -0.165407 -0.164519 -0.166001 -0.163936 
-0.163648 -0.166308 -0.164566 -0.16571 -0.166734 -0.163548 -0.166329 -0.165942 -0.165537 
-0.166921 -0.165154 -0.165705 -0.16878 -0.168303 -0.165092 -0.16821 -0.169807 -0.165669 
-0.165825 -0.168159 -0.165358 -0.167717 -0.169263 -0.164041 -0.171768 -0.170228 -0.1672 
-0.170229 -0.172552 -0.187696 -0.16978 -0.140862 -0.132847 -0.109476 -0.11945 -0.125117 
-0.104252 -0.102724 -0.106134 -0.105114 -0.10778 -0.107932 -0.106923 -0.10822 -0.110631 
-0.109015 -0.10936 -0.112468 -0.111133 -0.112163 -0.115876 -0.112927 -0.114642 -0.116476 
-0.116964 -0.11626 -0.179896 -0.109035 -0.110827 -0.128395 -0.130365 -0.115467 -0.117214 
-0.106935 -0.107274 -0.124497 -0.126166 -0.12731 -0.132719 -0.132441 -0.118262 -0.119574 
-0.118686 -0.11782 -0.158999 -0.153795 -0.150362 -0.103499 -0.104524 -0.112879 -0.10191 
-0.101037 -0.107142 -0.10599 -0.114478 -0.108726 -0.113041 -0.106594 -0.108417 -0.110037 
-0.112 -0.11392 -0.115756 -0.121067 -0.122643 -0.12153 -0.13385 -0.139025 -0.132165 
-0.133243 -0.133216 -0.133159 -0.131754 -0.132256 -0.13268 -0.132778 -0.132963 -0.136177 
-0.143189 -0.143513 -0.112772 -0.143729 -0.142609 -0.137552 -0.123431 -0.130421 -0.118915 
-0.118893 -0.118149 -0.128235 -0.124609 -0.129236 -0.167295 -0.14755 -0.145346 -0.110661 
-0.129687 -0.11893 -0.121938 -0.141062 -0.144662 -0.136038 -0.117491 -0.140357 -0.143745 
-0.138323 -0.12974 -0.124804 -0.132956 -0.132876 -0.132817 -0.132722 -0.132841 -0.132656 
-0.132544 -0.132701 -0.132462 -0.132343 -0.13255 -0.132248 -0.132106 -0.132384 -0.132001 
-0.131858 -0.132182 -0.131758 -0.131609 -0.131978 -0.131511 -0.131367 -0.131789 -0.131264 
-0.131131 -0.131633 -0.13108 -0.131003 -0.131491 -0.130955 -0.130895 -0.131416 -0.130815 
-0.130798 -0.131348 -0.130742 -0.13071 -0.131284 -0.130741 -0.130756 -0.131243 -0.130839 
-0.130945 -0.131296 -0.131006 -0.13114 -0.131445 -0.131188 -0.131321 -0.131565 -0.131393 
-0.131555 -0.131662 -0.131655 -0.131822 -0.131788 -0.131911 -0.13207 -0.131918 -0.13171 
-0.1314 -0.133119 -0.133085 -0.133087 -0.143545 -0.140758 -0.138216 -0.136721 -0.142496 
-0.135316 -0.13407 -0.138622 -0.132848 -0.132217 -0.135744 -0.131368 -0.131036 -0.133718 
-0.13049 -0.130282 -0.13249 -0.129953 -0.129924 -0.131739 -0.129702 -0.129732 -0.131171 
-0.129637 -0.129741 -0.130805 -0.129753 -0.129922 -0.13065 -0.129962 -0.130168 -0.130709 
-0.130251 -0.130478 -0.130824 -0.130607 -0.130839 -0.131003 -0.130986 -0.131219 -0.131217 
-0.131357 -0.131584 -0.131482 -0.131722 -0.131927 -0.131768 -0.132065 -0.132241 -0.132008 
-0.132355 -0.132524 -0.132228 -0.132618 -0.132772 -0.132415 -0.132858 -0.132961 -0.132602 
-0.133027 -0.133098 -0.132754 -0.133152 -0.1332 -0.132847 -0.133226 -0.133254 -0.132914 
-0.13325 -0.133259 -0.132959 -0.133256 -0.133235 -0.13298 -0.133224 -0.133187 -0.132969 
-0.133168 -0.133127 -0.132948 -0.133109 -0.133065 -0.132934 -0.133044 -0.132996 -0.132915 
-0.13297 -0.132924 -0.132882 -0.132903 -0.132871 -0.132838 -0.132862 -0.132832 -0.132824 
-0.132835 -0.132818 -0.132817 -0.132829 -0.132833 -0.132818 -0.132842 -0.132854 -0.132828 
-0.132873 -0.132896 -0.132865 -0.132921 -0.132948 -0.132898 -0.132978 -0.133013 -0.132939 
-0.133045 -0.133075 -0.133038 -0.132996 -0.131975 -0.131722 -0.124746 -0.122035 -0.131149 
-0.130612 -0.132 -0.130507 -0.130619 -0.150113 -0.159226 -0.166057 -0.163373 -0.155619 
-0.133456 -0.134453 -0.136143 -0.137758 -0.137209 -0.13986 -0.142811 -0.141182 -0.145181 
-0.149179 -0.146143 -0.114942 -0.116167 -0.118617 -0.115933 -0.112796 -0.118511 -0.144874 
-0.143001 -0.162861 -0.163048 -0.164017 -0.164055 -0.160455 -0.163664 -0.163373 -0.161481 
-0.163751 -0.163734 -0.161408 -0.164015 -0.16456 -0.161817 -0.164593 -0.16443 -0.161991 
-0.164528 -0.163538 -0.161729 -0.163764 -0.163593 -0.161866 -0.163665 -0.163646 -0.162062 
-0.163659 -0.163814 -0.162145 -0.16367 -0.164282 -0.162049 -0.164375 -0.163616 -0.161865 
-0.163705 -0.163461 -0.162074 -0.163506 -0.163637 -0.161957 -0.163573 -0.163688 -0.161847 
-0.163433 -0.164077 -0.161687 -0.164015 -0.163807 -0.161187 -0.163757 -0.163439 -0.160726 
-0.163446 -0.163095 -0.160487 -0.163134 -0.164533 -0.160311 -0.16445 -0.130435 -0.130827 
-0.151668 -0.147412 -0.148586 -0.156468 -0.1228 -0.127972 -0.121686 -0.133022 -0.111675 
-0.111237 -0.111997 -0.111421 -0.114609 -0.160896 -0.113906 -0.114526 -0.116469 -0.129889 
-0.130133 -0.131422 -0.132185 -0.124674 -0.126225 -0.129402 -0.127816 -0.125136 -0.116867 
-0.118337 -0.118152 -0.12768 -0.129507 -0.127255 -0.131716 -0.134399 -0.147219 -0.147155 
-0.142867 -0.114687 -0.114177 -0.116311 -0.12186 -0.123508 -0.124926 -0.130734 -0.133503 
-0.130217 -0.131614 -0.132206 -0.134335 -0.119254 -0.120846 -0.122417 -0.155944 -0.132158 
-0.132306 -0.132093 -0.132054 -0.120141 -0.141817 -0.137134 -0.137232 -0.118432 -0.119237 
-0.132347 -0.132088 -0.117031 -0.116658 -0.120824 -0.122362 -0.124927 -0.130762 -0.117707 
-0.132343 -0.128318 -0.131431 -0.13587 -0.118171 -0.132977 -0.140437 -0.139945 -0.160221 
-0.132768 -0.134578 -0.136321 -0.114034 -0.116043 -0.116595 -0.133097 -0.128859 -0.135181 
-0.154353 -0.132038 -0.132092 -0.14113 -0.143843 -0.139265 -0.136474 -0.136956 -0.141487 
-0.136321 -0.112748 -0.112277 -0.114167 -0.132345 -0.132314 -0.132759 -0.132689 -0.132643 
-0.132562 -0.132703 -0.132513 -0.132429 -0.132613 -0.132376 -0.132289 -0.132528 -0.132241 
-0.13215 -0.13244 -0.132089 -0.132008 -0.132351 -0.131984 -0.131902 -0.132289 -0.131854 
-0.131828 -0.132242 -0.13196 -0.131959 -0.132332 -0.131914 -0.13188 -0.132441 -0.131827 
-0.131787 -0.132375 -0.131766 -0.13175 -0.132288 -0.131795 -0.131839 -0.132291 -0.131909 
-0.131933 -0.132345 -0.131923 -0.131945 -0.132362 -0.131891 -0.131916 -0.132267 -0.13187 
-0.131938 -0.132124 -0.131972 -0.132041 -0.132035 -0.132672 -0.132433 -0.132477 -0.136628 
-0.133253 -0.1363 -0.13828 -0.139925 -0.141674 -0.140102 -0.138745 -0.137475 -0.141305 
-0.136279 -0.135488 -0.138807 -0.134527 -0.134002 -0.136751 -0.133391 -0.133047 -0.135352 
-0.132539 -0.132325 -0.13423 -0.132024 -0.131823 -0.133375 -0.131658 -0.13158 -0.132728 
-0.131478 -0.131476 -0.132349 -0.131396 -0.131477 -0.132167 -0.131434 -0.13153 -0.132028 
-0.131524 -0.131636 -0.131933 -0.131654 -0.13177 -0.131912 -0.131806 -0.131924 -0.131941 
-0.131961 -0.132068 -0.132014 -0.132111 -0.132199 -0.132067 -0.13224 -0.132332 -0.132107 
-0.13236 -0.132445 -0.132167 -0.132471 -0.13253 -0.132229 -0.132551 -0.13258 -0.132281 
-0.132605 -0.132626 -0.132303 -0.13264 -0.132659 -0.132329 -0.132659 -0.132678 -0.132359 
-0.132684 -0.132693 -0.132395 -0.132705 -0.132701 -0.132421 -0.132723 -0.132722 -0.132476 
-0.132741 -0.132737 -0.13255 -0.13276 -0.132755 -0.132612 -0.132774 -0.132773 -0.132663 
-0.13278 -0.132786 -0.132707 -0.132791 -0.132788 -0.132752 -0.132812 -0.132813 -0.132779 
-0.132826 -0.132837 -0.132805 -0.132845 -0.132853 -0.132831 -0.132872 -0.132886 -0.132858 
-0.132905 -0.132929 -0.13288 -0.136717 -0.136919 -0.132963 -0.141055 -0.140608 -0.125178 
-0.12637 -0.119157 -0.118829 -0.122983 -0.124242 -0.125639 -0.152221 -0.152482 -0.141959 
-0.144214 -0.142511 -0.146509 -0.149384 -0.14704 -0.139111 -0.137988 -0.138401 -0.135361 
-0.136536 -0.13872 -0.157949 -0.158253 -0.1597 -0.160155 -0.156663 -0.160486 -0.160467 
-0.158384 -0.160106 -0.159927 -0.158339 -0.160004 -0.160007 -0.158037 -0.160215 -0.160293 
-0.158384 -0.160434 -0.160473 -0.158708 -0.160468 -0.160418 -0.158788 -0.16043 -0.160436 
-0.158741 -0.160427 -0.160423 -0.158742 -0.160293 -0.160248 -0.158671 -0.159948 -0.159921 
-0.158254 -0.159676 -0.159561 -0.157797 -0.15931 -0.159076 -0.157312 -0.158754 -0.158444 
-0.156635 -0.158018 -0.15766 -0.155722 -0.156557 -0.156653 -0.154325 -0.109164 -0.110669 
-0.114115 -0.110124 -0.121422 -0.119943 -0.121478 -0.120968 -0.122224 -0.123786 -0.115437 
-0.132878 -0.132809 -0.132788 -0.15698 -0.119493 -0.120396 -0.122203 -0.127332 -0.128582 
-0.127499 -0.132996 -0.132926 -0.132893 -0.132987 -0.13342 -0.134102 -0.129537 -0.131164 
-0.129488 -0.118783 -0.119246 -0.121049 -0.120499 -0.139954 -0.140468 -0.138533 -0.145375 
-0.143005 -0.144607 -0.133863 -0.132779 -0.133092 -0.131559 -0.152703 -0.156172 -0.116783 
-0.119551 -0.122726 -0.132955 -0.136441 -0.135777 -0.134365 -0.135733 -0.125008 -0.122698 
-0.123863 -0.135075 -0.137869 -0.136842 -0.152038 -0.155449 -0.136721 -0.136548 -0.132633 
-0.132799 -0.133757 -0.132911 -0.132037 -0.133336 -0.131497 -0.158749 -0.158184 -0.127788 
-0.134004 -0.0457271 -0.0437195 -0.127715 -0.132014 -0.117512 -0.152267 -0.130371 -0.132914 
-0.132125 -0.132174 -0.132487 -0.132169 -0.133415 -0.133708 -0.132708 -0.132657 -0.13267 
-0.13263 -0.132763 -0.132644 -0.132613 -0.132794 -0.132608 -0.132587 -0.132821 -0.132569 
-0.132533 -0.132826 -0.132725 -0.132737 -0.133033 -0.132867 -0.0469923 -0.133117 -0.133147 
-0.133571 -0.132918 -0.132842 -0.133581 -0.132859 -0.132845 -0.133366 -0.132736 -0.132769 
-0.133316 -0.132912 -0.132968 -0.133361 -0.132564 -0.132474 -0.132241 -0.135613 -0.134265 
-0.134751 -0.123171 -0.124001 -0.144194 -0.142888 -0.141372 -0.140043 -0.143871 -0.138974 
-0.137955 -0.141211 -0.137133 -0.136413 -0.138997 -0.135692 -0.135213 -0.137438 -0.134615 
-0.134254 -0.136145 -0.133855 -0.133556 -0.135101 -0.133298 -0.133093 -0.134273 -0.132884 
-0.132762 -0.133699 -0.132539 -0.132491 -0.133263 -0.132346 -0.132291 -0.132868 -0.132197 
-0.132176 -0.13254 -0.132108 -0.13212 -0.132344 -0.132051 -0.13207 -0.132208 -0.132014 
-0.132035 -0.132065 -0.131999 -0.132017 -0.13195 -0.131989 -0.132012 -0.13185 -0.131992 
-0.132012 -0.131795 -0.131988 -0.131995 -0.131752 -0.131989 -0.132002 -0.131703 -0.132001 
-0.132017 -0.131686 -0.132016 -0.132038 -0.131697 -0.132051 -0.132083 -0.13173 -0.132108 
-0.132149 -0.131796 -0.132212 -0.13226 -0.131896 -0.132342 -0.132377 -0.132074 -0.132451 
-0.132493 -0.132261 -0.132556 -0.132587 -0.132413 -0.132654 -0.132681 -0.132535 -0.1327 
-0.132722 -0.132644 -0.132767 -0.132777 -0.132718 -0.132806 -0.132814 -0.13278 -0.132822 
-0.132832 -0.13281 -0.132834 -0.132834 -0.132823 -0.132847 -0.132852 -0.132826 -0.135914 
-0.135317 -0.147514 -0.146006 -0.147168 -0.13287 -0.137539 -0.137579 -0.126251 -0.127047 
-0.135672 -0.136877 -0.135697 -0.142956 -0.145068 -0.14705 -0.14949 -0.147531 -0.137221 
-0.136891 -0.136217 -0.136274 -0.137493 -0.132836 -0.132784 -0.156522 -0.156057 -0.155975 
-0.155958 -0.15407 -0.156146 -0.156363 -0.154262 -0.156971 -0.157099 -0.154951 -0.15697 
-0.156881 -0.15528 -0.156824 -0.156725 -0.155003 -0.156693 -0.156672 -0.154731 -0.156964 
-0.156922 -0.154967 -0.156352 -0.156149 -0.154765 -0.155764 -0.155625 -0.153968 -0.155232 
-0.154969 -0.153317 -0.154637 -0.154085 -0.152653 -0.153625 -0.152852 -0.151571 -0.152114 
-0.150801 -0.133656 -0.124551 -0.125448 -0.126841 -0.125517 -0.132768 -0.132713 -0.132759 
-0.127819 -0.128739 -0.128291 -0.123588 -0.122759 -0.129439 -0.130509 -0.129657 -0.129861 
-0.127123 -0.13928 -0.140976 -0.143369 -0.139342 -0.149028 -0.149697 -0.134927 -0.132574 
-0.132932 -0.132838 -0.133094 -0.134732 -0.1228 -0.124385 -0.122378 -0.15168 -0.154765 
-0.134569 -0.134693 -0.132784 -0.135457 -0.124026 -0.122455 -0.122386 -0.13383 -0.13423 
-0.132999 -0.12693 -0.151937 -0.134511 -0.13505 -0.136247 -0.125677 -0.12438 -0.125272 
-0.131159 -0.132181 -0.131163 -0.132785 -0.1501 -0.156119 -0.0463978 -0.0419219 -0.134703 
-0.134373 -0.131519 -0.130131 -0.133887 -0.133438 -0.13341 -0.13434 -0.134441 -0.133952 
-0.132915 -0.132942 -0.133075 -0.133085 -0.134041 -0.134074 -0.133784 -0.133977 -0.133769 
-0.133973 -0.133748 -0.13417 -0.134663 -0.134288 -0.134171 -0.134601 -0.134922 -0.143363 
-0.142062 -0.140936 -0.139905 -0.142992 -0.139044 -0.138222 -0.140692 -0.137425 -0.136848 
-0.138984 -0.136188 -0.135734 -0.13752 -0.135278 -0.134911 -0.136329 -0.134551 -0.134238 
-0.135429 -0.133943 -0.133682 -0.134679 -0.133343 -0.133175 -0.134027 -0.132889 -0.132745 
-0.133378 -0.132631 -0.132521 -0.132923 -0.132352 -0.132254 -0.132578 -0.132077 -0.13201 
-0.132222 -0.13187 -0.131821 -0.131898 -0.131729 -0.131678 -0.131648 -0.131585 -0.131546 
-0.131422 -0.131452 -0.131413 -0.131217 -0.131368 -0.131357 -0.131078 -0.131332 -0.131336 
-0.131002 -0.13133 -0.131336 -0.130975 -0.131339 -0.131366 -0.130983 -0.131367 -0.131432 
-0.130991 -0.131531 -0.131646 -0.131118 -0.131803 -0.131916 -0.13144 -0.13209 -0.132174 
-0.131808 -0.132276 -0.132355 -0.132117 -0.132501 -0.13255 -0.132375 -0.132609 -0.0503587 
-0.060172 -0.132683 -0.132732 -0.132606 -0.132788 -0.132807 -0.132796 -0.132828 -0.132824 
-0.132834 -0.13282 -0.132812 -0.132836 -0.132808 -0.148305 -0.149004 -0.146504 -0.151647 
-0.13402 -0.134388 -0.136186 -0.137407 -0.135458 -0.135398 -0.133763 -0.133768 -0.15267 
-0.153277 -0.153115 -0.0542455 -0.0588066 -0.153412 -0.153141 -0.151463 -0.152674 -0.152444 
-0.151047 -0.152716 -0.153089 -0.150564 -0.152447 -0.0566533 -0.0626093 -0.152215 -0.151899 
-0.150542 -0.151534 -0.15114 -0.149801 -0.150857 -0.150297 -0.149088 -0.149852 -0.135872 
-0.136586 -0.128488 -0.126995 -0.127224 -0.130063 -0.130796 -0.128976 -0.129645 -0.130689 
-0.132799 -0.132778 -0.133015 -0.133081 -0.133268 -0.133171 -0.13445 -0.133926 -0.0585349 
-0.0627492 -0.12385 -0.12773 -0.128303 -0.129578 -0.13477 -0.126764 -0.125931 -0.132827 
-0.132819 -0.132834 -0.145012 -0.13564 -0.125526 -0.125189 -0.126809 -0.132849 -0.133496 
-0.132602 -0.152033 -0.150616 -0.151923 -0.133591 -0.133422 -0.139107 -0.140867 -0.134914 
-0.135774 -0.132753 -0.131101 -0.129798 -0.129466 -0.138821 -0.133219 -0.133531 -0.133813 
-0.1475 -0.149797 -0.147997 -0.126555 -0.12698 -0.128471 -0.132963 -0.134362 -0.125835 
-0.127425 -0.125427 -0.145481 -0.147717 -0.145751 -0.143245 -0.133312 -0.13423 -0.142985 
-0.134584 -0.132885 -0.127347 -0.127845 -0.132735 -0.133199 -0.144942 -0.143649 -0.133278 
-0.142406 -0.141331 -0.144234 -0.140388 -0.139498 -0.141879 -0.138693 -0.138022 -0.140071 
-0.137412 -0.136877 -0.138597 -0.136334 -0.135883 -0.137332 -0.135387 -0.134996 -0.136182 
-0.134551 -0.134176 -0.135167 -0.133662 -0.133369 -0.134182 -0.133221 -0.0577699 -0.0629843 
-0.132848 -0.132655 -0.133289 -0.132318 -0.132136 -0.132555 -0.131851 -0.131716 -0.131961 
-0.131498 -0.131392 -0.131477 -0.131275 -0.131153 -0.131122 -0.130918 -0.130783 -0.130728 
-0.130656 -0.130602 -0.130309 -0.130633 -0.13062 -0.130215 -0.130516 -0.130504 -0.130142 
-0.130598 -0.130591 -0.13012 -0.130494 -0.130498 -0.130107 -0.130527 -0.130692 -0.13003 
-0.131127 -0.131355 -0.130514 -0.131662 -0.131849 -0.13135 -0.131996 -0.058416 -0.0575106 
-0.132319 -0.132457 -0.132066 -0.133971 -0.13308 -0.132735 -0.13233 -0.133007 -0.133195 
-0.133028 -0.132941 -0.133679 -0.135104 -0.136412 -0.132198 -0.131472 -0.132896 -0.13178 
-0.131515 -0.132181 -0.146382 -0.124992 -0.125107 -0.126504 -0.056708 -0.0596243 -0.147401 
-0.147143 -0.137978 -0.139694 -0.128367 -0.141667 -0.14413 -0.133731 -0.133741 -0.134575 
-0.0519134 -0.0540729 -0.13282 -0.132817 -0.13265 -0.132894 -0.128097 -0.127678 -0.126174 
-0.137345 -0.147887 -0.146015 -0.148109 -0.149571 -0.148863 -0.147683 -0.147894 -0.0293677 
-0.148696 -0.148352 -0.14646 -0.140833 -0.129239 -0.130291 -0.129132 -0.129745 -0.131745 
-0.132099 -0.148219 -0.135348 -0.128228 -0.128757 -0.12989 -0.130421 -0.13103 -0.13238 
-0.146466 -0.14523 -0.145842 -0.131044 -0.144096 -0.144845 -0.132002 -0.144587 -0.134743 
-0.134226 -0.133571 -0.133191 -0.13415 -0.132701 -0.13233 -0.132962 -0.130705 -0.130573 
-0.12951 -0.129652 -0.128199 -0.128902 -0.1272 -0.127033 -0.128358 -0.132969 -0.133547 
-0.133706 -0.13438 -0.146204 -0.13962 -0.141556 -0.136188 -0.137787 -0.127391 -0.127611 
-0.128929 -0.128103 -0.144945 -0.143368 -0.142295 -0.145069 -0.14923 -0.1429 -0.142718 
-0.140686 -0.141175 -0.140362 -0.142531 -0.139749 -0.139058 -0.14077 -0.138338 -0.137732 
-0.13948 -0.136935 -0.136426 -0.137962 -0.135938 -0.135412 -0.135493 -0.136654 -0.132039 
-0.131997 -0.131676 -0.131295 -0.131064 -0.131272 -0.129269 -0.129239 -0.129911 -0.129748 
-0.129536 -0.12957 -0.129437 -0.12955 -0.130514 -0.12879 -0.132791 -0.138481 -0.143359 
-0.133604 -0.134873 -0.135425 -0.13135 -0.132092 -0.132908 -0.132421 -0.129092 -0.130307 
-0.129729 -0.13079 -0.131777 -0.131841 -0.130328 -0.133797 -0.133224 -0.130752 -0.131193 
-0.132912 -0.134456 -0.143949 -0.142286 -0.141613 -0.140666 -0.13981 -0.138525 -0.13778 
-0.137227 -0.139637 -0.131463 -0.131018 -0.128621 -0.14197 -0.136449 -0.135707 -0.128957 
-0.129317 -0.129814 -0.137484 -0.130201 -0.139347 -0.133349 -0.133312 -0.133313 -0.133226 
-0.13327 -0.133242 -0.133055 -0.133158 -0.133142 -0.132799 -0.132948 -0.132962 -0.132451 
-0.13266 -0.13271 -0.131982 -0.132253 -0.132384 -0.131438 -0.131751 -0.131971 -0.130895 
-0.131208 -0.131501 -0.130261 -0.130628 -0.131015 -0.129662 -0.130008 -0.13052 -0.129151 
-0.129443 -0.130059 -0.128781 -0.128956 -0.129674 -0.128741 -0.128767 -0.129465 -0.128994 
-0.128842 -0.129473 -0.129489 -0.129152 -0.129681 -0.13016 -0.129736 -0.130122 -0.13097 
-0.130473 -0.130684 -0.131787 -0.131315 -0.131303 -0.132454 -0.132083 -0.131921 -0.132939 
-0.132724 -0.132452 -0.133233 -0.133137 -0.132848 -0.13333 -0.192676 -0.153984 -0.165967 
-0.137556 -0.144405 -0.158877 -0.128786 -0.131195 -0.140041 -0.124934 -0.125917 -0.132091 
-0.123396 -0.123486 -0.12778 -0.123122 -0.122885 -0.125951 -0.123509 -0.123053 -0.125385 
-0.124399 -0.123726 -0.125544 -0.125326 -0.124731 -0.12617 -0.126338 -0.125674 -0.126756 
-0.127457 -0.126763 -0.127494 -0.128605 -0.127939 -0.12841 -0.129713 -0.129082 -0.129343 
-0.130726 -0.13014 -0.130209 -0.131689 -0.131168 -0.131086 -0.132552 -0.132057 -0.13188 
-0.133247 -0.132857 -0.132563 -0.133793 -0.13351 -0.133154 -0.134173 -0.133984 -0.133601 
-0.1344 -0.1343 -0.133912 -0.134469 -0.134459 -0.134064 -0.134371 -0.13444 -0.134086 
-0.134157 -0.134303 -0.134017 -0.133867 -0.134055 -0.133827 -0.133554 -0.133747 -0.133617 
-0.13326 -0.133427 -0.133372 -0.133021 -0.133159 -0.133136 -0.132851 -0.132936 -0.132963 
-0.1328 -0.132827 -0.13286 -0.132832 -0.132801 -0.132819 -0.132931 -0.132864 -0.132858 
-0.133065 -0.132987 -0.132948 -0.133187 -0.13312 -0.133063 -0.133278 -0.133232 -0.133166 
-0.187544 -0.133131 -0.133192 -0.132638 -0.132941 -0.132835 -0.131778 -0.13232 -0.132368 
-0.130683 -0.131362 -0.131667 -0.129621 -0.130215 -0.130752 -0.129569 -0.128911 -0.129348 
-0.12898 -0.127669 -0.127646 -0.12839 -0.126054 -0.124707 -0.126493 -0.123846 -0.12095 
-0.123132 -0.121502 -0.117332 -0.119014 -0.118616 -0.117805 -0.116068 -0.12223 -0.119446 
-0.12259 -0.12462 -0.123226 -0.125255 -0.125006 -0.125071 -0.126453 -0.124411 -0.125162 
-0.126788 -0.123855 -0.124495 -0.126805 -0.124101 -0.124287 -0.12712 -0.12638 -0.125228 
-0.128667 -0.131272 -0.128832 -0.132964 -0.145055 -0.136552 -0.141273 -0.167585 -0.149385 
-0.155157 -0.205559 -0.15995 -0.161732 -0.155624 -0.166477 -0.189336 -0.154688 -0.159632 
-0.182553 -0.153158 -0.153126 -0.189005 -0.151488 -0.152348 -0.186483 -0.154778 -0.150919 
-0.184429 -0.149187 -0.150653 -0.173451 -0.150908 -0.153768 -0.173897 -0.149122 -0.149593 
-0.182701 -0.148369 -0.149368 -0.181094 -0.146248 -0.149353 -0.182534 -0.1505 -0.153372 
-0.177942 -0.149752 -0.151683 -0.180202 -0.150263 -0.151293 -0.183845 -0.153592 -0.150876 
-0.185211 -0.150851 -0.149967 -0.173906 -0.15119 -0.155541 -0.174045 -0.15143 -0.153122 
-0.181954 -0.157815 -0.157151 -0.1875 -0.166868 -0.155989 -0.186786 -0.20139 -0.200891 
-0.105666 -0.0884407 -0.0827175 -0.0871676 -0.112066 -0.086148 -0.0893387 -0.0988346 -0.0889433 
-0.0893651 -0.0988738 -0.0917039 -0.0932925 -0.102059 -0.0954878 -0.0959639 -0.103991 -0.097969 
-0.0981089 -0.107756 -0.0997684 -0.101484 -0.111031 -0.103308 -0.105204 -0.113755 -0.108284 
-0.105705 -0.114152 -0.106879 -0.0928034 -0.11532 -0.104436 -0.156606 -0.16279 -0.0912321 
-0.0988597 -0.089271 -0.0869523 -0.104135 -0.0928489 -0.090943 -0.0967785 -0.0962456 -0.105724 
-0.0998239 -0.0993488 -0.110653 -0.10442 -0.1031 -0.115082 -0.110037 -0.106704 -0.110339 
-0.113534 -0.114548 -0.113069 -0.113363 -0.115334 -0.114323 -0.142539 -0.123205 -0.119007 
-0.133464 -0.141534 -0.1254 -0.133316 -0.133211 -0.133303 -0.129191 -0.129449 -0.129473 
-0.121005 -0.116229 -0.117204 -0.118913 -0.249172 -0.179399 -0.21229 -0.141713 -0.145636 
-0.213613 -0.168752 -0.152505 -0.151889 -0.140703 -0.127079 -0.102234 -0.102015 -0.109534 
-0.172364 -0.129207 -0.120358 -0.165875 -0.115017 -0.128756 -0.136783 -0.135368 -0.155762 
-0.133245 -0.17605 -0.133057 -0.133128 -0.133172 -0.133206 -0.133175 -0.133103 -0.132635 
-0.132794 -0.132338 -0.132521 -0.132609 -0.131975 -0.132183 -0.132344 -0.131589 -0.13181 
-0.132052 -0.13119 -0.131434 -0.131747 -0.130806 -0.131033 -0.131478 -0.130465 -0.130656 
-0.1312 -0.130229 -0.130334 -0.130927 -0.130095 -0.130127 -0.130774 -0.130135 -0.130124 
-0.13075 -0.130352 -0.130248 -0.130805 -0.130733 -0.130488 -0.130973 -0.131141 -0.130868 
-0.131222 -0.131623 -0.131333 -0.131462 -0.132072 -0.131816 -0.131793 -0.132427 -0.132226 
-0.132107 -0.13278 -0.132564 -0.132362 -0.119774 -0.120798 -0.134175 -0.137321 -0.141427 
-0.147294 -0.142991 -0.152927 -0.167662 -0.168696 -0.153904 -0.130312 -0.131725 -0.136638 
-0.128405 -0.128984 -0.132404 -0.127717 -0.127807 -0.130328 -0.127695 -0.127474 -0.129557 
-0.127804 -0.127511 -0.129292 -0.128139 -0.127838 -0.129163 -0.128721 -0.128314 -0.129334 
-0.129351 -0.128914 -0.129682 -0.13004 -0.129584 -0.13008 -0.130726 -0.130321 -0.130559 
-0.131434 -0.130999 -0.131107 -0.132055 -0.131715 -0.131658 -0.132602 -0.132295 -0.132133 
-0.133051 -0.13279 -0.13255 -0.13339 -0.1332 -0.132895 -0.133616 -0.133494 -0.13316 
-0.133742 -0.133692 -0.133327 -0.133745 -0.133739 -0.133408 -0.133647 -0.133711 -0.133409 
-0.133534 -0.13362 -0.133357 -0.133354 -0.133465 -0.133265 -0.133173 -0.13328 -0.133152 
-0.133025 -0.133123 -0.13304 -0.132901 -0.132972 -0.132941 -0.132841 -0.132882 -0.132874 
-0.132846 -0.132847 -0.132846 -0.13289 -0.132858 -0.132851 -0.132963 -0.13292 -0.132902 
-0.13306 -0.133007 -0.132965 -0.133135 -0.133099 -0.133037 -0.133109 -0.131562 -0.131986 
-0.129016 -0.129979 -0.130794 -0.131243 -0.131608 -0.122772 -0.124064 -0.118787 -0.125931 
-0.127177 -0.127197 -0.118219 -0.119218 -0.116296 -0.127432 -0.126552 -0.126802 -0.12611 
-0.129408 -0.128457 -0.12838 -0.129322 -0.129199 -0.13057 -0.130855 -0.13039 -0.132171 
-0.133662 -0.132145 -0.134437 -0.13951 -0.135597 -0.138515 -0.149985 -0.142774 -0.145592 
-0.165153 -0.154971 -0.156454 -0.11546 -0.116059 -0.170135 -0.156592 -0.171039 -0.170766 
-0.172354 -0.169535 -0.169701 -0.16573 -0.167794 -0.169052 -0.165186 -0.165342 -0.166204 
-0.164895 -0.165667 -0.165925 -0.164722 -0.167904 -0.167293 -0.164672 -0.167486 -0.167519 
-0.164896 -0.167724 -0.168044 -0.164959 -0.166624 -0.166392 -0.164972 -0.16696 -0.166469 
-0.164755 -0.168224 -0.167619 -0.165101 -0.167898 -0.168488 -0.164737 -0.165634 -0.166075 
-0.164618 -0.165349 -0.166278 -0.164704 -0.168824 -0.167139 -0.165069 -0.172042 -0.170243 
-0.166346 -0.171287 -0.16845 -0.166017 -0.163473 -0.161317 -0.166595 -0.149298 -0.106919 
-0.106249 -0.107049 -0.105311 -0.102616 -0.103467 -0.110285 -0.102722 -0.10379 -0.10689 
-0.104801 -0.106395 -0.107383 -0.107255 -0.108737 -0.109779 -0.113623 -0.114995 -0.144782 
-0.128198 -0.109319 -0.113755 -0.111914 -0.111666 -0.109403 -0.10863 -0.106492 -0.110829 
-0.124638 -0.120318 -0.119204 -0.116977 -0.122732 -0.130103 -0.127892 -0.126583 -0.124027 
-0.124627 -0.128042 -0.132877 -0.13299 -0.13299 -0.132824 -0.127928 -0.127605 -0.12957 
-0.121066 -0.108261 -0.114749 -0.125857 -0.138023 -0.144537 -0.114812 -0.112611 -0.113307 
-0.136383 -0.131329 -0.131838 -0.170821 -0.132186 -0.132278 -0.145443 -0.133135 -0.122786 
-0.140964 -0.138246 -0.135855 -0.131238 -0.130832 -0.133012 -0.132602 -0.132734 -0.124744 
-0.123414 -0.130197 -0.117983 -0.11581 -0.129091 -0.116989 -0.120043 -0.127576 -0.120344 
-0.129036 -0.115964 -0.119026 -0.143356 -0.167718 -0.153607 -0.153671 -0.109633 -0.116582 
-0.140376 -0.143144 -0.136288 -0.115329 -0.117682 -0.112835 -0.114623 -0.114361 -0.111739 
-0.108827 -0.110127 -0.111816 -0.13068 -0.150889 -0.145002 -0.142374 -0.131478 -0.110856 
-0.120322 -0.125527 -0.132009 -0.128118 -0.132156 -0.132304 -0.132586 -0.132709 -0.131957 
-0.132089 -0.132338 -0.131759 -0.131875 -0.13222 -0.131578 -0.131687 -0.132134 -0.13147 
-0.131506 -0.132053 -0.131374 -0.131406 -0.131982 -0.131359 -0.131379 -0.13198 -0.131418 
-0.131396 -0.131981 -0.131547 -0.131461 -0.13199 -0.131661 -0.131569 -0.132053 -0.131779 
-0.131668 -0.132025 -0.131953 -0.131803 -0.131991 -0.13213 -0.132006 -0.132 -0.125519 
-0.128214 -0.119342 -0.121865 -0.133033 -0.133067 -0.133042 -0.149348 -0.149099 -0.137648 
-0.140288 -0.150848 -0.157315 -0.160846 -0.131459 -0.13167 -0.130758 -0.130949 -0.132873 
-0.130454 -0.130453 -0.132096 -0.130428 -0.130356 -0.131538 -0.130562 -0.130406 -0.131315 
-0.130793 -0.130587 -0.131306 -0.131127 -0.130862 -0.131371 -0.131496 -0.131247 -0.131522 
-0.13187 -0.13163 -0.131734 -0.132197 -0.131998 -0.131973 -0.13251 -0.132316 -0.132185 
-0.132741 -0.132596 -0.132367 -0.132922 -0.132827 -0.132534 -0.133037 -0.132987 -0.132662 
-0.133098 -0.133079 -0.132745 -0.133103 -0.133102 -0.132798 -0.133082 -0.133095 -0.132824 
-0.13302 -0.133067 -0.132811 -0.132953 -0.132998 -0.13282 -0.132905 -0.132939 -0.132816 
-0.132867 -0.132894 -0.1328 -0.132836 -0.132858 -0.132808 -0.13284 -0.132851 -0.132824 
-0.132869 -0.132855 -0.132839 -0.132901 -0.13288 -0.132862 -0.13296 -0.132931 -0.132907 
-0.131732 -0.132539 -0.132311 -0.132883 -0.133829 -0.1316 -0.131905 -0.132372 -0.132504 
-0.132612 -0.132476 -0.130617 -0.130576 -0.115304 -0.113433 -0.135159 -0.134155 -0.132886 
-0.132247 -0.135216 -0.142555 -0.139514 -0.149752 -0.145096 -0.146228 -0.159986 -0.154169 
-0.153915 -0.164599 -0.162776 -0.162793 -0.16161 -0.16197 -0.162812 -0.162874 -0.160721 
-0.16295 -0.162898 -0.160935 -0.163269 -0.163045 -0.16124 -0.16319 -0.163303 -0.161368 
-0.163262 -0.163264 -0.161395 -0.163045 -0.163215 -0.161309 -0.162871 -0.163007 -0.161065 
-0.162579 -0.162655 -0.160794 -0.162565 -0.16238 -0.160472 -0.162558 -0.162443 -0.160223 
-0.162679 -0.162464 -0.159946 -0.163136 -0.162728 -0.159868 -0.113901 -0.113859 -0.129351 
-0.133292 -0.131344 -0.131026 -0.131831 -0.133114 -0.109692 -0.1111 -0.131991 -0.162451 
-0.162594 -0.159145 -0.160374 -0.132908 -0.130627 -0.144293 -0.139205 -0.138209 -0.136726 
-0.137998 -0.141457 -0.146544 -0.148639 -0.144009 -0.131163 -0.131637 -0.131925 -0.143026 
-0.147194 -0.15113 -0.144295 -0.115326 -0.117502 -0.117451 -0.118426 -0.116901 -0.134125 
-0.135678 -0.139068 -0.135637 -0.121125 -0.119329 -0.120058 -0.116081 -0.114888 -0.118141 
-0.114607 -0.113641 -0.115998 -0.116503 -0.123676 -0.12215 -0.122215 -0.132774 -0.132786 
-0.132884 -0.131488 -0.122015 -0.142436 -0.144183 -0.121345 -0.119839 -0.12443 -0.133698 
-0.132365 -0.133014 -0.132992 -0.132941 -0.132982 -0.140274 -0.137276 -0.135754 -0.141301 
-0.11358 -0.11372 -0.132963 -0.115106 -0.117107 -0.129121 -0.134023 -0.13808 -0.135695 
-0.134065 -0.13276 -0.120531 -0.132481 -0.143033 -0.112936 -0.132086 -0.131946 -0.115779 
-0.124748 -0.12475 -0.126151 -0.16256 -0.163437 -0.160122 -0.157655 -0.132613 -0.132017 
-0.133968 -0.113494 -0.130272 -0.129379 -0.127536 -0.132532 -0.132586 -0.132579 -0.132546 
-0.13259 -0.132556 -0.133111 -0.132647 -0.132653 -0.1332 -0.132622 -0.132658 -0.133276 
-0.132543 -0.132561 -0.133181 -0.132634 -0.132681 -0.133176 -0.132236 -0.132315 -0.13299 
-0.132085 -0.132124 -0.132429 -0.139429 -0.138709 -0.135238 -0.134788 -0.135279 -0.134429 
-0.133306 -0.13363 -0.134298 -0.134802 -0.135558 -0.132207 -0.132342 -0.13204 -0.132047 
-0.132954 -0.131917 -0.131881 -0.132621 -0.131913 -0.13185 -0.132304 -0.131968 -0.131885 
-0.132155 -0.132056 -0.131961 -0.132087 -0.132154 -0.132059 -0.132051 -0.132239 -0.132156 
-0.132024 -0.132323 -0.132251 -0.132031 -0.132377 -0.132337 -0.132059 -0.132437 -0.1324 
-0.132077 -0.132475 -0.132437 -0.132112 -0.132512 -0.132489 -0.132166 -0.132566 -0.132538 
-0.132245 -0.132612 -0.132599 -0.132328 -0.132668 -0.132651 -0.13246 -0.132725 -0.132703 
-0.132569 -0.132766 -0.132758 -0.132657 -0.13281 -0.132809 -0.132749 -0.132844 -0.132833 
-0.132807 -0.132871 -0.132854 -0.132842 -0.132888 -0.132878 -0.132858 -0.132584 -0.132062 
-0.132925 -0.121926 -0.120735 -0.137609 -0.136374 -0.119465 -0.120629 -0.110892 -0.0353063 
-0.155876 -0.151762 -0.15688 -0.149256 -0.14595 -0.151629 -0.159506 -0.159358 -0.159006 
-0.158744 -0.157416 -0.158503 -0.158468 -0.156622 -0.159595 -0.159586 -0.157871 -0.159463 
-0.159529 -0.157767 -0.159315 -0.15949 -0.157591 -0.159062 -0.159202 -0.157369 -0.158674 
-0.158741 -0.156958 -0.158231 -0.158303 -0.156399 -0.157746 -0.157996 -0.155882 -0.157293 
-0.157566 -0.155262 -0.156866 -0.157009 -0.154493 -0.132528 -0.132533 -0.133024 -0.132501 
-0.132546 -0.132804 -0.132876 -0.141728 -0.139872 -0.139881 -0.140929 -0.135662 -0.136274 
-0.136906 -0.132589 -0.132803 -0.134365 -0.133468 -0.142289 -0.142567 -0.139799 -0.135736 
-0.137282 -0.137429 -0.132891 -0.13332 -0.123946 -0.122637 -0.123297 -0.123078 -0.120215 
-0.119184 -0.121818 -0.135075 -0.150307 -0.154179 -0.156869 -0.137201 -0.138602 -0.137589 
-0.121855 -0.124019 -0.123066 -0.139344 -0.140138 -0.141007 -0.131177 -0.129719 -0.125881 
-0.126723 -0.13065 -0.13553 -0.136387 -0.134691 -0.134518 -0.132908 -0.132882 -0.132918 
-0.136795 -0.134985 -0.132642 -0.132718 -0.118686 -0.121 -0.118617 -0.134182 -0.132571 
-0.132631 -0.132738 -0.13275 -0.134435 -0.133134 -0.127544 -0.132749 -0.132829 -0.132776 
-0.133326 -0.133012 -0.134503 -0.144988 -0.142986 -0.144079 -0.133195 -0.132048 -0.131618 
-0.139699 -0.138408 -0.136885 -0.138065 -0.132118 -0.158463 -0.158166 -0.155373 -0.156374 
-0.124791 -0.125171 -0.126139 -0.133404 -0.156642 -0.144466 -0.147465 -0.150453 -0.139636 
-0.141729 -0.144927 -0.140559 -0.118732 -0.118389 -0.120175 -0.120746 -0.153791 -0.132916 
-0.133899 -0.133745 -0.133786 -0.134035 -0.132376 -0.134864 -0.130218 -0.137978 -0.138181 
-0.136593 -0.137339 -0.13869 -0.138474 -0.13316 -0.133355 -0.133686 -0.13396 -0.134235 
-0.132363 -0.132458 -0.132158 -0.132199 -0.132437 -0.132007 -0.132028 -0.132142 -0.131885 
-0.131902 -0.131882 -0.131799 -0.131804 -0.131649 -0.131741 -0.131744 -0.131491 -0.131752 
-0.131736 -0.131421 -0.131772 -0.131751 -0.131411 -0.131837 -0.131785 -0.131446 -0.131946 
-0.131877 -0.131538 -0.132134 -0.132037 -0.131692 -0.1323 -0.132221 -0.131931 -0.132475 
-0.132403 -0.132197 -0.132632 -0.132577 -0.132431 -0.132753 -0.13272 -0.13263 -0.132816 
-0.132799 -0.132776 -0.132847 -0.132836 -0.132838 -0.132854 -0.13285 -0.132854 -0.13868 
-0.137344 -0.13286 -0.15082 -0.132686 -0.13282 -0.133547 -0.132877 -0.15577 -0.155364 
-0.152893 -0.150363 -0.154148 -0.155614 -0.155821 -0.12873 -0.127209 -0.127347 -0.129539 
-0.156202 -0.156145 -0.154366 -0.154052 -0.153839 -0.152608 -0.135928 -0.135135 -0.137405 
-0.155468 -0.15562 -0.153647 -0.155174 -0.155481 -0.153471 -0.154706 -0.154966 -0.153097 
-0.154168 -0.154283 -0.152514 -0.153501 -0.153672 -0.151798 -0.152404 -0.15292 -0.1509 
-0.151285 -0.152017 -0.149622 -0.137665 -0.133568 -0.133436 -0.134268 -0.138254 -0.139108 
-0.139321 -0.133901 -0.133845 -0.134477 -0.13413 -0.134097 -0.134741 -0.134738 -0.134268 
-0.134236 -0.124836 -0.123887 -0.123468 -0.122705 -0.124794 -0.148279 -0.136397 -0.134948 
-0.135561 -0.133053 -0.133027 -0.13322 -0.123832 -0.12501 -0.136958 -0.135734 -0.137513 
-0.135204 -0.132323 -0.131396 -0.134971 -0.135457 -0.135734 -0.131208 -0.130354 -0.12933 
-0.135008 -0.134275 -0.134642 -0.13285 -0.132835 -0.14036 -0.140742 -0.14224 -0.154136 
-0.132807 -0.132828 -0.141683 -0.140522 -0.141181 -0.134461 -0.133819 -0.133174 -0.132842 
-0.147487 -0.122477 -0.123117 -0.124842 -0.125578 -0.125367 -0.127507 -0.134114 -0.135082 
-0.132897 -0.132888 -0.132957 -0.133162 -0.132794 -0.132827 -0.132845 -0.132866 -0.132863 
-0.146455 -0.144091 -0.144564 -0.136289 -0.137161 -0.133272 -0.133203 -0.133457 -0.133829 
-0.125498 -0.12605 -0.12647 -0.123937 -0.122422 -0.121904 -0.137031 -0.135706 -0.149127 
-0.134111 -0.151645 -0.148717 -0.148938 -0.13184 -0.133166 -0.133982 -0.134326 -0.134057 
-0.13592 -0.135917 -0.154018 -0.133031 -0.132945 -0.13378 -0.134393 -0.135384 -0.135022 
-0.132082 -0.132233 -0.132471 -0.132688 -0.13245 -0.131372 -0.131485 -0.131137 -0.131228 
-0.131006 -0.131037 -0.131046 -0.130744 -0.130989 -0.130982 -0.130602 -0.13101 -0.130982 
-0.130559 -0.131156 -0.131076 -0.130622 -0.131413 -0.131245 -0.130838 -0.131789 -0.131619 
-0.131163 -0.132121 -0.131967 -0.131625 -0.132416 -0.132301 -0.132108 -0.132689 -0.132615 
-0.132473 -0.13281 -0.132777 -0.132783 -0.132848 -0.132862 -0.132863 -0.132854 -0.151543 
-0.151733 -0.152072 -0.152518 -0.150191 -0.151629 -0.151853 -0.14991 -0.128347 -0.127206 
-0.127521 -0.129288 -0.129114 -0.131085 -0.128391 -0.13584 -0.134977 -0.138616 -0.137189 
-0.150702 -0.151199 -0.14947 -0.150061 -0.150511 -0.148594 -0.149497 -0.149805 -0.147896 
-0.14823 -0.149019 -0.147183 -0.146833 -0.147769 -0.145928 -0.126445 -0.12588 -0.127104 
-0.126153 -0.125542 -0.140201 -0.141383 -0.133855 -0.13365 -0.134283 -0.14519 -0.14615 
-0.131698 -0.131821 -0.131423 -0.134768 -0.13522 -0.121855 -0.12201 -0.123717 -0.123508 
-0.14424 -0.135502 -0.130878 -0.134488 -0.134067 -0.142816 -0.136019 -0.133307 -0.133832 
-0.132477 -0.13553 -0.131918 -0.138176 -0.139145 -0.140915 -0.134806 -0.150896 -0.148409 
-0.132061 -0.130969 -0.135735 -0.136242 -0.136253 -0.133026 -0.133006 -0.133291 -0.132878 
-0.142355 -0.140465 -0.140255 -0.134026 -0.133319 -0.133213 -0.133635 -0.126497 -0.125342 
-0.124878 -0.134063 -0.136889 -0.126848 -0.127731 -0.126524 -0.127274 -0.127198 -0.143608 
-0.135217 -0.134782 -0.135299 -0.126335 -0.127501 -0.125655 -0.14633 -0.144163 -0.148231 
-0.134174 -0.135025 -0.133795 -0.13287 -0.132976 -0.132943 -0.133854 -0.130293 -0.13131 
-0.130169 -0.130317 -0.130534 -0.130717 -0.129952 -0.12987 -0.129874 -0.130268 -0.130123 
-0.1316 -0.131327 -0.132111 -0.131874 -0.131613 -0.132628 -0.13255 -0.132327 -0.132921 
-0.132797 -0.132815 -0.132945 -0.132942 -0.133052 -0.132984 -0.147851 -0.136566 -0.137201 
-0.138822 -0.137339 -0.146245 -0.146691 -0.133023 -0.128818 -0.128535 -0.144245 -0.136331 
-0.133153 -0.142898 -0.144809 -0.145256 -0.134364 -0.134741 -0.128182 -0.129438 -0.129925 
-0.128197 -0.131048 -0.13128 -0.130558 -0.145616 -0.145925 -0.14412 -0.152169 -0.130119 
-0.130172 -0.129659 -0.129413 -0.132501 -0.132785 -0.1338 -0.133735 -0.133491 -0.133312 
-0.147935 -0.147708 -0.13475 -0.125217 -0.126553 -0.124854 -0.128112 -0.128637 -0.136828 
-0.137469 -0.130702 -0.129803 -0.133135 -0.135199 -0.130166 -0.130078 -0.130993 -0.1307 
-0.133186 -0.144118 -0.141518 -0.139561 -0.145963 -0.142659 -0.127595 -0.127418 -0.124563 
-0.124469 -0.125902 -0.125901 -0.141435 -0.137454 -0.136059 -0.135852 -0.136943 -0.135175 
-0.147324 -0.145137 -0.131344 -0.131715 -0.131985 -0.12844 -0.128176 -0.128902 -0.129374 
-0.133912 -0.138566 -0.135195 -0.132314 -0.13086 -0.129965 -0.143661 -0.141574 -0.141782 
-0.13996 -0.127664 -0.128683 -0.12896 -0.127254 -0.13896 -0.138369 -0.131906 -0.132501 
-0.131373 -0.129997 -0.130287 -0.129608 -0.133795 -0.134322 -0.135081 -0.133535 -0.133223 
-0.14382 -0.143227 -0.128854 -0.128201 -0.133927 -0.132826 -0.130726 -0.131216 -0.130101 
-0.135231 -0.136025 -0.134588 -0.12885 -0.132691 -0.131749 -0.130557 -0.129335 -0.131968 
-0.132502 -0.131336 -0.132858 -0.133063 -0.142121 -0.142491 -0.129794 -0.14047 -0.132799 
-0.13316 -0.0510719 -0.134422 -0.133678 -0.130448 -0.129397 -0.128991 -0.128612 -0.140921 
-0.142491 -0.136968 -0.138017 -0.130562 -0.131057 -0.129942 -0.139377 -0.139312 -0.139306 
-0.131854 -0.130985 -0.128914 -0.129205 -0.128915 -0.128172 -0.137367 -0.136697 -0.128261 
-0.127163 -0.132523 -0.129043 -0.127188 -0.135714 -0.134806 -0.126823 -0.138843 -0.129527 
-0.13382 -0.133372 -0.256146 -0.183825 -0.133386 -0.133357 -0.133197 -0.132889 -0.132438 
-0.131874 -0.131159 -0.130434 -0.129643 -0.12903 -0.129606 -0.127138 -0.117596 -0.114484 
-0.112105 -0.11035 -0.12007 -0.119519 -0.120612 -0.121521 -0.122945 -0.124844 -0.129751 
-0.135936 -0.148292 -0.121003 -0.117144 -0.114063 -0.122246 -0.120298 -0.120377 -0.124228 
-0.128722 -0.128909 -0.131728 -0.13251 -0.132292 -0.131592 -0.111836 -0.1306 -0.123688 
-0.124045 -0.123857 -0.12314 -0.122184 -0.121291 -0.12957 -0.258918 -0.133346 -0.13335 
-0.180486 -0.150969 -0.137638 -0.131907 -0.126267 -0.124607 -0.122504 -0.121265 -0.120608 
-0.119973 -0.11982 -0.120106 -0.120356 -0.12071 -0.121201 -0.121684 -0.122393 -0.123473 
-0.124106 -0.124669 -0.12535 -0.125911 -0.126614 -0.127164 -0.127838 -0.128919 -0.129561 
-0.130039 -0.130636 -0.131072 -0.131599 -0.132022 -0.132507 -0.13317 -0.13357 -0.13384 
-0.134129 -0.134325 -0.134512 -0.134655 -0.134748 -0.134856 -0.134854 -0.13481 -0.134743 
-0.134367 -0.13417 -0.133843 -0.133641 -0.133491 -0.13332 -0.133189 -0.133051 -0.132856 
-0.132953 -0.132767 -0.132739 -0.132818 -0.13289 -0.133007 -0.13309 -0.133158 -0.133229 
-0.133284 -0.133327 -0.133352 -0.133359 -0.134652 -0.1345 -0.132794 -0.132747 -0.132782 
-0.12013 -0.122937 -0.12837 -0.132862 -0.13483 -0.134019 -0.132946 -0.133341 -0.133375 
-0.133382 -0.133348 -0.133357 -0.133323 -0.133281 -0.133217 -0.133117 -0.13303 -0.132879 
-0.132602 -0.132381 -0.13218 -0.131911 -0.131676 -0.131354 -0.131091 -0.130769 -0.130152 
-0.129772 -0.129488 -0.12912 -0.128838 -0.128534 -0.128335 -0.128135 -0.128 -0.12803 
-0.12811 -0.128254 -0.128471 -0.128832 -0.129182 -0.129617 -0.130394 -0.130914 -0.131316 
-0.131818 -0.132194 -0.13258 -0.132848 -0.133126 -0.133307 -0.133364 -0.13335 -0.132756 
-0.130482 -0.128035 -0.129983 -0.0363686 -0.0434722 -0.0510516 -0.0512268 -0.0533534 -0.0535671 
-0.0547061 -0.0520821 -0.0550828 -0.0535209 -0.0540177 -0.0520837 -0.0507885 -0.0493747 -0.0504056 
-0.0476236 -0.046624 -0.044292 -0.0401348 -0.0421544 -0.0394434 -0.036105 -0.0345739 -0.0447734 
-0.0480392 -0.0522583 -0.0493872 -0.0543835 -0.0530574 -0.0560658 -0.0533189 -0.0548198 -0.0533581 
-0.0532828 -0.0531629 -0.0497717 -0.052023 -0.048274 -0.0476708 -0.0435878 -0.0464184 -0.0394683 
-0.0454464 -0.0353862 -0.0410879 -0.0372866 -0.0471084 -0.0429507 -0.0507261 -0.04738 -0.0512949 
-0.053941 -0.055037 -0.0573483 -0.0549157 -0.0601406 -0.0567527 -0.0622932 -0.0560248 -0.0623941 
-0.0535001 -0.0541695 -0.0503866 -0.0509292 -0.0516111 -0.0610274 -0.0508957 -0.0595902 -0.0482163 
-0.049047 -0.049667 -0.0500356 -0.051087 -0.132874 -0.132852 -0.132836 -0.132822 -0.0468627 
-0.0444388 -0.0516548 -0.0520095 -0.0525106 -0.0395492 -0.0502334 -0.0514455 -0.05221 -0.158891 
-0.161088 -0.160795 -0.0391109 -0.0481225 -0.0371867 -0.041871 -0.0360731 -0.0440535 -0.0419087 
-0.0289844 -0.0298028 -0.125613 -0.123303 -0.123728 -0.121938 -0.0535734 -0.0539344 -0.158542 
-0.178617 -0.186524 -0.208247 -0.179308 -0.0427718 -0.0959525 -0.133411 -0.133633 -0.133707 
-0.134021 -0.127984 -0.127366 -0.124567 -0.12072 -0.118886 -0.120619 -0.117489 -0.119187 
-0.134761 -0.135088 -0.134487 -0.131844 -0.132093 -0.132056 -0.130962 -0.130482 -0.130851 
-0.130347 -0.159328 -0.157108 -0.157421 -0.141603 -0.141271 -0.139731 -0.131533 -0.131681 
-0.132094 -0.132305 -0.136793 -0.135669 -0.13641 -0.13276 -0.132702 -0.132494 -0.132451 
-0.125282 -0.127678 -0.127544 -0.129686 -0.12429 -0.132164 -0.13215 -0.13243 -0.124924 
-0.126227 -0.126585 -0.129664 -0.128942 -0.12929 -0.167847 -0.171183 -0.17667 -0.182262 
-0.130529 -0.129171 -0.129831 -0.13019 -0.129652 -0.129819 -0.152439 -0.15228 -0.162266 
-0.117491 -0.11871 -0.101777 -0.151992 -0.128595 -0.129307 -0.129329 -0.130415 -0.130353 
-0.130897 -0.131827 -0.131675 -0.131908 -0.131763 -0.133332 -0.132513 -0.132496 -0.131967 
-0.131453 -0.131621 -0.131607 -0.130993 -0.131009 -0.141282 -0.143908 -0.144986 -0.0944177 
-0.12288 -0.123203 -0.125202 -0.124755 -0.123418 -0.125273 -0.107361 -0.131665 -0.131968 
-0.132027 -0.13291 -0.132886 -0.132925 -0.121458 -0.163471 -0.163716 -0.161421 -0.133133 
-0.133094 -0.133161 -0.129493 -0.129407 -0.129945 -0.129884 -0.130509 -0.129835 -0.118518 
-0.117036 -0.119413 -0.132809 -0.132804 -0.132817 -0.132807 -0.131525 -0.131539 -0.131719 
-0.131704 -0.132798 -0.133313 -0.132152 -0.132694 -0.132852 -0.132131 -0.132177 -0.131796 
-0.132997 -0.132957 -0.132989 -0.126325 -0.12886 -0.128999 -0.12013 -0.12443 -0.119277 
-0.125874 -0.13029 -0.129852 -0.129204 -0.162156 -0.155568 -0.191094 -0.184148 -0.132945 
-0.132903 -0.132897 -0.133425 -0.133542 -0.133129 -0.133238 -0.140742 -0.139642 -0.143148 
-0.141997 -0.128404 -0.129164 -0.127195 -0.127969 -0.101275 -0.134683 -0.135038 -0.135489 
-0.13612 -0.132233 -0.13206 -0.132136 -0.13201 -0.132289 -0.128931 -0.148861 -0.151322 
-0.134242 -0.13254 -0.132737 -0.132342 -0.132531 -0.134059 -0.133838 -0.113132 -0.132694 
-0.130432 -0.131089 -0.13146 -0.131207 -0.131528 -0.116232 -0.119483 -0.116348 -0.131991 
-0.132019 -0.132105 -0.0918791 -0.103495 -0.122976 -0.132828 -0.132801 -0.132828 -0.132046 
-0.131888 -0.131987 -0.143058 -0.154379 -0.187684 -0.167529 -0.178355 -0.133293 -0.133219 
-0.133239 -0.131337 -0.131628 -0.131396 -0.133319 -0.13162 -0.13172 -0.131721 -0.132249 
-0.131907 -0.131751 -0.131905 -0.169258 -0.169388 -0.186284 -0.133008 -0.132963 -0.13304 
-0.133043 -0.133017 -0.132794 -0.132756 -0.132788 -0.132866 -0.132509 -0.147084 -0.148801 
-0.146955 -0.135055 -0.134173 -0.135524 -0.165156 -0.165221 -0.138032 -0.136115 -0.13722 
-0.16008 -0.15994 -0.161724 -0.161636 -0.134575 -0.13578 -0.132979 -0.148472 -0.0983641 
-0.125186 -0.12678 -0.120926 -0.123845 -0.124809 -0.128397 -0.132026 -0.132124 -0.13179 
-0.133662 -0.1322 -0.132319 -0.132193 -0.137108 -0.135745 -0.139164 -0.1298 -0.129764 
-0.130592 -0.131944 -0.130367 -0.166763 -0.128822 -0.128869 -0.130059 -0.132926 -0.132926 
-0.132955 -0.132878 -0.133498 -0.122902 -0.12255 -0.121401 -0.169199 -0.175097 -0.209376 
-0.185264 -0.131897 -0.131576 -0.130257 -0.133052 -0.132994 -0.133017 -0.132203 -0.132544 
-0.132515 -0.135957 -0.141012 -0.147164 -0.132221 -0.13189 -0.160485 -0.158167 -0.165448 
-0.11062 -0.10881 -0.109496 -0.13155 -0.131908 -0.120682 -0.144915 -0.184985 -0.142355 
-0.195304 -0.176888 -0.182935 -0.134262 -0.133812 -0.134065 -0.142517 -0.141593 -0.145429 
-0.132228 -0.16568 -0.163415 -0.164798 -0.13365 -0.133783 -0.133751 -0.133898 -0.132081 
-0.129006 -0.126037 -0.131909 -0.132251 -0.133463 -0.13372 -0.133796 -0.134074 -0.13263 
-0.133707 -0.133321 -0.133486 -0.133137 -0.123666 -0.123572 -0.122127 -0.130838 -0.130502 
-0.130496 -0.129345 -0.128005 -0.126887 -0.130835 -0.130764 -0.131223 -0.16345 -0.16632 
-0.163507 -0.126697 -0.126203 -0.124492 -0.130334 -0.150973 -0.155926 -0.157939 -0.157516 
-0.153679 -0.154001 -0.151728 -0.132886 -0.132581 -0.132627 -0.132724 -0.129213 -0.129143 
-0.13383 -0.132873 -0.132854 -0.194904 -0.188018 -0.157889 -0.175745 -0.17354 -0.187861 
-0.132459 -0.13266 -0.129066 -0.1299 -0.129394 -0.130171 -0.129468 -0.117656 -0.120459 
-0.120459 -0.109512 -0.112706 -0.115644 -0.115275 -0.117814 -0.1327 -0.132851 -0.132661 
-0.132702 -0.132755 -0.132839 -0.132745 -0.114975 -0.115834 -0.117698 -0.132948 -0.132925 
-0.132988 -0.132859 -0.130329 -0.130099 -0.129678 -0.132784 -0.132815 -0.132814 -0.131648 
-0.132786 -0.133036 -0.132798 -0.133071 -0.136079 -0.136727 -0.1235 -0.119941 -0.12356 
-0.131844 -0.131664 -0.132109 -0.131926 -0.1097 -0.104087 -0.0936588 -0.132409 -0.132293 
-0.132223 -0.131172 -0.13104 -0.131424 -0.157882 -0.157568 -0.156228 -0.155993 -0.105043 
-0.124517 -0.108909 -0.119011 -0.121309 -0.121991 -0.143139 -0.144697 -0.14347 -0.190776 
-0.187546 -0.154884 -0.133139 -0.133706 -0.134026 -0.132577 -0.132533 -0.13262 -0.121197 
-0.117708 -0.120366 -0.117143 -0.140233 -0.145726 -0.13721 -0.147912 -0.11513 -0.108767 
-0.111406 -0.0873363 -0.0876085 -0.125162 -0.140425 -0.156343 -0.13488 -0.136205 -0.135652 
-0.134325 -0.135219 -0.134843 -0.13221 -0.131859 -0.12104 -0.134604 -0.132795 -0.13372 
-0.121698 -0.123733 -0.130893 -0.130504 -0.131462 -0.131651 -0.131749 -0.166263 -0.166173 
-0.133038 -0.133098 -0.133028 -0.142717 -0.1401 -0.141956 -0.131809 -0.131349 -0.131372 
-0.132597 -0.132374 -0.132519 -0.118166 -0.116689 -0.170881 -0.198087 -0.128965 -0.130771 
-0.130429 -0.13223 -0.136071 -0.136734 -0.132175 -0.132214 -0.132299 -0.138934 -0.136814 
-0.132842 -0.132836 -0.132856 -0.127436 -0.127781 -0.127219 -0.140807 -0.13161 -0.131521 
-0.131762 -0.131951 -0.132107 -0.13313 -0.1334 -0.133079 -0.133338 -0.132825 -0.132833 
-0.132829 -0.130583 -0.130936 -0.133647 -0.133128 -0.13348 -0.130684 -0.130595 -0.130056 
-0.126523 -0.125808 -0.12696 -0.13344 -0.133408 -0.133172 -0.133151 -0.128918 -0.129473 
-0.0883465 -0.0874819 -0.13201 -0.122805 -0.125572 -0.124241 -0.133062 -0.133092 -0.133098 
-0.133134 -0.110624 -0.111575 -0.111055 -0.132839 -0.132832 -0.132857 -0.154122 -0.125407 
-0.123906 -0.125589 -0.158158 -0.160087 -0.16006 -0.134628 -0.134101 -0.126911 -0.128942 
-0.165025 -0.163392 -0.163734 -0.163629 -0.161765 -0.133989 -0.133783 -0.132833 -0.157345 
-0.159566 -0.160518 -0.169136 -0.180637 -0.192318 -0.132836 -0.132838 -0.132833 -0.132808 
-0.133088 -0.132481 -0.132731 -0.132717 -0.132781 -0.13267 -0.132732 -0.124558 -0.139185 
-0.140574 -0.137334 -0.138643 -0.131196 -0.132044 -0.132782 -0.133366 -0.133254 -0.132915 
-0.132716 -0.132088 -0.13202 -0.142345 -0.143614 -0.141761 -0.133272 -0.133936 -0.133523 
-0.132484 -0.132574 -0.132776 -0.132862 -0.136692 -0.133799 -0.132959 -0.165167 -0.164658 
-0.168386 -0.133029 -0.13293 -0.13818 -0.137068 -0.142597 -0.14379 -0.144805 -0.161519 
-0.159803 -0.16163 -0.144324 -0.133078 -0.133622 -0.115971 -0.116821 -0.116861 -0.131049 
-0.130888 -0.136991 -0.135246 -0.138658 -0.135209 -0.155364 -0.155193 -0.157229 -0.157116 
-0.128253 -0.129048 -0.127925 -0.122687 -0.159261 -0.135038 -0.132369 -0.132037 -0.132274 
-0.131735 -0.13189 -0.137842 -0.140632 -0.135842 -0.138802 -0.129372 -0.137795 -0.116072 
-0.114247 -0.11552 -0.13586 -0.135641 -0.134801 -0.127393 -0.129071 -0.127807 -0.128253 
-0.128972 -0.129088 -0.132037 -0.131913 -0.132021 -0.132043 -0.13205 -0.132037 -0.131687 
-0.130954 -0.189228 -0.184489 -0.12983 -0.128178 -0.129462 -0.135534 -0.134842 -0.139423 
-0.128988 -0.126432 -0.125919 -0.132639 -0.132113 -0.140221 -0.140095 -0.141918 -0.111996 
-0.113067 -0.115197 -0.125409 -0.132822 -0.132793 -0.132816 -0.132287 -0.132009 -0.130585 
-0.130191 -0.129952 -0.134803 -0.132668 -0.134375 -0.141093 -0.141859 -0.144315 -0.124662 
-0.124776 -0.125846 -0.128504 -0.131612 -0.131007 -0.131656 -0.131044 -0.112624 -0.11862 
-0.10983 -0.173629 -0.160449 -0.147037 -0.135315 -0.135377 -0.136061 -0.147531 -0.147053 
-0.147027 -0.132852 -0.131586 -0.134076 -0.132916 -0.131717 -0.132167 -0.132232 -0.13077 
-0.130767 -0.130306 -0.130796 -0.131293 -0.131193 -0.11142 -0.10866 -0.10925 -0.132877 
-0.132956 -0.132899 -0.132972 -0.132166 -0.132114 -0.132376 -0.131786 -0.132359 -0.136058 
-0.129723 -0.130074 -0.130008 -0.162981 -0.16401 -0.16698 -0.187264 -0.158344 -0.156649 
-0.155062 -0.154589 -0.136118 -0.133788 -0.138437 -0.199557 -0.130293 -0.129737 -0.129526 
-0.134447 -0.134495 -0.132619 -0.132794 -0.132358 -0.127458 -0.128813 -0.153025 -0.133139 
-0.133082 -0.132851 -0.143275 -0.13124 -0.131202 -0.131462 -0.153948 -0.154158 -0.13155 
-0.131547 -0.131888 -0.113579 -0.114386 -0.110928 -0.163428 -0.164822 -0.165212 -0.131552 
-0.131747 -0.131864 -0.161456 -0.163576 -0.16359 -0.12432 -0.125361 -0.125815 -0.126709 
-0.129233 -0.141193 -0.143632 -0.141652 -0.132053 -0.132337 -0.161248 -0.161437 -0.163607 
-0.150431 -0.140641 -0.140872 -0.137487 -0.137549 -0.13926 -0.139556 -0.136937 -0.138357 
-0.132892 -0.13292 -0.13166 -0.131312 -0.130653 -0.130306 -0.142303 -0.139343 -0.14156 
-0.133348 -0.133215 -0.147701 -0.150637 -0.149222 -0.130488 -0.131828 -0.133332 -0.134326 
-0.131985 -0.1321 -0.136319 -0.145338 -0.144985 -0.14357 -0.106556 -0.14548 -0.147732 
-0.147331 -0.131221 -0.130745 -0.13109 -0.13061 -0.165408 -0.163438 -0.16355 -0.164895 
-0.163152 -0.13158 -0.131223 -0.134962 -0.11401 -0.161292 -0.161502 -0.16928 -0.189789 
-0.115631 -0.115006 -0.135597 -0.136908 -0.133264 -0.119577 -0.140524 -0.139739 -0.136675 
-0.138599 -0.137987 -0.133502 -0.133262 -0.134142 -0.133944 -0.148317 -0.176404 -0.175416 
-0.173181 -0.146102 -0.164935 -0.13448 -0.134266 -0.135134 -0.131268 -0.131968 -0.130498 
-0.144645 -0.180169 -0.151223 -0.133745 -0.195815 -0.143411 -0.133113 -0.133718 -0.132454 
-0.133151 -0.145921 -0.132276 -0.132305 -0.132833 -0.132839 -0.132579 -0.136267 -0.135969 
-0.135153 -0.10078 -0.132811 -0.132749 -0.132848 -0.131967 -0.131798 -0.132094 -0.132682 
-0.132783 -0.132827 -0.124343 -0.129284 -0.132341 -0.13244 -0.132485 -0.1778 -0.173141 
-0.194645 -0.132657 -0.13265 -0.128561 -0.129252 -0.132426 -0.132531 -0.131624 -0.131664 
-0.131052 -0.131133 -0.0970378 -0.132609 -0.125564 -0.125118 -0.126595 -0.132136 -0.132766 
-0.134001 -0.133332 -0.131981 -0.137748 -0.135524 -0.137041 -0.138644 -0.129973 -0.130236 
-0.129775 -0.132586 -0.132583 -0.13307 -0.132739 -0.135243 -0.134765 -0.132041 -0.142818 
-0.141411 -0.143855 -0.132016 -0.13216 -0.15652 -0.154386 -0.131283 -0.121815 -0.138078 
-0.145581 -0.126059 -0.12628 -0.12737 -0.137938 -0.137703 -0.139497 -0.13261 -0.132894 
-0.132893 -0.137281 -0.131209 -0.131536 -0.135157 -0.133181 -0.132901 -0.132855 -0.132555 
-0.132942 -0.132552 -0.133018 -0.132966 -0.131014 -0.13091 -0.130622 -0.131197 -0.131221 
-0.152399 -0.149365 -0.149238 -0.132706 -0.132611 -0.132713 -0.14619 -0.13101 -0.13106 
-0.131983 -0.132272 -0.132315 -0.159308 -0.158933 -0.158726 -0.156534 -0.156225 -0.160908 
-0.163542 -0.163733 -0.160235 -0.160147 -0.132209 -0.132027 -0.132327 -0.132166 -0.131202 
-0.131371 -0.129977 -0.133485 -0.159172 -0.157021 -0.156849 -0.13283 -0.132835 -0.13284 
-0.169168 -0.10389 -0.106471 -0.10671 -0.132795 -0.132708 -0.132828 -0.133153 -0.132866 
-0.151485 -0.153478 -0.151088 -0.153189 -0.134257 -0.133427 -0.131177 -0.134035 -0.134232 
-0.135014 -0.132489 -0.131107 -0.13181 -0.134693 -0.133775 -0.131595 -0.132199 -0.131255 
-0.130792 -0.133168 -0.134679 -0.132676 -0.133972 -0.133388 -0.133557 -0.132798 -0.133258 
-0.133512 -0.133302 -0.133566 -0.120837 -0.118908 -0.119273 -0.136497 -0.135468 -0.133768 
-0.13354 -0.13288 -0.13231 -0.132734 -0.141915 -0.143958 -0.143757 -0.132125 -0.132404 
-0.130725 -0.130233 -0.130953 -0.130519 -0.133683 -0.136126 -0.132086 -0.134969 -0.131884 
-0.131886 -0.143253 -0.135779 -0.135211 -0.136661 -0.127176 -0.12913 -0.129318 -0.134032 
-0.157945 -0.134686 -0.117859 -0.12407 -0.149039 -0.178396 -0.131911 -0.131983 -0.110677 
-0.113203 -0.132904 -0.132919 -0.132835 -0.132858 -0.130858 -0.131623 -0.131506 -0.131495 
-0.131363 -0.135506 -0.132988 -0.132905 -0.132939 -0.132873 -0.132667 -0.132696 -0.132123 
-0.131912 -0.132017 -0.132198 -0.113204 -0.11066 -0.105168 -0.130959 -0.13278 -0.13416 
-0.155878 -0.153499 -0.145117 -0.137543 -0.13906 -0.143476 -0.141821 -0.122665 -0.121342 
-0.120585 -0.119176 -0.120155 -0.118066 -0.151208 -0.135935 -0.136762 -0.137826 -0.106746 
-0.105203 -0.10234 -0.136645 -0.152424 -0.150465 -0.152711 -0.15068 -0.154495 -0.152867 
-0.158339 -0.159942 -0.158213 -0.132816 -0.132829 -0.132828 -0.146994 -0.126346 -0.126648 
-0.125477 -0.125817 -0.127919 -0.127184 -0.127437 -0.131841 -0.126463 -0.135008 -0.140832 
-0.135949 -0.123266 -0.128647 -0.121912 -0.122708 -0.123568 -0.124521 -0.132867 -0.132861 
-0.132877 -0.12398 -0.122274 -0.13297 -0.132991 -0.132171 -0.151875 -0.134712 -0.13161 
-0.13157 -0.133079 -0.152318 -0.150193 -0.150875 -0.136175 -0.136827 -0.135384 -0.135943 
-0.143787 -0.142659 -0.120426 -0.129973 -0.12993 -0.129275 -0.122473 -0.123622 -0.123031 
-0.117932 -0.133945 -0.133226 -0.133399 -0.12986 -0.129935 -0.130447 -0.13462 -0.125047 
-0.142527 -0.155968 -0.156517 -0.158162 -0.125599 -0.138296 -0.139978 -0.139107 -0.153934 
-0.160819 -0.14873 -0.155631 -0.137541 -0.152381 -0.155152 -0.154502 -0.156342 -0.154349 
-0.125041 -0.126465 -0.127128 -0.150368 -0.148561 -0.148041 -0.131374 -0.131194 -0.13156 
-0.131339 -0.131555 -0.131713 -0.130058 -0.160051 -0.156849 -0.157392 -0.154367 -0.16756 
-0.130487 -0.130705 -0.130208 -0.132297 -0.132214 -0.12611 -0.1324 -0.132558 -0.132577 
-0.127172 -0.139428 -0.1377 -0.139805 -0.153313 -0.156467 -0.12774 -0.127806 -0.157582 
-0.132067 -0.132202 -0.132244 -0.114525 -0.111628 -0.111799 -0.147996 -0.14853 -0.0994048 
-0.113615 -0.117001 -0.135577 -0.160312 -0.160333 -0.122111 -0.127452 -0.127738 -0.131993 
-0.123778 -0.123663 -0.124962 -0.123941 -0.134446 -0.12056 -0.159719 -0.159603 -0.131813 
-0.134656 -0.134198 -0.13616 -0.0952792 -0.150065 -0.147592 -0.132208 -0.133245 -0.139754 
-0.128975 -0.12875 -0.129487 -0.140547 -0.13863 -0.139403 -0.136043 -0.129418 -0.126933 
-0.128911 -0.150878 -0.15019 -0.152547 -0.152032 -0.139511 -0.138148 -0.156273 -0.13287 
-0.132841 -0.115642 -0.115338 -0.112789 -0.137377 -0.138307 -0.138984 -0.130661 -0.159295 
-0.157334 -0.131479 -0.132755 -0.132807 -0.132798 -0.125093 -0.126838 -0.124792 -0.142337 
-0.125897 -0.10721 -0.110152 -0.142039 -0.131714 -0.131405 -0.131812 -0.132452 -0.132672 
-0.132938 -0.133632 -0.130885 -0.130652 -0.132204 -0.133202 -0.132844 -0.132809 -0.128905 
-0.129373 -0.132986 -0.13291 -0.129654 -0.128542 -0.130431 -0.130009 -0.130451 -0.130333 
-0.13246 -0.134094 -0.133806 -0.134121 -0.12859 -0.128642 -0.13314 -0.133212 -0.133149 
-0.132259 -0.132913 -0.132729 -0.131938 -0.132079 -0.131817 -0.140222 -0.142362 -0.132797 
-0.13008 -0.129429 -0.148985 -0.135783 -0.15416 -0.166167 -0.167528 -0.140898 -0.13827 
-0.138901 -0.133237 -0.129607 -0.130295 -0.127083 -0.126458 -0.127625 -0.162994 -0.162886 
-0.16049 -0.127996 -0.127522 -0.128477 -0.120939 -0.119515 -0.122264 -0.126093 -0.134288 
-0.137189 -0.134219 -0.133602 -0.134226 -0.133287 -0.200122 -0.20828 -0.201308 -0.172905 
-0.146501 -0.13964 -0.138135 -0.1344 -0.133479 -0.133818 -0.133816 -0.132113 -0.13094 
-0.133446 -0.132274 -0.132388 -0.132979 -0.126763 -0.134376 -0.131876 -0.131562 -0.12271 
-0.125894 -0.125348 -0.131972 -0.132009 -0.13206 -0.133291 -0.13322 -0.133315 -0.133249 
-0.133126 -0.133166 -0.129926 -0.129304 -0.129684 -0.13258 -0.1332 -0.132427 -0.134028 
-0.130884 -0.133053 -0.133023 -0.1302 -0.130602 -0.118592 -0.133787 -0.134132 -0.133462 
-0.105001 -0.103309 -0.132025 -0.132227 -0.137555 -0.140108 -0.144351 -0.13321 -0.131196 
-0.133324 -0.13076 -0.13193 -0.131927 -0.13211 -0.132367 -0.144718 -0.150713 -0.161226 
-0.159774 -0.126505 -0.1653 -0.169933 -0.134501 -0.134118 -0.13871 -0.140602 -0.137778 
-0.145556 -0.139731 -0.144475 -0.133253 -0.133187 -0.116277 -0.121031 -0.119248 -0.128998 
-0.129341 -0.130237 -0.15228 -0.133595 -0.16499 -0.130682 -0.131753 -0.131413 -0.131826 
-0.126335 -0.128595 -0.127514 -0.126584 -0.148206 -0.145854 -0.148056 -0.147861 -0.150345 
-0.132794 -0.132884 -0.132907 -0.126968 -0.132617 -0.132767 -0.132698 -0.131613 -0.131994 
-0.132165 -0.134996 -0.145902 -0.150819 -0.128803 -0.133323 -0.133284 -0.088061 -0.132698 
-0.130512 -0.129311 -0.133529 -0.133423 -0.130527 -0.155419 -0.131165 -0.131287 -0.130668 
-0.132721 -0.132515 -0.132444 -0.132285 -0.110251 -0.11084 -0.11389 -0.131113 -0.142921 
-0.118008 -0.136805 -0.131951 -0.134045 -0.133768 -0.1337 -0.164692 -0.149825 -0.149642 
-0.152118 -0.151831 -0.133364 -0.133659 -0.133143 -0.133089 -0.133261 -0.134052 -0.155219 
-0.0892834 -0.105287 -0.0913013 -0.128116 -0.128847 -0.13384 -0.132714 -0.106711 -0.10528 
-0.110598 -0.107222 -0.147735 -0.142141 -0.145925 -0.158222 -0.134822 -0.134405 -0.0885202 
-0.0933061 -0.101157 -0.101215 -0.133369 -0.133095 -0.132606 -0.132874 -0.14395 -0.141785 
-0.107571 -0.0866355 -0.132212 -0.153958 -0.156608 -0.131816 -0.132934 -0.133167 -0.133056 
-0.119527 -0.1315 -0.130474 -0.130488 -0.129831 -0.130406 -0.171289 -0.16972 -0.164927 
-0.157488 -0.159811 -0.154155 -0.0916441 -0.131415 -0.124187 -0.130811 -0.131877 -0.152579 
-0.155372 -0.134505 -0.13465 -0.134149 -0.133489 -0.134072 -0.141687 -0.163385 -0.15028 
-0.152688 -0.133434 -0.116832 -0.116089 -0.125052 -0.130139 -0.130539 -0.167713 -0.139195 
-0.128018 -0.127325 -0.128691 -0.128727 -0.13284 -0.132852 -0.132856 -0.140633 -0.129494 
-0.132578 -0.1325 -0.13247 -0.133165 -0.133198 -0.137539 -0.129711 -0.131078 -0.13654 
-0.149112 -0.156403 -0.133068 -0.133032 -0.132903 -0.132798 -0.132814 -0.132827 -0.132128 
-0.13243 -0.132792 -0.131805 -0.13183 -0.130736 -0.130383 -0.128811 -0.12636 -0.141926 
-0.140101 -0.131689 -0.131027 -0.131107 -0.129527 -0.129788 -0.130099 -0.130089 -0.130991 
-0.131004 -0.130122 -0.132072 -0.131761 -0.131687 -0.13212 -0.132602 -0.132646 -0.132613 
-0.126761 -0.134138 -0.131249 -0.131447 -0.1311 -0.134512 -0.119317 -0.134886 -0.197815 
-0.109216 -0.13438 -0.134005 -0.131193 -0.131219 -0.130787 -0.133008 -0.148431 -0.133012 
-0.116491 -0.115315 -0.118275 -0.16617 -0.163295 -0.126862 -0.127773 -0.150736 -0.132773 
-0.132752 -0.163368 -0.165208 -0.133022 -0.133325 -0.129594 -0.131771 -0.154847 -0.152917 
-0.162847 -0.167757 -0.167947 -0.163183 -0.123279 -0.132611 -0.130452 -0.129931 -0.131645 
-0.134463 -0.134491 -0.10302 -0.131576 -0.131083 -0.131293 -0.132948 -0.132159 -0.129259 
-0.128258 -0.129341 -0.130027 -0.125063 -0.126286 -0.169053 -0.132954 -0.132909 -0.1349 
-0.139908 -0.156642 -0.132121 -0.132802 -0.1262 -0.133878 -0.108682 -0.132688 -0.131773 
-0.131107 -0.132853 -0.132903 -0.133138 -0.128998 -0.132904 -0.127957 -0.132622 -0.131624 
-0.132797 -0.129425 -0.192923 -0.139524 -0.165317 -0.165611 -0.16295 -0.13266 -0.132878 
-0.132875 -0.142463 -0.143903 -0.141076 -0.131085 -0.13145 -0.131307 -0.132338 -0.132195 
-0.118073 -0.115811 -0.114287 -0.130894 -0.131176 -0.127189 -0.126144 -0.122353 -0.133042 
-0.132867 -0.132514 -0.151138 -0.153914 -0.15165 -0.154231 -0.132836 -0.132833 -0.132544 
-0.13079 -0.119153 -0.115866 -0.117403 -0.15247 -0.154632 -0.132673 -0.0918319 -0.11887 
-0.12202 -0.123486 -0.113715 -0.112798 -0.13416 -0.163155 -0.146086 -0.145646 -0.136721 
-0.136783 -0.14559 -0.154366 -0.171218 -0.165564 -0.136623 -0.135522 -0.150935 -0.141711 
-0.129831 -0.13376 -0.131541 -0.144295 -0.146461 -0.133022 -0.1331 -0.133018 -0.142185 
-0.125868 -0.12322 -0.14729 -0.145405 -0.148082 -0.150613 -0.148874 -0.131939 -0.131261 
-0.131685 -0.132433 -0.132339 -0.132731 -0.172198 -0.133195 -0.133399 -0.13178 -0.132061 
-0.132545 -0.132265 -0.130374 -0.133419 -0.132064 -0.132088 -0.132165 -0.150646 -0.133061 
-0.13321 -0.132571 -0.132207 -0.132887 -0.132159 -0.124139 -0.122185 -0.132556 -0.132679 
-0.15616 -0.171413 -0.132818 -0.132847 -0.132792 -0.13174 -0.102267 -0.128153 -0.131751 
-0.153493 -0.155978 -0.158527 -0.131522 -0.131853 -0.131298 -0.139222 -0.132553 -0.131298 
-0.140485 -0.137481 -0.136189 -0.132573 -0.11578 -0.132539 -0.132028 -0.132461 -0.134039 
-0.134052 -0.131528 -0.154738 -0.131258 -0.130601 -0.130047 -0.12983 -0.132861 -0.132878 
-0.144511 -0.146755 -0.146665 -0.148539 -0.133087 -0.154115 -0.138148 -0.140016 -0.129067 
-0.148757 -0.133278 -0.113915 -0.108626 -0.0962024 -0.129562 -0.124636 -0.124945 -0.123287 
-0.132962 -0.135624 -0.136335 -0.130277 -0.132288 -0.130516 -0.131228 -0.187591 -0.168475 
-0.185983 -0.132923 -0.163393 -0.161747 -0.132823 -0.132824 -0.132765 -0.132543 -0.132751 
-0.129858 -0.122366 -0.127599 -0.128397 -0.128644 -0.129599 -0.135256 -0.136021 -0.134765 
-0.134777 -0.128816 -0.12876 -0.137689 -0.136147 -0.134743 -0.132247 -0.133844 -0.133173 
-0.132125 -0.132019 -0.136845 -0.137731 -0.132403 -0.132797 -0.132874 -0.131448 -0.132251 
-0.131959 -0.13284 -0.132833 -0.132835 -0.133632 -0.13253 -0.118908 -0.132232 -0.129329 
-0.128563 -0.114295 -0.16297 -0.166195 -0.152778 -0.132826 -0.132815 -0.165713 -0.0855535 
-0.0873298 -0.0984809 -0.0989281 -0.132726 -0.133956 -0.125001 -0.123767 -0.133564 -0.1308 
-0.131113 -0.13286 -0.132837 -0.133194 -0.133099 -0.13317 -0.116214 -0.114508 -0.109591 
-0.110972 -0.132042 -0.135951 -0.133092 -0.133105 -0.17255 -0.167253 -0.133473 -0.132851 
-0.132941 -0.133027 -0.129355 -0.129463 -0.13178 -0.165165 -0.169893 -0.118169 -0.119419 
-0.122795 -0.130426 -0.130897 -0.130846 -0.130886 -0.127148 -0.130672 -0.128284 -0.127483 
-0.132075 -0.13084 -0.130399 -0.129864 -0.0880817 -0.165941 -0.16843 -0.171362 -0.188494 
-0.132589 -0.132913 -0.128501 -0.133029 -0.142337 -0.131687 -0.131994 -0.13188 -0.176749 
-0.182197 -0.13165 -0.135431 -0.132683 -0.131772 -0.131878 -0.144669 -0.146116 -0.131389 
-0.158096 -0.139603 -0.139553 -0.140429 -0.14036 -0.124123 -0.132509 -0.132549 -0.131654 
-0.131543 -0.132742 -0.132771 -0.13278 -0.132402 -0.135111 -0.135796 -0.128788 -0.132457 
-0.132415 -0.132637 -0.161042 -0.125714 -0.113769 -0.132941 -0.133115 -0.133187 -0.131563 
-0.132441 -0.166275 -0.162929 -0.166065 -0.132272 -0.132121 -0.141122 -0.132296 -0.132082 
-0.132328 -0.132995 -0.132031 -0.132175 -0.131794 -0.132864 -0.132864 -0.132878 -0.132783 
-0.132732 -0.132543 -0.127792 -0.128063 -0.135531 -0.100872 -0.103258 -0.136579 -0.135724 
-0.132176 -0.132338 -0.133235 -0.15255 -0.176797 -0.163044 -0.162997 -0.126153 -0.127328 
-0.151181 -0.155776 -0.164471 -0.194737 -0.166076 -0.101213 -0.133185 -0.170607 -0.181904 
-0.116432 -0.114059 -0.116679 -0.13373 -0.13348 -0.133244 -0.130451 -0.131981 -0.132245 
-0.13107 -0.132599 -0.132566 -0.132323 -0.129352 -0.131953 -0.158306 -0.17204 -0.133184 
-0.133162 -0.133783 -0.132795 -0.15176 -0.154528 -0.134293 -0.152819 -0.143194 -0.132847 
-0.132159 -0.134784 -0.191014 -0.158212 -0.160075 -0.132397 -0.157703 -0.13129 -0.160662 
-0.135331 -0.131258 -0.133787 -0.125261 -0.108473 -0.126811 -0.127706 -0.11819 -0.132966 
-0.132788 -0.142779 -0.129531 -0.128437 -0.128071 -0.128547 -0.133519 -0.126728 -0.132905 
-0.132423 -0.132542 -0.128931 -0.124692 -0.126748 -0.14076 -0.13267 -0.132864 -0.141957 
-0.132014 -0.13191 -0.130928 -0.132828 -0.132837 -0.133036 -0.133285 -0.132836 -0.133079 
-0.133203 -0.124146 -0.132795 -0.130587 -0.131023 -0.11578 -0.117983 -0.113247 -0.130419 
-0.135674 -0.110175 -0.131888 -0.116801 -0.118754 -0.133216 -0.133094 -0.163788 -0.161675 
-0.161689 -0.16166 -0.159969 -0.132004 -0.132189 -0.145888 -0.149806 -0.149701 -0.132878 
-0.132836 -0.132831 -0.129179 -0.128343 -0.129787 -0.129254 -0.130376 -0.156908 -0.12927 
-0.13576 -0.136921 -0.133245 -0.130924 -0.13644 -0.133033 -0.12821 -0.133338 -0.130302 
-0.13281 -0.131406 -0.131693 -0.131333 -0.149327 -0.14985 -0.142593 -0.143836 -0.131318 
-0.174905 -0.166897 -0.136368 -0.133057 -0.132291 -0.158151 -0.153005 -0.155537 -0.134322 
-0.133407 -0.133345 -0.133705 -0.130072 -0.130912 -0.132279 -0.132085 -0.12279 -0.13284 
-0.132792 -0.13183 -0.131752 -0.130575 -0.149367 -0.145534 -0.143726 -0.124123 -0.121823 
-0.134692 -0.133423 -0.13269 -0.13314 -0.116151 -0.134175 -0.134014 -0.133867 -0.133596 
-0.1322 -0.132334 -0.132505 -0.128352 -0.139363 -0.138923 -0.138308 -0.13796 -0.153944 
-0.15522 -0.149173 -0.144486 -0.158236 -0.157999 -0.132673 -0.131699 -0.133674 -0.133349 
-0.133296 -0.133232 -0.132587 -0.132584 -0.132885 -0.133468 -0.132924 -0.132993 -0.140078 
-0.160816 -0.143198 -0.132868 -0.132864 -0.132895 -0.102503 -0.100804 -0.089775 -0.120222 
-0.132751 -0.16795 -0.132923 -0.13583 -0.133726 -0.133359 -0.166671 -0.171036 -0.130254 
-0.103696 -0.10705 -0.13392 -0.196867 -0.126239 -0.127518 -0.151166 -0.149773 -0.113511 
-0.103601 -0.124552 -0.120346 -0.119224 -0.132803 -0.133021 -0.13121 -0.131143 -0.130566 
-0.133155 -0.130188 -0.122931 -0.12899 -0.127186 -0.125905 -0.12882 -0.127078 -0.133197 
-0.133036 -0.155856 -0.155145 -0.129589 -0.132935 -0.131805 -0.132246 -0.131988 -0.127177 
-0.130707 -0.130953 -0.126676 -0.127644 -0.159577 -0.132895 -0.119216 -0.129495 -0.130554 
-0.127295 -0.132142 -0.132336 -0.131687 -0.132218 -0.131049 -0.146631 -0.150259 -0.123275 
-0.149546 -0.13216 -0.149102 -0.110457 -0.146277 -0.132196 -0.132026 -0.133128 -0.133079 
-0.132882 -0.132864 -0.13104 -0.188579 -0.153869 -0.191607 -0.131109 -0.159563 -0.127808 
-0.1329 -0.132903 -0.123647 -0.122009 -0.117255 -0.115983 -0.128764 -0.136575 -0.137605 
-0.142491 -0.132199 -0.154087 -0.13172 -0.131806 -0.11472 -0.132961 -0.112183 -0.130093 
-0.151278 -0.132621 -0.129629 -0.128763 -0.129797 -0.171147 -0.130474 -0.129873 -0.15087 
-0.144646 -0.165387 -0.120606 -0.13174 -0.125015 -0.130386 -0.131504 -0.13235 -0.130667 
-0.145473 -0.125433 -0.132803 -0.136915 -0.132843 -0.132843 -0.132857 -0.137751 -0.136427 
-0.137558 -0.134698 -0.151604 -0.148281 -0.15216 -0.0869697 -0.101285 -0.135847 -0.138054 
-0.134021 -0.148146 -0.138247 -0.130709 -0.132851 -0.132847 -0.149523 -0.145418 -0.163417 
-0.163792 -0.192139 -0.124133 -0.125208 -0.120293 -0.114679 -0.112806 -0.13355 -0.126542 
-0.157478 -0.129924 -0.133921 -0.131374 -0.131276 -0.134065 -0.132661 -0.132699 -0.132837 
-0.161491 -0.165461 -0.133167 -0.128989 -0.129398 -0.139298 -0.128646 -0.133446 -0.125851 
-0.165131 -0.171091 -0.157955 -0.124642 -0.129863 -0.133955 -0.128187 -0.131876 -0.127669 
-0.110781 -0.133476 -0.133169 -0.125056 -0.132208 -0.124497 -0.128572 -0.128409 -0.132996 
-0.131521 -0.13456 -0.135021 -0.165709 -0.131675 -0.165973 -0.131783 -0.131696 -0.107654 
-0.135092 -0.135817 -0.137346 -0.13982 -0.140914 -0.133074 -0.166517 -0.130074 -0.138237 
-0.148018 -0.143132 -0.133037 -0.144998 -0.161483 -0.17027 -0.144013 -0.146882 -0.13281 
-0.133943 -0.0901156 -0.109203 -0.120395 -0.132155 -0.132487 -0.133069 -0.182556 -0.183557 
-0.136253 -0.131612 -0.14408 -0.132399 -0.132468 -0.120732 -0.132583 -0.13177 -0.136917 
-0.13235 -0.133259 -0.132853 -0.132206 -0.134659 -0.131748 -0.131879 -0.132733 -0.132824 
-0.132836 -0.139726 -0.129922 -0.132173 -0.133323 -0.137985 -0.137313 -0.13209 -0.129193 
-0.132741 -0.171403 -0.180203 -0.142 -0.132756 -0.122352 -0.121325 -0.131068 -0.118986 
-0.130676 -0.129813 -0.132419 -0.159856 -0.161602 -0.167127 -0.132485 -0.116807 -0.120771 
-0.118503 -0.132416 -0.133097 -0.163773 -0.145431 -0.166176 -0.129324 -0.154678 -0.157835 
-0.121738 -0.130443 -0.132853 -0.141302 -0.127975 -0.132791 -0.145256 -0.131864 -0.134791 
-0.134167 -0.133957 -0.134819 -0.13787 -0.137407 -0.133009 -0.133212 -0.12929 -0.132596 
-0.138504 -0.120105 -0.131557 -0.132903 -0.133472 -0.134116 -0.132828 -0.130977 -0.13306 
-0.131663 -0.159751 -0.159252 -0.132492 -0.13285 -0.15162 -0.125326 -0.134605 -0.14732 
-0.13465 -0.135411 -0.10961 -0.131228 -0.132912 -0.163582 -0.146909 -0.128582 -0.146207 
-0.132885 -0.134412 -0.226997 -0.134243 -0.1464 -0.153521 -0.127381 -0.132164 -0.1313 
-0.169969 -0.10822 -0.131954 -0.131386 -0.132863 -0.144687 -0.097168 -0.156098 -0.110562 
-0.113097 -0.131295 -0.137169 -0.166284 -0.146862 -0.132324 -0.124458 -0.129273 -0.127132 
-0.132542 -0.145047 -0.118711 -0.152022 -0.13068 -0.159909 -0.14118 -0.131715 -0.155822 
-0.159727 -0.119745 -0.129605 -0.132959 -0.104776 -0.132831 -0.131159 -0.139227 
Stress%20xx%20component 1 9350 double
0.529348 0.471252 0.47583 0.529429 2.42262e-05 2.26144e-05 2.6635e-06 2.20181e-06 0.0184395 
0.0122146 0.0461067 0.0413347 -0.0928008 -0.0992882 0.0795819 -0.00345427 0.24328 0.21159 
0.188015 0.192471 0.186788 0.186542 0.178843 0.176028 0.184176 0.184018 0.183335 
0.176415 0.181878 0.182958 0.184348 0.178372 0.178164 0.18919 0.192677 0.189423 
0.202908 0.213188 0.213533 0.210937 0.216471 0.200356 0.195885 0.192818 0.191575 
0.209385 0.199096 0.188764 0.1895 0.18931 0.188668 0.207936 0.188516 0.190433 
0.191101 0.190562 0.207976 0.200723 0.191228 0.194042 0.197522 0.210957 0.227192 
0.221291 5.93639e-05 4.12734e-05 -0.000117928 -0.000437745 -0.000891828 -0.00148535 -0.00228497 -0.00331928 
-0.00449513 -0.00576724 -0.00717539 -0.00882883 -0.0101972 -0.0115612 -0.0126285 -0.013182 -0.0133041 
-0.0127808 -0.0117313 -0.0100836 -0.00829238 -0.00621998 -0.0042556 -0.00243546 -0.000994559 -0.000125923 
0.000109316 -0.151983 -0.00141251 -0.00106149 -0.000536748 -0.000291834 -0.000194695 -0.000222789 -0.000123347 
-6.52102e-05 -4.21004e-05 -3.70785e-05 -2.04712e-06 -1.30784e-05 -6.29107e-06 3.11804e-06 3.93244e-06 3.408e-06 
1.12036e-05 1.44565e-05 2.27744e-05 1.55881e-05 2.00843e-05 2.0165e-05 2.47567e-05 2.4421e-05 2.47904e-05 
6.73335e-06 1.85026e-05 1.17831e-05 4.76996e-06 2.11094e-06 1.66268e-07 -6.59161e-06 -1.11135e-05 -3.44887e-06 
-1.37725e-05 -1.41203e-05 -7.94623e-06 -5.7654e-06 -3.19962e-06 -1.77837e-06 3.32636e-06 7.54224e-06 1.49677e-06 
-9.55311e-06 3.17628e-05 3.42067e-05 2.80884e-05 -3.46792e-06 -8.28873e-05 -4.38301e-05 -0.000112828 0.000236316 
0.000421666 0.000120819 -0.000108163 -0.000381514 -0.000599686 -0.000443906 6.19526e-05 0.000267628 0.000213744 
9.40448e-05 -7.41326e-05 -0.000316351 -0.00118283 -0.00172445 -0.000754656 -0.0254249 -0.00775234 0.0502621 
0.0568495 0.0980079 0.118411 0.135139 0.138311 0.151429 0.149877 0.135538 0.118331 
0.238445 0.0878606 0.0873538 0.0891246 0.0750027 0.0727153 0.0846793 0.0436187 0.0472878 
0.0645642 0.0780355 4.71689e-05 4.4262e-05 -0.000183732 -0.000687085 -0.00141984 -0.0024854 -0.00386407 
-0.00544485 -0.00706707 -0.00897366 -0.0107744 -0.0123324 -0.0131991 -0.013167 -0.0123632 -0.0106299 
-0.00844734 -0.00586857 -0.00339342 -0.00141871 -0.000189828 0.000186991 -0.0245662 -0.00862694 -0.00107926 
-0.000609698 -0.000252679 -0.000142065 -9.6207e-05 -5.62328e-05 -2.72314e-05 -2.27878e-05 -4.56729e-06 7.00233e-06 
1.35603e-05 1.05487e-05 2.08779e-05 2.36867e-05 2.46637e-05 2.89331e-05 3.03315e-05 3.3968e-05 3.02212e-05 
2.72312e-05 2.30504e-05 1.59838e-05 4.38319e-06 -6.84024e-06 -1.17608e-05 -1.55926e-05 -1.66719e-05 -1.53143e-05 
-1.20309e-05 -4.64244e-06 2.81735e-06 6.94904e-06 1.03001e-05 7.62168e-06 1.40512e-05 2.56351e-05 2.82023e-05 
1.79679e-05 -2.95294e-05 -0.000109457 -0.000109017 0.000168322 0.00034308 0.000316673 0.000255118 -0.000279793 
-0.000718849 -0.000123674 0.000404529 0.00030748 0.000186209 1.87656e-05 -0.000130155 -0.000272729 -0.000593594 
-0.000429068 -0.00263899 -0.00475195 -0.0840911 0.0278515 0.0326324 0.0711378 0.0868762 0.0944366 
0.110028 0.13017 0.10418 0.128844 0.112206 0.182417 0.13208 0.0825367 0.0764386 
0.0831204 0.0903084 0.095267 0.0558862 0.0848524 0.126734 0.0751397 0.0286075 -6.45856e-05 
-0.000198353 -0.000458911 -0.000801977 -0.00127303 -0.0018757 -0.00262685 -0.0034907 -0.0044894 -0.00558141 
-0.00671442 -0.00783403 -0.00886249 -0.00977817 -0.0103513 -0.0106442 -0.0104978 -0.00994093 -0.00899656 
-0.00775666 -0.00626587 -0.00475498 -0.00333324 -0.00208255 -0.00114711 -0.000418158 0.0141894 0.00590607 
0.00307968 0.00160609 0.000960629 0.000630625 0.000392763 0.000274069 0.00015297 7.87359e-05 5.38587e-05 
2.51513e-05 -1.21642e-05 -3.07404e-05 -4.96462e-05 -4.65877e-05 -5.65544e-05 -6.91144e-05 -8.4209e-05 -9.29488e-05 
-9.76339e-05 -0.000100158 -0.000112429 -0.000123313 -0.000120687 -0.000110718 -9.80701e-05 -8.23289e-05 -5.31914e-05 
-2.26381e-05 -5.11061e-06 2.26389e-05 4.21611e-05 5.52982e-05 5.55773e-05 6.38603e-05 5.57617e-05 4.3014e-05 
2.19158e-05 8.92282e-06 -1.1903e-05 -2.95362e-05 -4.04311e-05 -4.10023e-05 -0.000255506 -9.22416e-05 0.000228584 
0.000815056 0.000898693 -0.000536271 -0.00213647 -0.00180642 -0.000618567 0.000147631 0.00368623 0.00330832 
-0.000879579 -0.00178341 -0.00125933 -0.000484548 0.000239156 0.00106854 0.00228724 0.00651557 0.00686495 
0.0167881 0.0668279 0.0778109 0.088616 0.0938133 0.0941828 0.0949318 0.0932832 0.0856709 
0.0944789 0.0963806 0.0972267 0.0968422 0.0858751 0.0940937 0.0942222 0.0964848 0.0953382 
0.0937085 0.0846396 0.0922973 0.0919984 0.0925503 0.0934164 0.0787117 0.0671393 -0.0276856 
-0.030656 -0.0448331 -0.0334186 -0.0250897 -0.0185174 -0.014171 -0.0109888 -0.0054167 -0.00631585 
0.00217364 0.00898061 -0.0125032 -0.00756107 0.0115759 0.0112895 0.00237529 -0.00875472 -0.018659 
-0.0259253 -0.03696 -0.0442735 -0.0435149 -0.0397062 -0.0206476 -0.000221308 0.0343676 0.00868995 
0.00441411 0.0210232 0.0333004 -0.0149352 -0.000366817 -0.000627974 -0.000955271 -0.0013651 -0.00188704 
-0.00251459 -0.00327729 -0.00407326 -0.0049561 -0.00586812 -0.00674099 -0.00748735 -0.00813394 -0.00850127 
-0.00864398 -0.00840052 -0.00773709 -0.00686544 -0.00589513 -0.00470368 -0.00359244 -0.00256373 -0.00170042 
-0.00077079 0.0201041 0.0108749 0.00638729 0.00410919 0.00266182 0.00180964 0.00122951 0.00082574 
0.00051475 0.000278521 0.000125537 9.95481e-06 -8.55971e-05 -0.000159163 -0.000211647 -0.000263958 -0.000314993 
-0.000349419 -0.000389055 -0.000425178 -0.00045925 -0.000487738 -0.000488434 -0.000461557 -0.000434923 -0.000370869 
-0.000286015 -0.000174986 -6.30445e-05 4.37189e-05 0.000132125 0.000199054 0.000242828 0.000268294 0.000257113 
0.000214089 0.000153034 7.23434e-05 -2.65441e-06 -7.1306e-05 -0.000133041 -0.000171061 0.0466572 0.0375986 
0.000158704 0.00152463 0.00302501 0.000239607 -0.00602594 -0.00721985 -0.00309188 -0.00115814 -0.00561413 
-0.00495837 -0.00268422 -0.000105265 0.00290945 0.00697282 0.0142454 0.0276778 0.00772013 -0.00951525 
0.0692147 0.0820563 0.0880339 0.090306 0.0937997 0.0964693 0.0972763 0.0974262 0.0972649 
0.0977907 0.0985799 0.0982691 0.0984417 0.0975737 0.0964222 0.0962391 0.0950517 0.0926983 
0.0890229 0.0846319 0.0817944 0.0721408 -0.00375544 -0.0156118 -0.021525 -0.0163927 -0.0113011 
-0.00697397 -0.00411003 0.000486671 0.00253085 -0.0033946 -0.0251453 -0.0152324 -0.00148724 -0.0270612 
-0.000880381 -0.0211404 -0.00179011 -0.0287759 -0.0268534 -0.0037453 -0.000329966 -0.00907881 -0.0250196 
-0.0177225 0.00668681 -0.0141628 0.0170946 0.00972484 -0.0126301 0.027822 -0.000605899 -0.000848373 
-0.00114916 -0.00151671 -0.001987 -0.00263345 -0.00333145 -0.00405808 -0.00485975 -0.00549584 -0.00605931 
-0.00666272 -0.00703063 -0.00704768 -0.00661073 -0.00594706 -0.00517267 -0.00428758 -0.00337014 -0.00260892 
0.000977344 -0.000346649 0.0182858 0.0117363 0.00845753 0.00567693 0.00388327 0.00274598 0.00184806 
0.00116405 0.000659721 0.0003171 4.58544e-05 -0.000163427 -0.00032996 -0.000476892 -0.000594235 -0.000709628 
-0.000811764 -0.000885724 -0.000960585 -0.00101689 -0.00105067 -0.00105339 -0.000986723 -0.000878775 -0.000709283 
-0.000498696 -0.000251966 -1.51075e-05 0.000212031 0.000392775 0.000523073 0.000588728 0.000597014 0.000530293 
0.000410338 0.000253519 7.73921e-05 -8.65881e-05 -0.000191287 -0.000692041 -0.0070522 0.00384661 -0.00998422 
0.0293781 0.0480017 0.00376626 0.0101765 0.0193241 0.031405 -0.00755152 -0.00638954 -0.0144451 
0.00242583 0.0522413 0.0675992 0.0689517 0.0745279 0.080591 0.0820118 0.0818876 0.0823557 
0.083497 0.0841863 0.0845466 0.0844168 0.0834766 0.0821947 0.0805981 0.0789741 0.0756235 
0.0709615 0.0643401 0.058142 -0.00581389 0.0309009 0.000282008 -0.0122106 -0.0144801 -0.00620696 
-0.00934178 -0.0172829 0.00481229 -0.0102604 -0.0173088 -0.00658989 -0.00666115 -0.0159553 -0.0146176 
-0.0014554 -0.0132826 -0.00171364 -0.0135515 -0.00800442 0.00015276 0.00737121 0.0102159 -0.0116265 
0.0145267 -0.00243301 0.0173692 -0.000747362 -0.000476397 -0.000568626 -0.000752013 -0.00107973 -0.00157996 
-0.00228425 -0.0029492 -0.00372808 -0.00397278 -0.00484926 -0.00563527 -0.005948 -0.00579497 -0.00521257 
-0.00446271 -0.00363294 -0.0029574 -0.00189629 0.00143334 -0.0127693 0.0115706 0.0174886 0.0129279 
0.00916841 0.00646839 0.00457431 0.00310154 0.00195492 0.0011623 0.000575872 0.000105266 -0.0002856 
-0.000596866 -0.000838911 -0.00106304 -0.00125395 -0.00143076 -0.00157314 -0.00169587 -0.00177427 -0.0018217 
-0.00176869 -0.00163144 -0.0013968 -0.00106476 -0.000646759 -0.000202497 0.000216447 0.000583028 0.000831585 
0.00101258 0.00111425 0.0010359 0.000834034 0.000577827 0.000255236 -5.94071e-05 0.00515639 -0.00337237 
-0.0111714 -0.00853373 -0.0104636 0.0481524 0.0217799 0.0345888 0.00249985 0.00332586 0.0514491 
0.06331 0.0675933 0.0655992 0.0668508 0.0690437 0.0704738 0.0704789 0.0703473 0.0702231 
0.068958 0.0662849 0.0637981 0.0605662 0.0560619 0.049636 0.0393251 -0.0197932 -0.00807913 
-0.00948652 -0.000386542 -0.0086162 -0.0114134 -0.000295348 -0.00307807 -0.0108327 -0.00824105 -0.00509983 
0.022766 -0.011257 -0.00450796 -0.00155278 0.00595161 -0.00863345 -0.00947235 -0.00196386 -0.00215858 
0.000374945 0.000480272 0.000274908 -0.000372299 -0.00125673 -0.00146522 -0.00254852 -0.00431403 -0.00493584 
-0.00526722 -0.00485541 -0.00282963 -0.0113798 -0.00799467 0.0238353 0.0173198 0.0124125 0.0090443 
0.00639378 0.00435925 0.00281124 0.00170427 0.000830152 8.67187e-05 -0.000458876 -0.000923391 -0.00129475 
-0.0016421 -0.00194346 -0.00218497 -0.00240573 -0.00256944 -0.0027184 -0.00272518 -0.00258473 -0.00232539 
-0.00189109 -0.00129632 -0.000562016 0.000136253 0.000772975 0.00124281 0.00143123 0.00179735 0.00177941 
0.00147005 0.00105556 0.000559121 2.88657e-05 0.000832949 0.0314656 -0.00448876 -0.00767146 0.0110038 
0.0233135 0.0359322 -0.0020284 0.00265798 0.0508531 0.0510109 0.0529029 0.0574438 0.0563521 
0.0554414 0.054529 0.056897 0.0526894 0.0501693 0.0471305 0.0435485 0.0382814 -0.0078028 
0.000203165 -0.00761673 -0.00860086 -0.00760785 0.00254766 0.0116402 -0.00390615 -0.00833841 0.00302182 
-0.00871342 -0.00886743 -0.00360427 -0.00665018 -0.00742237 0.0105261 0.00899574 -0.00763231 0.00217186 
0.000533504 -0.00387678 0.00743149 -0.00424954 0.0213298 0.0154359 0.0112857 0.00797847 0.00536673 
0.00359322 0.00214686 0.000965834 -4.18591e-05 -0.000717022 -0.00130007 -0.00187129 -0.00235615 -0.00275215 
-0.00304687 -0.00339567 -0.00372045 -0.00379185 -0.00370883 -0.00344393 -0.00299142 -0.00229866 -0.00115318 
4.02118e-05 0.000883958 0.00187533 0.00224901 0.00303962 0.00235136 0.00180066 0.00100167 0.0291724 
0.0017904 0.00420045 0.0417381 0.0436304 0.0394547 0.0408575 0.0384096 0.0360071 0.0332136 
-0.00258616 -0.00518413 -0.00507994 0.00181642 -0.00475705 -0.00562129 -0.00722389 0.00165343 -0.0081188 
-0.00632607 0.0375324 0.00959216 -0.00296534 0.00208303 0.00505021 -0.00633853 -0.00723724 0.0231047 
-0.00501114 0.00624638 0.0246939 0.0178576 0.0129469 0.00928762 0.00645825 0.00420027 0.00230001 
0.000679751 -0.000661036 -0.00166375 -0.00246921 -0.003156 -0.0037123 -0.00400794 -0.00471147 -0.00505919 
-0.00481779 -0.00484779 -0.00420154 -0.00375591 -0.0021775 -5.70351e-05 0.00209493 0.00363794 0.00312118 
0.000757968 -0.00471469 -0.00796383 0.00625872 0.0159899 -0.00643722 0.0266594 0.0293991 0.0225221 
0.027302 -0.00445766 -0.00257546 -0.0054342 -0.00327069 0.0174145 0.000406957 -0.00124855 -0.00243351 
-0.00508962 -0.00559182 -0.0071842 0.0101268 0.00294826 -0.0065463 0.0193003 0.0137598 0.0106916 
0.0073843 0.00445339 0.00254804 -0.00325688 -0.00423445 -0.00596634 -0.000678862 -0.00253202 -0.00376169 
0.0118942 0.0062039 -7.28081e-05 -0.000273706 -0.000620489 -0.00112415 -0.00183193 -0.00275549 -0.00391023 
-0.00509025 -0.00642775 -0.00772317 -0.0088748 -0.00977483 -0.0100533 -0.00974724 -0.00890633 -0.00753732 
-0.00590626 -0.0041611 -0.00261039 -0.00137481 -0.000471698 0.0422854 0.00780069 0.00322427 0.0014776 
0.000762594 0.000503198 0.000305431 0.000211438 0.000106713 3.49251e-05 -1.5209e-06 -3.35431e-05 -6.01518e-05 
-8.10093e-05 -9.58291e-05 -0.000115679 -0.000131637 -0.000132891 -0.000138261 -0.000138657 -0.00013859 -0.00011967 
-8.85852e-05 -4.05189e-05 9.54089e-06 5.05824e-05 7.28857e-05 8.30895e-05 8.70975e-05 6.42963e-05 3.72508e-05 
5.3363e-06 -2.56881e-05 -5.73523e-05 -0.000219387 -0.000134265 -0.000193795 -2.20015e-05 0.000297394 0.000922189 
-0.00158075 -0.00307559 -0.00262119 -0.00109334 0.000972602 0.00267986 -0.00199905 -0.00208228 -0.00111995 
-0.000374385 0.00032732 0.00103728 0.00206393 0.00419537 0.0110974 0.0312559 0.0695579 0.0838145 
0.0860797 0.0914451 0.0932905 0.0953778 0.100403 0.0965351 0.0960567 0.0961715 0.0986195 
0.0970781 0.0968086 0.0947472 0.0950485 0.100292 0.0937748 0.096226 0.0930155 0.0878087 
-0.0815704 -0.038668 -0.0466603 -0.035338 -0.0255162 -0.0186523 -0.0131739 -0.00871173 -0.00477318 
-0.00417136 0.000966323 0.00851357 -0.0307752 -0.000713037 0.0121494 0.0104618 0.00135515 -0.00809062 
-0.0183265 -0.0348487 -0.0410049 -0.0385238 -0.0449188 -0.0420097 -0.0223334 0.00155493 0.00601721 
0.0297902 0.0317913 -0.0150905 0.00517483 0.03477 0.0411529 -0.000476517 -0.000234686 -0.00113713 
-0.00169091 -0.00239235 -0.00327342 -0.00420186 -0.005197 -0.00624372 -0.00713486 -0.00768341 -0.00775259 
-0.00736155 -0.00647046 -0.0054039 -0.00416077 -0.00284217 -0.00170362 -0.000781577 -0.0102472 0.00922863 
0.0173514 0.0407651 0.00508109 0.00285246 0.00192442 0.00133889 0.000793359 0.000430237 0.000177347 
-1.68528e-05 -0.000151701 -0.000250178 -0.000336774 -0.000412172 -0.000471273 -0.000519444 -0.000567122 -0.00058221 
-0.000573757 -0.000518934 -0.000413913 -0.000244104 -6.47105e-05 0.000111739 0.000242609 0.000323958 0.000340013 
0.00028702 0.000205159 9.47704e-05 -3.28416e-05 -0.000147872 -0.000663864 0.00463085 0.000522431 -0.00845646 
-0.00169148 -0.00598996 -0.00689766 -0.00445 -0.0019559 0.00060078 0.00359294 0.00706854 0.0131683 
0.0268318 0.0554376 -0.0151562 -0.00769258 0.0784317 0.0838323 0.0884679 0.0913236 0.0932197 
0.0941836 0.0952579 0.0957611 0.0959228 0.0948125 0.093427 0.0922196 0.090917 0.0888525 
0.0869054 0.0835837 0.0711789 -0.00793008 -0.00149239 -0.0238506 -0.024449 -0.0211752 -0.0161774 
-0.011019 -0.000338287 0.00696596 -0.00472174 -0.00447536 -0.000987879 -0.0260646 -0.0212334 -0.0239499 
-0.0271137 -0.000752114 -0.00456235 -0.0180022 0.00183168 -0.00961954 -0.016445 0.00910611 -0.0128437 
0.0021736 0.00967807 0.00652126 0.0160855 -0.0131225 -0.00408479 -0.00665417 0.0292697 0.00210509 
-0.00146858 -0.000720576 -0.0021085 -0.00294945 -0.00387444 -0.0049061 -0.00571674 -0.00618098 -0.00614967 
-0.00556408 -0.00462379 -0.00365197 -0.00280793 -0.00162389 -0.012692 -0.000379079 -0.00830641 0.0140662 
0.0387269 0.00398325 0.0026765 0.00162346 0.00086274 0.000342692 -4.97343e-05 -0.000349537 -0.000584343 
-0.000776539 -0.000931087 -0.00107416 -0.00118714 -0.00124005 -0.00125266 -0.0011673 -0.000969466 -0.00069705 
-0.000315642 6.05524e-05 0.000390959 0.000635996 0.000731692 0.000683264 0.000529441 0.000328276 8.93793e-05 
0.00485872 0.00555832 -0.000386862 -0.00103426 -0.00822573 0.00533646 9.54414e-05 0.0185944 0.0314848 
0.0553907 0.0737718 0.075998 0.0786573 0.0803624 0.0808841 0.0808111 0.0798843 0.0784096 
0.0765192 0.0743251 0.0712241 0.0675096 0.0634564 -0.00687768 -0.00430982 -0.0168072 0.0677667 
-0.0130333 -0.00120206 0.0117018 0.00180468 -0.0120387 0.0234532 -0.00728965 -0.0107107 0.00838212 
-0.0138617 -0.00793367 -0.00655978 -0.0166292 -0.000498945 0.0146229 -0.00284102 -0.00072066 -0.000166416 
-0.0142082 0.0197184 -0.0110233 -0.0176272 0.0591547 -0.0162362 -8.72742e-05 -0.00259393 -0.00390545 
-0.00480504 -0.00523461 -0.00507819 -0.00375369 -0.00291884 -0.00191452 0.0193164 -0.00258434 0.00429285 
0.00651866 0.0013809 0.000542995 -0.000160083 -0.000676938 -0.0010461 -0.00136533 -0.00166657 -0.00190824 
-0.00205214 -0.00214028 -0.00207335 -0.00186822 -0.00144222 -0.00087812 -0.000175647 0.000441016 0.000949435 
0.00125112 0.00126363 0.00105656 0.000726662 0.000357442 -0.00998345 0.00597475 -0.00862805 0.0474068 
0.0328003 0.0657416 0.0617793 0.0586553 0.0667616 0.0658827 0.0654953 0.0639507 0.0615412 
0.0588837 0.0558806 0.0518191 0.046341 -0.00150141 -0.000603972 -0.00575629 0.00448908 0.00912735 
0.00257837 -0.0037964 -0.0103023 -0.0112584 -0.00886816 0.0410102 0.0126041 -0.00647092 0.0147775 
-0.0094118 0.00545907 -0.0113307 -4.42593e-05 -0.000778246 0.000144837 -0.0085958 0.000118213 0.000134087 
-0.00610293 0.0259627 -0.00822475 0.0112794 0.0575413 -0.0120218 0.0277212 0.0162638 -0.00834274 
-0.00145431 -0.00465261 0.0119252 -0.00214889 0.00900857 -0.0049774 0.000670026 0.00194906 -0.00108713 
-0.00164291 -0.00215291 -0.00258969 -0.00295052 -0.00317686 -0.00314735 -0.00295759 -0.00250691 -0.00179429 
-0.000736284 0.000303921 0.00125606 0.00185955 0.00205663 0.00179749 0.00130852 0.000743098 0.00563923 
-0.000389182 0.0512016 0.0427981 0.0510808 -0.0112625 0.0541933 0.0417474 -0.00124917 0.0506082 
0.0497421 0.0475352 0.0450484 0.0421777 0.0376405 0.0328436 8.23619e-05 0.0131252 -0.00347763 
-0.00454172 -0.00640073 -0.00847961 -0.00832228 0.0120407 0.0018565 -0.00770133 0.00573945 -0.00541788 
-0.00678174 0.00351033 0.0150595 0.0014236 0.0188957 -0.0085208 -0.00881505 -0.00203115 -0.0102476 
0.00177297 0.0010423 0.0265755 0.00715293 0.00124227 -0.00855877 -0.0084276 0.00699018 0.00336844 
-0.00507198 0.00890501 -0.00235642 -0.00159297 -0.00370377 -0.00414407 -0.00435036 -0.00429906 -0.00393652 
-0.00305982 -0.00180265 -0.000137481 0.00143304 0.00267137 0.00318377 0.002823 0.00198515 0.037188 
0.0392771 0.038469 -0.00850022 0.00357169 -0.00120938 0.00463596 0.034439 0.0320361 0.0301613 
0.0272709 0.0234891 -0.00509143 -0.00707298 0.0162499 0.00498968 -0.00307471 0.00247039 -0.00874983 
0.00759875 0.0108084 -0.00370328 0.00475533 -0.00083885 0.0137914 0.00394604 -0.00752668 -0.00614926 
-0.00679968 0.0019014 -0.00766648 0.0250227 0.00052325 -0.00214217 0.00206974 -0.005626 -0.00501045 
-0.0058529 -0.00348866 0.00116648 0.00395041 0.00484721 0.00422596 0.0028936 0.00677764 0.0206279 
0.0183153 -0.00154207 -0.00416351 0.0192351 -0.00552978 -0.00184518 0.00622455 0.0243881 -0.00818404 
0.00595814 -0.00570953 -0.0046357 -0.000961634 0.0107109 -0.00611747 -0.00811037 0.00224433 0.00234433 
-0.00313533 -0.00532022 0.010376 -0.00695191 -0.00539165 -0.000221383 -0.00117462 -0.00438687 0.00113544 
-0.0033422 -0.00279868 0.0115039 -0.00133345 0.00545734 -0.00685225 -0.0326664 0.0042587 0.56014 
0.561366 0.347343 0.257208 0.195715 0.270987 0.264284 0.262028 0.260722 0.181262 
0.258412 0.25883 0.257524 0.262451 0.253772 0.256449 0.256012 0.258118 0.181267 
0.2634 0.266961 0.271189 0.201938 0.236641 0.366497 0.366961 0.221391 0.248979 
0.256438 0.269452 0.267341 0.26212 0.242078 0.206069 0.240121 0.259475 0.25898 
0.258554 0.242323 0.242845 0.259827 0.260931 0.261257 0.23946 0.206302 0.243603 
0.263198 0.26524 0.250175 0.219407 0.234296 0.320754 2.60676e-05 6.80782e-05 -1.23629e-05 
-0.000241413 -0.000624532 -0.0011478 -0.00185161 -0.00277727 -0.00385471 -0.00508662 -0.00644908 -0.00800447 
-0.00955927 -0.0109507 -0.0121667 -0.0130004 -0.0133637 -0.0131529 -0.0124109 -0.0110098 -0.00923667 
-0.00726746 -0.00519548 -0.00327141 -0.00164751 -0.000400492 0.00011796 8.04184e-05 0.0798649 -0.0130411 
-0.00474739 -0.00205126 -0.000831392 -0.000512789 -0.000247807 -0.000262431 -0.00019539 -0.000119649 -8.33121e-05 
-3.71478e-05 -6.5518e-06 -8.71325e-06 -6.79432e-07 -6.29096e-06 1.02819e-05 3.35793e-05 3.38518e-05 3.41067e-05 
2.18224e-05 4.38314e-05 4.85181e-05 5.50263e-05 5.79507e-05 3.879e-05 3.65907e-05 3.70064e-05 4.3525e-05 
2.40003e-05 7.97763e-06 -4.48878e-08 -1.12917e-05 -2.13828e-05 -2.15735e-05 -1.71562e-05 -2.72596e-05 -2.84922e-05 
-1.98246e-05 -7.75494e-06 -3.60013e-06 3.72178e-06 1.19757e-05 1.07013e-05 8.15011e-06 -1.35327e-05 -2.25251e-05 
6.34872e-05 0.000100664 4.49883e-05 -8.95352e-05 -0.000235137 -0.000171137 0.000217919 0.000873454 0.000692614 
6.0063e-05 -0.000285579 -0.00117912 -0.00126372 0.00034422 0.000771638 0.000497194 0.000214868 -0.000103125 
-0.000492695 -0.00111721 -0.00370676 -0.00356607 -0.00311675 0.144195 -0.0503618 -0.0218453 0.0399608 
0.0693519 0.0939651 0.137579 0.157482 0.150888 0.187286 0.137341 0.145942 0.135987 
0.0900706 0.0611544 0.23349 0.163505 0.118828 0.116515 0.106436 0.112999 0.102088 
0.0466313 0.050169 0.0979109 0.0938592 0.0914892 2.95248e-05 7.81946e-05 -2.72773e-05 -0.000391577 
-0.00100315 -0.00188671 -0.00310868 -0.00459387 -0.00622001 -0.00800854 -0.00992145 -0.0116787 -0.0129475 
-0.0133921 -0.0129705 -0.0116771 -0.00963917 -0.00719869 -0.00457441 -0.00226322 -0.00066344 0.000161117 
0.000103322 0.141407 -0.0109031 -0.00486281 -0.00135866 -0.000693826 -0.000404015 -0.000219605 -0.000139763 
-6.84133e-05 -7.64679e-05 -3.77613e-05 2.95461e-06 1.74676e-05 2.21351e-05 2.66616e-05 4.47423e-05 5.46967e-05 
5.39225e-05 5.74577e-05 6.03938e-05 6.07169e-05 7.81877e-05 5.1071e-05 3.47724e-05 1.971e-05 -3.17498e-06 
-1.81854e-05 -3.03417e-05 -4.00551e-05 -3.573e-05 -2.49092e-05 -1.68151e-05 -2.62557e-06 1.16589e-05 2.40136e-05 
2.20568e-05 -1.10943e-05 -5.95305e-05 4.72575e-05 4.92907e-05 6.79717e-05 6.04664e-06 -0.000131382 -0.000386735 
-0.000220719 0.000580262 0.00105539 0.000979467 6.82478e-05 -0.00058843 -0.00217097 -5.18986e-05 0.000935595 
0.000695985 0.000342581 5.08643e-05 -0.000285119 -0.000652869 -0.00119698 -0.00253339 -0.005962 -0.019777 
0.0580236 -0.135791 0.0177773 0.0513027 0.0520761 0.115261 0.119784 0.140559 0.143747 
0.160323 0.111101 0.135169 0.161392 0.151075 0.0350637 0.121187 0.124471 0.108102 
0.10817 0.12536 0.123957 0.0855154 0.0517937 0.115294 0.124151 0.0972383 0.0409572 
1.68263e-05 2.84356e-06 0.041266 -0.00942814 0.0327338 -0.112673 0.35685 0.355058 0.24394 
0.255458 0.245314 0.2188 0.215925 0.216372 0.217849 0.207085 0.20884 0.207712 
0.203978 0.206718 0.205115 0.199414 0.198275 0.200832 0.206035 0.202661 0.203079 
0.203738 0.200282 0.206021 0.203285 0.199822 0.203864 0.204332 0.202721 0.205422 
0.202443 0.208797 0.202714 0.200969 0.201415 0.204902 0.209793 0.206153 0.208499 
0.212056 0.208098 0.205265 0.21494 0.237695 0.243873 0.202156 0.199547 0.201608 
0.22764 1.13433e-05 -1.05652e-05 -3.19063e-05 -8.96909e-05 -0.000176585 -0.000114305 -0.000305119 -0.00046807 
-0.000302954 -0.000640067 -0.000869858 -0.000602582 -0.00110921 -0.00140065 -0.00100435 -0.00170568 -0.00209835 
-0.00153609 -0.00248252 -0.00299815 -0.00221309 -0.00343367 -0.00401513 -0.00301685 -0.00452658 -0.00515722 
-0.00395205 -0.0056928 -0.00637804 -0.00500495 -0.00695827 -0.0077647 -0.00613583 -0.00831303 -0.00898235 
-0.00728982 -0.00951266 -0.0101603 -0.00839208 -0.0106235 -0.011139 -0.00939397 -0.0114378 -0.0116861 
-0.0101641 -0.011846 -0.0118973 -0.0106281 -0.0118018 -0.0115541 -0.0106759 -0.0112835 -0.0107733 
-0.0103557 -0.0102902 -0.00949122 -0.00958097 -0.00888145 -0.00801998 -0.00844918 -0.00724488 -0.00624266 
-0.00705472 -0.00549716 -0.00453428 -0.00551133 -0.00380803 -0.00293268 -0.00400742 -0.00230415 -0.0016185 
-0.00263805 -0.00112921 -0.000740634 -0.0015299 -0.000367149 -0.000174968 -0.000707409 1.40998e-06 -0.179086 
-0.00012507 0.0179657 -0.0148487 0.00786444 0.00581341 0.00303293 0.00693404 0.00242607 0.00156565 
0.00134269 0.00107678 0.000792046 0.00115812 0.000602504 0.000422922 0.000519613 0.000330998 0.000338149 
0.000525977 0.00026442 0.000292245 0.000143832 0.000151545 0.000197301 9.6287e-05 8.49512e-05 0.000121143 
4.12547e-05 4.20057e-05 4.67337e-05 1.57774e-05 1.62145e-05 4.66043e-05 2.44772e-05 -1.21146e-05 2.5591e-05 
-4.847e-06 -1.43959e-05 1.73729e-05 -1.97697e-05 -2.89086e-05 -5.21593e-06 -3.67083e-05 -3.3022e-05 -1.65463e-05 
-3.44778e-05 -2.86038e-05 -2.01532e-05 -3.34755e-05 -4.79754e-05 -2.78971e-05 -4.33755e-05 -4.94748e-05 -2.88444e-05 
-3.43206e-05 -5.15416e-05 -3.90384e-05 -4.70607e-05 -5.02528e-05 -4.10303e-05 -5.18638e-05 -5.09401e-05 -5.07475e-05 
-7.00693e-05 -6.30597e-05 -5.32919e-05 -5.80863e-05 -6.54557e-05 -5.8893e-05 -5.90694e-05 -7.32138e-05 -6.54182e-05 
-7.01953e-05 -7.18218e-05 -5.48708e-05 -7.68288e-05 -5.59963e-05 -5.94039e-05 -7.79752e-05 -5.56961e-05 -5.62769e-05 
-6.3446e-05 -4.69249e-05 -4.68541e-05 -5.08317e-05 -3.12412e-05 -2.7407e-05 -3.95025e-05 -1.54832e-05 -1.17908e-05 
-2.59638e-05 -3.77488e-06 -1.53053e-06 -8.401e-06 1.16417e-05 1.29562e-05 6.13401e-06 2.55085e-05 2.36413e-05 
1.86845e-05 3.18761e-05 3.00147e-05 2.70061e-05 2.96989e-05 2.74633e-05 3.23606e-05 3.07601e-05 3.47334e-05 
3.97089e-05 3.45144e-05 3.05814e-05 3.32494e-05 2.66984e-05 2.18626e-05 2.52626e-05 1.45976e-05 1.12827e-05 
2.09278e-05 4.32473e-06 3.05232e-06 9.93208e-06 -3.61205e-06 -6.9086e-06 -3.67262e-06 -1.35516e-05 -1.7004e-05 
-1.40376e-05 -1.98369e-05 -2.57249e-05 -2.4285e-05 -1.62327e-05 -1.97079e-05 -3.09177e-05 -0.000145229 -8.95254e-05 
-9.67399e-05 -3.01036e-06 -0.000115791 1.62089e-05 0.000130649 5.20137e-05 0.000301208 0.000371777 0.000474178 
0.000518819 0.0002108 0.000758864 -1.78683e-05 -0.000488565 0.000247468 -0.000763868 -0.00104082 -0.000884967 
-0.000896306 -0.000761732 -0.00155329 -0.000469782 -0.00016857 -0.00102809 8.03013e-05 0.000386921 -0.000565503 
0.00165943 0.00215354 0.00111495 0.0020621 0.00117793 0.00218143 0.000337142 -0.000830973 0.00146172 
-0.00083691 -0.000829951 -0.00097147 -0.000754098 -0.000436241 -0.0012602 -0.000414309 -6.25994e-05 -0.000719207 
-6.89265e-05 0.000329662 -0.000158475 0.000276963 0.000829258 0.000376331 0.000783699 0.00171783 0.00115585 
0.00214029 0.00376295 0.00348411 0.00330107 0.00506913 0.00535201 0.0065714 0.0152413 0.00309553 
0.0348649 0.100608 0.090947 0.136179 0.117784 0.0905365 0.112601 0.115733 0.0890221 
0.120209 0.115976 0.104209 0.117583 0.116204 0.103396 0.11447 0.116447 0.105229 
0.117307 0.112793 0.104071 0.121658 0.12007 0.0947251 0.107139 0.115473 0.0971203 
0.117525 0.116005 0.105606 0.115505 0.116471 0.107324 0.11561 0.117546 0.107304 
0.113954 0.108323 0.10816 0.108788 0.115384 0.100709 0.117676 0.116179 0.107506 
0.114197 0.115542 0.109036 0.114007 0.117794 0.107255 0.113854 0.110647 0.105618 
0.119945 0.118951 0.0952153 0.105986 0.11661 0.0965067 0.117796 0.118408 0.105987 
0.117825 0.119692 0.103754 0.122809 0.119302 0.101924 0.127192 0.129437 0.0906438 
0.117557 0.118544 0.0746524 0.00907112 0.0315327 -0.0426673 -0.0668423 -0.0377753 -0.0474755 
-0.0467756 -0.027372 -0.0342053 -0.040257 -0.0212257 -0.0269643 -0.0285761 -0.0168601 -0.0194356 
-0.0198432 -0.0118783 -0.0143891 -0.01314 -0.0109678 -0.0108374 -0.00895099 -0.00394491 -0.00714296 
-0.00563829 -0.00810428 -0.00816616 -0.00281524 0.000278127 0.00478039 0.00117308 0.0206045 0.000420697 
0.00789488 0.0159093 0.0115155 0.029477 0.0128136 0.0325607 0.0448109 0.0291691 -0.00535392 
0.0201647 0.013879 0.00337638 -0.00148814 0.00705104 -0.0110758 -0.0158163 -0.0246053 -0.0273897 
-0.012799 -0.0305523 -0.0336277 -0.0223949 -0.0425581 -0.0497068 -0.0496931 -0.055248 -0.042849 
-0.0506819 -0.0527551 -0.0470326 -0.0523519 -0.0562589 -0.0448523 -0.0399688 -0.0332887 -2.23865e-05 
0.0883049 -0.000126356 -8.33824e-05 0.00707596 0.0601978 -0.0165481 -0.0197311 0.0269993 0.00572275 
0.0164125 0.00607799 0.0157446 0.0349044 0.0504641 0.0158293 0.0332921 -0.0126874 -0.0221693 
-0.00780753 -0.0296297 0.0101475 -0.00172618 -0.0375448 -0.000185083 0.0557937 0.010652 0.0412836 
-0.000294838 -0.000424912 -0.000558294 -0.000737655 -0.00048682 -0.000886444 -0.00113816 -0.000773505 -0.00132906 
-0.00164268 -0.00113026 -0.00189648 -0.00227802 -0.00159717 -0.0025985 -0.00301579 -0.00217239 -0.00340723 
-0.00390057 -0.00286958 -0.00429231 -0.00483274 -0.00364802 -0.00526981 -0.00583365 -0.00449548 -0.00629382 
-0.00683739 -0.00541358 -0.00727528 -0.00777473 -0.00633519 -0.0081504 -0.00857333 -0.00715759 -0.00891854 
-0.00919046 -0.00787334 -0.00937471 -0.00952957 -0.00840717 -0.0095688 -0.00950823 -0.0086825 -0.00936387 
-0.00914358 -0.00861634 -0.00875857 -0.00831645 -0.00815978 -0.00788082 -0.00728044 -0.00738029 -0.00680104 
-0.00607127 -0.00644011 -0.00546151 -0.00473566 -0.00532103 -0.00417293 -0.0034821 -0.00413212 -0.0029605 
-0.00237119 -0.00304115 -0.00190885 -0.00148121 -0.0020953 -0.000578066 -0.000349476 -6.03316e-05 0.0157288 
0.0105811 0.00826371 0.00560729 0.013993 0.00464089 0.00361159 0.00791214 0.00291055 0.00230283 
0.00469254 0.00186654 0.00162433 0.00288369 0.00129797 0.00111134 0.0019138 0.000851219 0.000762498 
0.00129511 0.000546865 0.000474462 0.00084258 0.000317533 0.000285147 0.000567027 0.000178576 0.000180172 
0.000336482 6.02183e-05 8.3283e-05 0.000138804 -7.95262e-07 1.02751e-05 1.42991e-05 -6.72227e-05 -6.34118e-05 
-5.75933e-05 -0.000114223 -9.13156e-05 -0.000117516 -0.000135706 -0.000126994 -0.000192848 -0.00018394 -0.000164936 
-0.000229046 -0.000209864 -0.000198289 -0.000273255 -0.000231934 -0.000228677 -0.000308511 -0.000258459 -0.000248351 
-0.000336223 -0.000280964 -0.000270064 -0.000383425 -0.000297611 -0.00029555 -0.000409463 -0.000316913 -0.00031795 
-0.000437326 -0.000326178 -0.000313841 -0.000449645 -0.000310601 -0.000298735 -0.000438618 -0.000289857 -0.000275577 
-0.00041328 -0.000254285 -0.000232042 -0.000371674 -0.000202055 -0.000165896 -0.000299765 -0.000127454 -9.33246e-05 
-0.000215875 -5.66212e-05 -2.64894e-05 -0.000113869 1.03242e-05 4.13396e-05 -4.54106e-06 7.39913e-05 9.66169e-05 
8.15132e-05 0.000124126 0.000133587 0.000147962 0.000155321 0.000159734 0.000200909 0.000169352 0.00017088 
0.000237025 0.000171923 0.00015946 0.000242113 0.000151321 0.00012945 0.000215823 0.000111859 8.20584e-05 
0.000170197 5.79094e-05 3.44625e-05 0.000106177 1.3049e-05 -1.52875e-05 2.89836e-05 -3.57996e-05 -6.26635e-05 
-3.38738e-05 -7.63027e-05 -9.51039e-05 -9.72665e-05 -0.000107641 -9.67452e-05 -0.000148895 0.0400965 0.0594436 
0.0613512 0.023365 0.0186426 0.0273623 -0.000135345 0.000364946 0.000655702 0.00139732 0.000882234 
0.00186639 0.00172215 0.000989559 -0.000955087 0.00186257 -0.00254945 -0.00455711 -0.00239327 -0.00469395 
-0.00428708 -0.00653022 -0.00315046 -0.00108438 0.00188852 0.0068866 0.00254797 -0.00226119 -0.00297304 
-0.00391526 -0.00375252 -0.00279123 -0.00532857 -0.00240629 -0.00116935 -0.000709347 0.000555132 -0.00148087 
0.00112187 0.0025963 0.00120177 0.00354962 0.00563279 0.00463096 0.00762771 0.0111272 0.0101404 
0.0173823 0.0167129 0.0276111 0.0209506 0.0244778 -0.00112249 0.00933155 0.00218142 -0.0159955 
0.0754303 0.0822894 0.0618046 0.0927153 0.0917894 0.0774833 0.0952348 0.0951987 0.085586 
0.0965431 0.0967436 0.0894455 0.0984482 0.1008 0.0925575 0.098628 0.0968219 0.0957548 
0.0967835 0.100433 0.0975161 0.103382 0.101539 0.0974956 0.101613 0.101603 0.0973313 
0.101902 0.10208 0.097675 0.102559 0.100786 0.0982136 0.0998275 0.102544 0.0991575 
0.101926 0.101762 0.0996604 0.101719 0.101652 0.0990641 0.101027 0.101251 0.0975382 
0.100215 0.102369 0.0963113 0.0983733 0.0954253 0.0963047 0.0933517 0.0964339 0.0947965 
0.0969716 0.0956893 0.0922067 0.0939002 0.0926814 0.0878077 0.0918432 0.0926084 0.0840867 
0.0851382 0.0811754 0.0702315 0.0768871 -0.00412045 0.00921211 -0.0332926 -0.0283575 -0.00122193 
-0.0188418 -0.0240823 -0.0137017 -0.0181535 -0.0192777 -0.00992935 -0.013165 -0.0138657 -0.00588363 
-0.00984854 -0.0089334 -0.00234884 -0.00538347 -0.00521856 -0.00133292 0.00136663 -0.00163826 0.00523716 
0.000995247 0.00173039 0.0633249 0.000586728 -0.00493503 -0.0360804 -0.0323416 -0.0156701 -0.0214511 
0.00983343 0.00608902 -0.0321986 -0.0372418 -0.0262747 -0.000538163 -0.000546866 -0.0261706 -0.0278604 
-0.0188462 0.0016805 -0.0129689 0.0183725 -0.00930742 -0.0325622 -0.0350975 -0.0244923 -0.0248197 
-0.031808 -0.0291839 -0.024486 -0.00182045 -0.000271889 -0.00504072 0.00783478 0.00237233 -0.00309489 
-0.00761687 -0.0130309 -0.0132508 -0.0308043 -0.0324072 -0.023529 -0.0331603 -0.0244555 -0.0208178 
-0.000120849 -0.000191254 -0.000257843 -0.000308342 -0.000852943 -0.00103828 -0.00068902 -0.000354374 0.00797598 
0.00237689 -0.000831454 -0.00739546 -0.00865432 -0.00862115 -0.00878638 0.0113794 0.00258212 -0.00530911 
0.000152825 0.00176328 -0.0029518 0.0106819 -0.00387142 0.0562227 0.00903908 0.0231719 -0.00343769 
0.0173875 0.00984978 0.00440305 -0.016361 -0.0208055 -0.0114071 -0.000773289 0.0213155 0.0319514 
0.034206 0.00912771 -0.0264616 -0.000619822 -0.000794917 -0.000900594 -0.00112586 -0.000711007 -0.00125783 
-0.00154635 -0.000985574 -0.00171642 -0.00204471 -0.00131902 -0.00226939 -0.00265308 -0.00173035 -0.00296738 
-0.00336003 -0.00227866 -0.00371331 -0.00413609 -0.00295075 -0.00452141 -0.00495031 -0.00367979 -0.00536984 
-0.005773 -0.00445832 -0.00612115 -0.00643248 -0.00520691 -0.00675977 -0.0070312 -0.00581476 -0.00737434 
-0.00750411 -0.00642039 -0.00771711 -0.00778121 -0.00692361 -0.00777855 -0.00766924 -0.00713002 -0.00744008 
-0.0071217 -0.00692576 -0.00678539 -0.00638266 -0.00635258 -0.00596824 -0.00553794 -0.00561608 -0.00504213 
-0.00450886 -0.00476011 -0.00401218 -0.00349421 -0.00382774 -0.00309959 -0.00260207 -0.00297886 0.00037617 
0.00141047 -0.000266688 -0.000358012 -0.000228777 0.0156128 0.0118874 0.00963536 0.0077487 0.0146035 
0.00674896 0.00545124 0.00962046 0.00455076 0.00367784 0.0066992 0.00308702 0.00258258 0.00451026 
0.00210705 0.00177233 0.0030806 0.00142466 0.00116574 0.00214987 0.000896341 0.000734676 0.00139688 
0.000512802 0.000415609 0.000812271 0.000250171 0.000178197 0.000414305 3.88967e-05 -1.63912e-05 0.000142053 
-0.000130777 -0.000166841 -8.54573e-05 -0.000253122 -0.000258793 -0.000257807 -0.000349342 -0.000363943 -0.00042041 
-0.000435559 -0.000456136 -0.000539798 -0.000526024 -0.000537572 -0.000641599 -0.000598938 -0.000608732 -0.000744332 
-0.000654264 -0.000662913 -0.000826676 -0.000702634 -0.000714929 -0.00090596 -0.000750529 -0.000764758 -0.00096903 
-0.000781105 -0.000779386 -0.00100903 -0.000790765 -0.000762345 -0.00102253 -0.000746345 -0.000715152 -0.000995573 
-0.000679723 -0.000623318 -0.000909393 -0.00056464 -0.000487883 -0.000773403 -0.000415339 -0.000320835 -0.000596705 
-0.000231141 -0.000144673 -0.000370431 -5.9023e-05 2.83545e-05 -0.000128413 0.000111821 0.000186215 9.45379e-05 
0.000254386 0.000310965 0.000295698 0.000362046 0.000394533 0.000439275 0.00042412 0.000435289 0.000538109 
0.000442548 0.000428216 0.000576477 0.00041327 0.000369985 0.000548005 0.000329413 0.000270924 0.000458236 
0.000220863 0.000151298 0.000329398 8.98109e-05 2.36426e-05 0.000164311 -3.07794e-05 -9.1588e-05 -4.81031e-06 
-0.000122119 -0.000174464 -0.000268122 -0.000136351 -0.000845704 -0.000146192 -0.00202529 -0.00746815 0.00243629 
0.00364478 0.00255576 -0.00617758 -0.00815836 0.0208233 0.0337945 0.059595 0.0439238 0.0335224 
0.00137414 0.00398152 0.00597519 0.00935711 0.0067472 0.0125759 0.0174612 0.0145338 0.022426 
0.0298253 0.0252606 -0.00527437 -0.00762667 -0.00418082 -0.00531207 -0.0230754 -0.0159063 -0.00101754 
0.0108105 0.0584999 0.0667525 0.0740805 0.0773909 0.0606229 0.0784963 0.0791034 0.0684365 
0.0823208 0.0838527 0.0721795 0.0867443 0.0878555 0.0778638 0.0883041 0.0882712 0.0815894 
0.0890847 0.0889725 0.0821202 0.0898458 0.0894063 0.0821574 0.0904235 0.0903555 0.0830429 
0.0908511 0.0909796 0.0839559 0.0912773 0.0905317 0.0844419 0.090514 0.0910861 0.0846547 
0.0903109 0.0901358 0.0840671 0.0901483 0.089076 0.083003 0.0885083 0.0880574 0.0815109 
0.0872771 0.0865152 0.0798834 0.0842749 0.0831891 0.0775913 0.0811081 0.0787189 0.0736416 
0.0760213 0.073853 0.0680772 0.0716918 0.0692726 0.0617856 0.0645993 -0.00579422 -0.00371104 
0.027009 0.0199341 0.0241303 0.0386563 -0.00582146 0.00216475 -0.00695584 -0.000493801 -0.0116016 
-0.0143525 -0.0156567 -0.0182287 -0.0133832 0.0478602 -0.00255313 -0.00436991 -0.00770107 -0.00789853 
-0.00664492 -0.00776448 -0.00960603 -0.0213226 -0.0217785 0.00388254 0.00169597 -0.000637356 -0.00970697 
-0.0121794 -0.00967978 -0.0227624 -0.0207548 -0.0176691 -0.00268394 -0.0057383 -0.00719039 -0.00298051 
-0.00329721 -0.0028226 -0.00364142 -0.00722304 -0.0188183 -0.0198472 -0.0169824 -0.0207713 -0.0166444 
-0.0158324 -0.00245719 -0.000219705 0.000972171 -0.0144085 -0.0165885 -0.015084 0.0429473 -0.00212343 
-0.0017028 -0.00213142 0.000189592 -0.0123656 -0.0160754 -0.0147543 -0.0127039 -0.0111738 -0.0100471 
-0.00129949 -0.00119116 -0.00802979 -0.00501309 -0.00126749 -0.00315695 0.00364886 0.00515727 -0.0107568 
-0.0038275 0.0045772 0.00722877 0.00828292 -0.0072124 -0.000465805 0.00745593 0.0123595 0.0544958 
-0.0121113 -0.0145374 -0.0137698 -0.00608189 -0.00352868 -0.00217406 0.0211069 0.0132462 0.0220554 
0.0402234 -0.0012591 -0.00184289 0.0039443 -0.00643782 0.0188469 0.0212074 0.0144442 -0.00579027 
-0.0116709 -0.00771757 -0.00956204 -0.0103714 -0.000723091 0.000111933 -0.000657197 -0.000828044 -0.000860363 
-0.00106709 -0.000527823 -0.00114338 -0.00138844 -0.00066043 -0.00154845 -0.00186308 -0.000891227 -0.00212603 
-0.00245161 -0.00128999 -0.00283493 -0.00315899 -0.00189022 -0.00353096 -0.00388029 -0.00259488 -0.00431258 
-0.00457494 -0.00333592 -0.00474398 -0.00496688 -0.00384512 -0.00545538 -0.00570256 -0.00442209 -0.00611977 
-0.00627172 -0.00532444 -0.0064359 -0.00644149 -0.00587207 -0.00636873 -0.00617385 -0.00596779 -0.00585111 
-0.00558059 -0.00559781 -0.00513204 -0.00483657 -0.00488958 -0.00435603 -0.003984 -0.00405557 -0.00360534 
-0.00319699 -0.00329361 -0.00259641 -0.00223262 -0.0024087 0.00122379 0.00240045 -0.00125985 -0.0140034 
-0.0124871 -0.0120556 0.00726206 0.0115251 0.0151615 0.0127977 0.0110515 0.00908859 0.0147964 
0.00771244 0.00642545 0.0107729 0.00537476 0.0045356 0.0075789 0.00381064 0.00315445 0.00535119 
0.00259153 0.00208966 0.00369345 0.0016512 0.0013138 0.00242264 0.00097418 0.000757335 0.00146316 
0.000486162 0.000313779 0.000799666 9.33403e-05 -3.69563e-05 0.000299368 -0.000213057 -0.000301269 -0.000118538 
-0.000446989 -0.000524507 -0.000470684 -0.000650273 -0.000712366 -0.000733218 -0.000835409 -0.000891699 -0.00096002 
-0.000991791 -0.00104122 -0.00115421 -0.00112963 -0.00116029 -0.00133426 -0.00123037 -0.00126741 -0.00149842 
-0.00133097 -0.00136225 -0.00162468 -0.00141212 -0.00142094 -0.00172517 -0.00144948 -0.0014408 -0.00177921 
-0.0014283 -0.00137709 -0.00177736 -0.00132774 -0.00124895 -0.00168592 -0.00116487 -0.00104121 -0.00149989 
-0.000920234 -0.000753223 -0.00122329 -0.000599204 -0.000422071 -0.00086107 -0.000251727 -8.71548e-05 -0.000429261 
7.40757e-05 0.000234435 -1.92672e-08 0.000378206 0.000511766 0.000390583 0.000608416 0.00069469 0.000692973 
0.000771248 0.000812464 0.000904664 0.000854525 0.000855304 0.00104705 0.000838709 0.000779002 0.00105937 
0.000703325 0.000606063 0.000927427 0.000513053 0.000390653 0.000704058 0.000272278 0.000148196 0.000423438 
2.59355e-05 -8.7558e-05 0.000106861 0.00401331 0.00184977 0.00706161 -0.00499119 0.000212617 -0.0135866 
-0.0137436 -0.00705745 -0.00747242 -0.0117731 -0.012584 -0.0111923 0.0399653 0.0378909 0.0155054 
0.02117 0.0164457 0.0264573 0.0334325 0.0280777 0.00159953 0.00679419 -0.000619088 0.000622076 
0.00402866 0.00727866 0.0599973 0.0626905 0.0686758 0.0717482 0.0576443 0.0739994 0.0745618 
0.0656576 0.0735542 0.0736161 0.0666101 0.0742798 0.0744795 0.0663766 0.0755803 0.0761462 
0.0681826 0.0768986 0.0771806 0.0699872 0.0772481 0.0773803 0.0706361 0.077344 0.0772545 
0.0706165 0.0771925 0.0767896 0.0704814 0.0761215 0.075501 0.069857 0.0741048 0.073335 
0.0678843 0.0719732 0.0711567 0.0653466 0.069489 0.0678227 0.0625049 0.0653837 0.0632363 
0.058686 0.0597497 0.0566507 0.0533437 0.0512876 0.0486209 0.0451428 -0.0238278 -0.0232908 
-0.0172875 -0.0206688 -0.00693855 -0.00786288 -0.00862051 -0.00965263 -0.0108727 -0.0103719 -0.0172307 
-0.000491889 -0.000623793 -0.000443466 0.0496969 -0.00775444 -0.00902585 -0.00951319 -0.0144867 -0.0139089 
-0.0115772 -0.000320611 -0.000461332 -0.000346385 -0.000243752 -0.00467641 -0.00182108 -0.0142812 -0.0125817 
-0.0111595 -0.00672514 -0.00761632 -0.00895314 -0.0088128 -0.00319569 -0.00561954 -0.00486837 0.0209715 
0.0168561 0.0196379 0.00310745 0.00430887 0.000223981 0.00596226 0.03585 0.0436506 -0.0097109 
-0.00943843 -0.00470927 -0.000181106 -0.0124643 -0.0129532 -0.0110604 -4.91471e-05 -0.00236812 -0.00539663 
-0.00638236 0.00256331 -0.00275964 -0.00334695 0.0412132 0.0501751 0.00452018 0.00753676 -0.00938168 
-0.00677834 -0.00607335 -0.010586 -0.0119777 -0.0109047 -0.00984134 0.0580188 0.058275 0.0070137 
0.0171262 0.123728 0.147108 0.00354632 -0.00129883 -0.0133824 0.0429696 0.00491079 -0.000175679 
-0.00198245 -0.00127896 -0.00139051 -0.00247197 -0.00125887 -0.000349203 -9.10608e-05 -0.00021006 -0.000141866 
-0.000318414 0.000424138 -0.00041867 -0.000662121 0.000415983 -0.00102393 -0.00132574 1.08064e-06 -0.00181263 
-0.00211334 -0.000761261 -0.00223126 -0.00261555 -0.00139378 -0.00270181 0.129004 -0.00331133 -0.00370398 
-0.00192542 -0.00454755 -0.00491625 -0.00339626 -0.00528158 -0.00540245 -0.0047279 -0.00553772 -0.00547168 
-0.00515728 -0.00529277 -0.00496585 -0.00509105 -0.00358391 -0.00327307 -0.00279177 -0.0131378 -0.0125475 
-0.0111922 -0.00810292 -0.00845652 0.0211345 0.018086 0.0154034 0.0129962 0.0202059 0.0110621 
0.00935224 0.014641 0.00800739 0.00672689 0.0105275 0.00564976 0.00465918 0.00759977 0.00385543 
0.00310775 0.00526166 0.00247838 0.00198605 0.00350207 0.00150747 0.00114636 0.00217723 0.000755974 
0.000457575 0.00120572 0.000126788 -0.000109768 0.000413386 -0.000344322 -0.000523227 -0.000221885 -0.000737367 
-0.000870292 -0.000727032 -0.0010516 -0.00117425 -0.00112925 -0.00134596 -0.00145723 -0.00148202 -0.00159702 
-0.00169479 -0.00180993 -0.00180707 -0.00187809 -0.00207309 -0.00198295 -0.00204971 -0.00230412 -0.00213109 
-0.00217516 -0.00249141 -0.00225121 -0.00227492 -0.002641 -0.00228415 -0.00224381 -0.00271569 -0.00219564 
-0.00209773 -0.0026537 -0.0020018 -0.00184133 -0.00245237 -0.00167805 -0.00144935 -0.00210803 -0.00122715 
-0.000926701 -0.00159913 -0.000636275 -0.000345335 -0.000944649 -5.96464e-05 0.000205777 -0.000230426 0.000468183 
0.000702928 0.000438517 0.000904233 0.00105329 0.00098804 0.00113258 0.0012439 0.00133629 0.0013956 
0.00146128 0.00161014 0.00146853 0.00140075 0.00176514 0.00127649 0.00112873 0.001624 0.000967988 
0.000791934 0.00126168 0.000588031 0.000373837 0.000818482 0.000159394 -3.08545e-05 0.000309809 0.00137986 
0.00335127 0.0276249 0.0242032 0.0272899 -0.000218865 -0.0044716 -0.00357169 -0.00898027 -0.00911244 
0.00854431 0.011025 0.0142527 0.0170501 0.0230785 0.0284598 0.0356426 0.0294586 -0.0028328 
0.000489084 -0.00342928 -0.000295511 0.00325442 -0.000174518 -0.000216557 0.0591465 0.0581959 0.0583731 
0.0587352 0.05116 0.0597513 0.0608523 0.0522803 0.0630551 0.0637599 0.0554162 0.0632951 
0.0632362 0.0570406 0.0628045 0.0626881 0.0562166 0.0622673 0.0622186 0.0552569 0.0633294 
0.0627421 0.0559121 0.0606471 0.0592976 0.0550124 0.0579704 0.0567781 0.0518221 0.0551126 
0.0535549 0.0490511 0.0516923 0.0494542 0.0457923 0.0467445 0.0435691 0.0413948 0.0402662 
0.0350021 -0.0110949 -0.00849834 -0.00876292 -0.00800272 -0.00817838 -0.000119154 -0.000190404 0.00025772 
-0.0093591 -0.00926986 -0.00786949 -0.00822675 -0.00876197 -0.00954071 -0.00899297 -0.00778644 0.00797017 
0.00211024 0.00723563 0.0120652 0.0173102 0.00703265 0.0282382 0.0308924 0.000482614 -0.00235297 
-0.00450684 -0.00423944 -0.00333621 -0.00225043 -0.00832921 -0.00848281 -0.00801876 0.0423808 0.0514287 
0.00217842 0.00419881 -0.00178606 -0.000515913 -0.00883769 -0.00835741 -0.00853091 -0.0102953 -0.0102544 
-0.00892173 -0.00110296 0.0433299 -0.0060425 -0.00317757 -0.000615692 -0.00559533 -0.00734577 -0.00774496 
-0.00913821 -0.00848581 -0.00753784 9.16767e-05 0.0355472 0.0571084 0.0767801 0.108441 0.0110716 
0.0132039 0.0114856 0.00567946 0.0135823 -0.00263047 -0.00442344 -0.00971134 -0.00945767 -0.00817046 
0.00132476 0.00121897 1.37022e-05 -0.000331417 -0.00412788 -0.00435218 -0.00506616 -0.00478097 -0.00284625 
-0.000514943 0.000807507 0.00532208 0.00700036 -0.00456578 -0.00422566 -0.0031519 -0.00434639 0.0197786 
0.0166889 0.0141651 0.0121483 0.0182161 0.0103903 0.00871486 0.0132138 0.0073512 0.00606454 
0.00954435 0.00498735 0.00405366 0.00659122 0.00330832 0.00263701 0.00440639 0.00200786 0.00148736 
0.00280599 0.000957472 0.000507047 0.00151417 7.02904e-05 -0.000259079 0.000421019 -0.000551441 -0.000821534 
-0.000412843 -0.00107906 -0.00129697 -0.00101493 -0.00156052 -0.00176512 -0.00161121 -0.00198162 -0.00215928 
-0.00214354 -0.00233587 -0.00247345 -0.00258608 -0.00260262 -0.0027248 -0.00292267 -0.00288782 -0.00298158 
-0.0032406 -0.0031385 -0.00321638 -0.00356966 -0.00325284 -0.00325732 -0.00376816 -0.00322255 -0.00313734 
-0.00376075 -0.00302966 -0.00286244 -0.0035877 -0.00268816 -0.00240467 -0.00322407 -0.00213774 -0.00172106 
-0.00266152 -0.00126556 -0.000796505 -0.0017646 -0.000292582 0.000126868 -0.000595788 0.000499382 0.000863833 
0.000452028 0.00128858 0.00155928 0.00136119 0.0017518 0.00181779 0.00204381 0.0020561 0.130787 
0.105433 0.00238583 0.00237997 0.00268949 0.00208753 0.00186908 0.00275105 0.00164678 0.00138208 
0.00207398 0.00105232 0.000750546 0.00142622 0.000398628 0.0307339 0.033338 0.0270012 0.0431808 
-0.00803812 -0.00593132 -0.000840621 0.00224776 -0.00411938 -0.0028511 0.00385722 0.00572825 0.0471089 
0.0494285 0.0490026 0.1252 0.117091 0.0498377 0.049245 0.0431783 0.0472763 0.0467622 
0.0418381 0.0475093 0.0486387 0.0405166 0.0466002 0.118348 0.0878501 0.0453905 0.0440276 
0.0401958 0.0428254 0.0412463 0.0376436 0.0399489 0.038075 0.0350444 0.0360619 -0.0026904 
-0.00492523 -0.00017538 -0.00317145 -0.00471383 -0.00627556 -0.00628243 -0.00627714 -0.00616833 -0.00520158 
0.000632679 0.000693502 0.000994626 0.000710912 0.00116163 0.00207182 -0.000819856 -0.0047703 0.103884 
0.074357 -0.00879207 -0.00657793 -0.00645753 -0.00555421 -0.00237342 -0.00698195 -0.00790202 0.00103294 
0.00104496 0.00128043 0.0230063 -0.00453125 -0.00828646 -0.00849732 -0.00776128 -0.00783674 -0.00771349 
-0.00671589 0.0450783 0.0401003 0.0441678 0.00230676 0.00307308 0.00602313 0.0107615 -0.00329988 
-0.000665878 0.0100187 0.00531285 0.00256159 -0.000275545 0.00565606 0.00453264 0.00609038 -0.00993487 
0.0299801 0.0372933 0.0316303 -0.00703145 -0.00688242 -0.00618456 0.00188564 -0.00518932 -0.00746198 
-0.00696505 -0.00764384 0.0236344 0.0300233 0.0249929 0.017079 -0.00037867 -0.0032194 0.0161941 
0.00853609 0.00175328 -0.00565763 -0.00621809 0.00593584 0.00715158 0.0234031 0.0198954 0.00312897 
0.0169164 0.0144668 0.0210931 0.0123308 0.0103363 0.0153109 0.00877831 0.00723553 0.0110598 
0.00604919 0.00496863 0.00777423 0.00400459 0.00315236 0.00528928 0.002289 0.00161273 0.00320485 
0.000887134 0.000306928 0.00144754 -0.000303523 -0.000667189 -4.57641e-05 -0.0010199 0.0945556 0.0551904 
-0.00145323 -0.00177145 -0.0011947 -0.00213673 -0.0024269 -0.00212534 -0.00273115 -0.00295686 -0.0028643 
-0.0032068 -0.00338126 -0.00347987 -0.00350757 -0.00370416 -0.0038897 -0.00401993 -0.00421409 -0.00436826 
-0.00436352 -0.00440955 -0.00491279 -0.00429851 -0.00426198 -0.00496176 -0.00426481 -0.00410889 -0.00484075 
-0.00384914 -0.00357625 -0.00454513 -0.00340467 -0.0029789 -0.00401813 -0.00229803 -0.0015258 -0.00297559 
-0.00058827 8.01396e-05 -0.00111172 0.000992187 0.00144268 0.0009812 0.00203154 0.0600966 0.0490687 
0.00273188 0.002855 0.00281699 0.00947807 0.00824346 0.00449539 0.00471478 0.00259949 0.00365477 
0.00417731 0.00240548 0.00167195 -0.00106555 0.00119678 0.00776329 0.00416962 0.00240796 -0.00496888 
-0.00610013 -0.00602196 0.0269909 -0.00819636 -0.00810919 -0.00777163 0.033581 0.00496379 0.0300897 
0.0287543 0.00405705 0.00786601 -0.00386742 0.0127397 0.0193565 -0.00693169 -0.00474106 -0.00446989 
-0.00457184 -0.0382844 0.00310617 0.00394455 0.00347505 0.00272678 -0.00686132 -0.00725109 -0.00818636 
0.00361716 0.0311712 0.0260127 0.0322522 0.0363791 0.0342946 0.0305205 0.0313009 0.112285 
0.0336876 0.032561 0.0273003 0.0111035 -0.00231905 -0.000155331 -0.00529312 -0.00496644 -0.0037866 
-0.00383725 0.0321187 -0.00475112 -0.0062467 -0.00578161 -0.00507284 -0.00434354 -0.00412293 -0.00303763 
0.0265293 0.022821 0.0251805 -0.00398357 0.0201689 0.0225325 0.00400275 0.0220771 0.000642724 
-0.000140174 -0.000885223 -0.00145873 -0.000469843 -0.00201128 -0.00243824 -0.00191783 -0.00435383 -0.00451373 
-0.00474018 -0.0048357 -0.00634312 -0.00610217 -0.00761168 -0.00757887 -0.00687221 -0.00550354 -0.00372416 
-0.0028167 -0.000829028 0.0260506 0.00830287 0.0127392 0.00190457 0.00456363 -0.00717816 -0.00682879 
-0.00608589 -0.00696693 0.0229145 0.0188635 0.0160203 0.0231774 0.0351226 0.0169684 0.0162068 
0.0112416 0.0135013 0.0114006 0.016568 0.0101714 0.00848406 0.0121023 0.00706857 0.00573754 
0.00899132 0.00438281 0.00332116 0.00592349 0.00248887 0.00155166 0.00143799 0.00341948 -0.00290432 
-0.00282815 -0.0032118 -0.00365962 -0.00398178 -0.00376573 -0.00361305 -0.00432006 -0.00530845 -0.00551211 
-0.00572907 -0.00556881 -0.00564122 -0.00525052 -0.00470971 -0.00537784 -0.00364739 0.00641186 0.0184029 
-0.00159007 -7.24197e-05 0.00110643 -0.00341942 -0.00284269 -0.00185164 -0.0024564 -0.00625772 -0.00493607 
-0.0055809 -0.00409449 -0.00322864 -0.00304475 -0.00455611 -0.000945353 -0.00172085 0.000914805 0.002269 
-0.00191871 -8.96574e-05 0.0194777 0.0157075 0.0138789 0.0115957 0.00964039 0.00691162 0.00535361 
0.00431295 0.00912139 -0.00347922 -0.00403052 -0.0065415 0.0144027 0.00300005 0.0016594 -0.00625058 
-0.00578022 -0.00529955 0.00456585 -0.00478113 0.00798115 1.09755e-05 -4.23174e-05 -2.54937e-05 -0.00024844 
-0.000135111 -0.000151818 -0.000675033 -0.000417801 -0.00040918 -0.0012996 -0.000929447 -0.000837553 -0.002198 
-0.00166101 -0.00143963 -0.00333648 -0.00266556 -0.00224851 -0.00468907 -0.00392511 -0.00329008 -0.00607591 
-0.00529351 -0.00447182 -0.00768706 -0.00677801 -0.00574557 -0.00919581 -0.00835542 -0.00710006 -0.0105207 
-0.00979435 -0.00836541 -0.0113549 -0.0109645 -0.00943149 -0.0115044 -0.0115042 -0.0100479 -0.0109559 
-0.0113469 -0.0100642 -0.00971638 -0.010535 -0.00946644 -0.00797407 -0.00900193 -0.00832219 -0.00589651 
-0.00710458 -0.00677903 -0.00383922 -0.00499371 -0.0050205 -0.00211476 -0.00303939 -0.00331566 -0.000897192 
-0.00147166 -0.00189017 -0.000200527 -0.000451713 -0.000833482 2.75569e-06 0.0417935 0.0164322 0.0279965 
0.00273956 0.00300676 0.0179981 0.00122092 0.00196611 0.00392042 0.000781977 0.000985489 0.0015598 
0.000370482 0.000497699 0.000498903 0.000236709 0.000278966 0.000378734 0.000159922 0.000167346 0.000232031 
0.000124406 9.83302e-05 0.000126163 7.38959e-05 4.7582e-05 9.1859e-05 2.82893e-05 7.00789e-06 8.75585e-06 
9.48514e-06 -9.67512e-06 -8.6318e-06 -3.64756e-06 -2.49811e-05 -2.53509e-05 -1.96427e-05 -3.61513e-05 -4.08813e-05 
-3.33036e-05 -5.00759e-05 -6.06544e-05 -4.51891e-05 -4.98301e-05 -6.20135e-05 -5.82209e-05 -6.4861e-05 -7.17066e-05 
-6.018e-05 -7.43241e-05 -7.88764e-05 -6.50787e-05 -6.73733e-05 -8.74747e-05 -6.97323e-05 -6.94938e-05 -8.96432e-05 
-7.39051e-05 -7.06995e-05 -9.22007e-05 -7.0516e-05 -7.57798e-05 -8.36889e-05 -5.27792e-05 -6.27062e-05 -8.47006e-05 
-3.88254e-05 -4.42163e-05 -7.03192e-05 -1.73883e-05 -2.65608e-05 -4.7091e-05 6.54159e-06 3.67025e-06 -9.79029e-06 
2.34193e-05 2.17907e-05 2.38976e-05 3.57981e-05 3.38004e-05 4.21308e-05 4.0419e-05 4.17973e-05 5.05064e-05 
3.74746e-05 4.65195e-05 5.77556e-05 2.76363e-05 3.43647e-05 5.29456e-05 1.53578e-05 2.30711e-05 3.26917e-05 
-9.39254e-07 6.43246e-06 1.22425e-05 -1.69398e-05 -8.96538e-06 -6.77401e-06 -2.81505e-05 -2.52164e-05 -3.4576e-05 
0.0797436 -8.68025e-05 -8.39439e-05 -6.44659e-05 -8.99784e-05 -0.000118688 -5.44911e-05 -0.00010256 -0.000152521 
5.91329e-05 -3.31241e-05 -3.42686e-05 0.000207479 0.000101487 9.0236e-05 4.85283e-05 0.000530182 -0.00102628 
-0.000489979 -0.000134907 -0.00150462 -0.00135662 -0.00175372 -0.00102074 -0.00130858 -0.00235318 -0.000183897 
-0.000420721 -0.00158134 0.000983653 -7.46181e-06 8.09425e-05 0.000248328 0.00183999 -0.000926505 -0.000401734 
0.00114778 -0.000803572 -0.00102368 -0.0017508 -0.000351235 -0.000676703 -0.00133235 5.18189e-05 -0.000300489 
-0.000672842 0.000444825 4.50043e-05 -0.000138449 0.00104651 0.000451233 0.000260102 0.00169222 0.000931271 
0.000757848 0.00426508 0.00252563 0.00194912 0.0086223 0.00398218 0.00565556 0.0137 0.0122958 
0.0171873 0.0361576 0.124396 0.127151 0.0982276 0.0959344 0.0887261 0.10845 0.117881 
0.0899164 0.10744 0.110418 0.102183 0.109562 0.108365 0.106793 0.115518 0.110834 
0.106833 0.106513 0.105421 0.102058 0.109324 0.116294 0.101759 0.108915 0.109028 
0.110694 0.109078 0.108212 0.110124 0.113125 0.108788 0.109994 0.107571 0.111562 
0.105989 0.108271 0.105438 0.112077 0.109013 0.10751 0.109453 0.116966 0.109114 
0.109168 0.106024 0.104701 0.100094 0.111788 0.116374 0.100944 0.113713 0.108816 
0.109832 0.121873 0.111957 0.108496 0.114615 0.111618 0.0948133 -0.0168152 -0.00602483 
-0.0964803 -0.0281153 -0.0488571 -0.029592 -0.0575399 -0.0361151 -0.0310225 -0.0427441 -0.0250029 
-0.0214053 -0.0299571 -0.020836 -0.0178726 -0.0199744 -0.016116 -0.0136388 -0.0139632 -0.0121069 
-0.00906495 -0.00849296 -0.00585298 -0.00354466 -0.0039118 -0.00250559 0.00124465 -0.00477652 -0.00185195 
-0.000645537 -0.00166481 0.0127765 0.022726 0.00616206 0.0102773 0.0116699 0.0339384 0.0270645 
0.0150575 0.0222057 0.0298184 -0.00145715 0.00947855 0.0149011 -0.00441791 8.95688e-05 0.00632128 
-0.0152257 -0.0118906 -0.0018086 -0.0252596 -0.0236623 -0.0112075 -0.0388326 -0.0422399 -0.0511585 
-0.0429488 -0.0370553 -0.048426 -0.0440171 -0.0559871 -0.0597671 -0.0401636 -0.0535379 -0.0579476 
-0.0387547 -0.0430265 -0.0539725 -2.31984e-05 -0.000107473 -3.66315e-05 0.00110826 0.000639894 0.000568954 
0.0054089 0.00264411 0.00225062 0.00267094 0.0344377 0.054842 -0.0319238 0.00945495 0.0632215 
-0.00829749 0.0767987 -0.0143791 -0.020544 -0.0123648 0.00637686 0.0171286 0.0107134 0.0381017 
0.0315977 0.0197463 0.0607997 0.0330518 -0.0232957 -0.0398949 -0.0343442 0.0123596 0.0048186 
-5.87004e-05 0.07127 -0.000561813 -0.000386962 -0.000258743 -0.000161753 -0.000138282 -0.000337524 -0.0015128 
-0.00114275 -0.00224873 -0.00178382 -0.00138912 -0.00316481 -0.00260604 -0.00200868 -0.00418894 -0.00362033 
-0.00279863 -0.00529804 -0.00466403 -0.00371411 -0.0064244 -0.00581713 -0.00470054 -0.00750426 -0.00696555 
-0.00574618 -0.00834922 -0.00797024 -0.00675763 -0.00876322 -0.00865799 -0.00750819 -0.00866769 -0.00880678 
-0.00783369 -0.00807941 -0.00844848 -0.00766873 -0.00696411 -0.00760363 -0.00701637 -0.00566305 -0.00640413 
-0.00599852 -0.00419194 -0.0050003 -0.00480334 -0.00278013 -0.0034975 -0.00346272 -0.00160159 -0.00217567 
-0.00219474 -0.000650152 -0.00113099 -0.00121166 -0.00622028 -0.00672746 0.00470135 0.00726205 0.00934325 
0.0143134 0.0127366 0.0227764 0.0430905 0.066074 0.0287313 0.00269938 0.00393009 0.00665834 
0.00162405 0.00211785 0.00358234 0.00111122 0.00135613 0.00216183 0.000781615 0.000881837 0.00144147 
0.000451813 0.000547892 0.000929075 0.000271133 0.000304716 0.000528353 8.79631e-05 0.000118463 0.000236209 
-3.06398e-05 -1.60447e-05 4.88667e-05 -9.9968e-05 -0.000102455 -0.000101092 -0.000153092 -0.000156036 -0.000209685 
-0.000218978 -0.000216762 -0.00028969 -0.000273638 -0.000271748 -0.000357891 -0.000304084 -0.000314261 -0.000413963 
-0.000334916 -0.000342937 -0.000464555 -0.00035992 -0.000364798 -0.000514723 -0.000371266 -0.000379227 -0.000543158 
-0.000363543 -0.000379015 -0.000542339 -0.000321415 -0.000346539 -0.000509431 -0.000240185 -0.000286433 -0.000440846 
-0.000122876 -0.000187062 -0.000310533 -1.28205e-05 -7.40606e-05 -0.00014915 9.32469e-05 4.07027e-05 1.90688e-05 
0.000169209 0.000139103 0.0001694 0.000212266 0.000204425 0.00026393 0.000213496 0.000217665 0.000310543 
0.000171817 0.000202269 0.000295148 0.000110817 0.000150588 0.000231687 3.63195e-05 8.42139e-05 0.000138883 
-4.15167e-05 5.12864e-07 2.9174e-05 -0.000116588 -7.5158e-05 -8.90575e-05 -0.000189687 -0.000198986 -0.000481218 
0.00235544 0.00293669 0.000597602 7.70165e-05 -5.8861e-05 -0.00609702 -0.00449186 -0.00925418 -0.00248901 
0.000478187 0.00183544 -0.00305459 -0.0046941 -0.00816371 -0.00428933 -0.00481005 -0.00348968 0.000458139 
-0.00629211 -0.000718577 -0.00191234 0.00101701 -0.000220125 -0.000850262 0.00306471 0.00169093 0.00183928 
0.00554394 0.00375987 0.00483177 0.0101103 0.00713718 0.00931796 0.0209759 0.0147483 0.0197128 
0.0472582 0.0316381 0.0406272 -0.0201884 -0.0177064 -0.0351398 0.014118 0.0885574 0.0861014 
0.0615019 0.0933435 0.0919423 0.0818261 0.0960214 0.0951916 0.0869906 0.0971783 0.0957903 
0.0906345 0.096996 0.0971484 0.0927767 0.0999323 0.0992699 0.0943196 0.100959 0.100681 
0.0951134 0.100815 0.100792 0.0958446 0.099374 0.0990605 0.0964989 0.0994132 0.100772 
0.0963231 0.0990776 0.0994816 0.0950169 0.0981605 0.0975966 0.0931689 0.0970559 0.0957816 
0.0923647 0.0935088 0.0948846 0.0905115 0.0948978 0.093503 0.088554 0.0923524 0.0934598 
0.086464 0.0798224 0.084934 0.0790485 0.0585187 0.020056 -0.0288597 -0.0128793 0.00392213 
0.00719078 -0.0320007 -0.0296431 -0.0286942 -0.0249937 -0.0258084 -0.024358 -0.0197767 -0.0232671 
-0.0187929 -0.0149718 -0.0188999 -0.0130729 -0.0104813 -0.0137422 -0.00144526 0.00149125 -0.0034188 
0.00263889 0.000178334 0.00352808 -0.00542695 -0.00682617 -0.0013318 6.72004e-05 0.0050334 -0.00391832 
-0.0357634 -0.0302848 -0.0275893 -0.0257809 -0.0236748 -0.0320874 -0.0333628 -0.0349161 -0.0351796 
-0.02707 -0.0252743 -0.000959248 -0.000691594 -0.000605513 -0.000930569 -0.00245447 -0.0037951 -0.00336076 
-0.0221953 -0.0341773 -0.023228 0.00170288 0.0262809 -0.00806029 -0.0147746 -0.00883957 -0.00801057 
-0.0225128 -0.0295923 -0.0199278 0.0703574 -0.000754256 -0.000478041 0.00591812 0.00925715 -0.00486289 
-0.0151268 -0.0145953 -0.0125669 0.00392392 0.0021403 -0.000380118 -0.000434113 -0.000492168 0.00483686 
0.00750267 0.000763901 -0.00101206 -0.00301022 -0.00591068 0.00164337 0.00504529 0.0162748 0.00226049 
0.00305229 -0.0134708 -0.018567 0.00215507 0.0735172 0.0216692 0.0056154 -0.00298571 0.00463205 
-0.0139468 -0.0102162 -0.00732125 0.00486814 -0.000304362 -0.00255362 -0.00175304 -0.00541759 -0.00607364 
-0.00879077 -0.00552115 -0.00545299 0.00118201 0.0276811 0.0207419 0.041066 0.00100489 -0.0089131 
0.00921912 0.0131506 0.0062219 0.000435984 -0.00238173 -0.00195608 -0.00122223 -0.000934176 -0.00314851 
-0.00271473 -0.00175492 -0.00405416 -0.00359289 -0.00249323 -0.00501475 -0.00455013 -0.00340703 -0.0059403 
-0.00556694 -0.00442137 -0.00663288 -0.00639295 -0.00537292 -0.00688432 -0.00686814 -0.00606421 -0.00668095 
-0.00687009 -0.00628 -0.00598463 -0.00637769 -0.00596206 -0.00501389 -0.00547191 -0.00514455 -0.00392555 
-0.00447583 -0.0041782 -0.00286083 -0.00347281 -0.00323637 -0.00173865 -0.0022461 -0.00215264 -0.00102037 
0.00416512 -0.0107792 -0.00658137 -0.000422771 -0.000322422 -0.000251181 -0.00712322 -0.00598944 0.00907374 
0.0123234 0.0277303 0.0386258 0.0551269 0.00261667 0.00311476 0.00167056 0.00213464 0.00314118 
0.0010119 0.00131191 0.00200923 0.000526313 0.000715889 0.00114637 0.000141439 0.000293699 0.000544682 
-0.000109785 -1.66022e-05 0.000102516 -0.000293656 -0.000239455 -0.000231561 -0.000459924 -0.000407533 -0.000481844 
-0.000602631 -0.000557715 -0.000679034 -0.000708651 -0.000682855 -0.000841866 -0.000806853 -0.000779546 -0.000989458 
-0.000885488 -0.000855608 -0.0011146 -0.00091783 -0.000912023 -0.00119186 -0.000912825 -0.000936454 -0.00122177 
-0.000841392 -0.000892105 -0.00118341 -0.000682188 -0.000771127 -0.00104994 -0.000437338 -0.00058392 -0.000815586 
-0.000161545 -0.000313587 -0.000497327 0.000109625 -3.32107e-05 -0.000132185 0.0003377 0.000226219 0.000214709 
0.000494499 0.00043481 0.000498288 0.000539676 0.00053176 0.000665458 0.000475605 0.000526459 0.000693809 
0.000355306 0.000429136 0.000596942 0.000187419 0.000287034 0.000418954 9.71658e-06 0.00011757 0.000206708 
0.00540624 0.00303062 0.00365396 0.00451106 0.00452532 0.000229299 -0.000740683 -0.00173773 -0.00138014 
-0.00085504 -0.00122454 -0.00592489 -0.00813294 -0.0169648 -0.0191899 0.00512796 0.00255941 0.000874879 
-0.0013098 0.00245981 0.0167217 0.0123617 0.029477 0.0217758 0.0248103 0.0546606 0.0410683 
0.0435313 0.0680365 0.0823538 0.0810707 0.0694058 0.0672181 0.0842721 0.0833398 0.0750698 
0.0863883 0.085704 0.0775206 0.0874593 0.0872045 0.0796017 0.0880718 0.0879287 0.0807164 
0.0880354 0.0883176 0.0809713 0.0869454 0.0876912 0.0805136 0.0858453 0.086558 0.0793431 
0.0843292 0.0848413 0.0776823 0.0824758 0.0831091 0.0756101 0.0798119 0.0805855 0.0730729 
0.0768429 0.077704 0.0697915 0.0733982 0.0746343 0.0658878 -0.00401864 -0.00317651 0.0173384 
0.00950216 -0.00267797 -0.0048242 -0.00658548 -0.00235429 -0.0195161 -0.0166367 0.000914204 0.0778984 
0.075229 0.0623026 0.0711899 -0.0155143 -0.0186922 -0.00760224 0.00500042 0.0101709 0.00724432 
0.0082376 0.0147054 0.0116696 -0.00442895 -0.00520619 -0.00896173 -0.00915055 -0.0104063 0.015565 
0.0208553 0.031558 0.0187 -0.00523993 -0.00400864 -0.00776218 -0.012419 -0.0104455 0.00542464 
0.00717146 0.010924 0.0067068 -0.0171611 -0.0149399 -0.0128849 -0.00819196 -0.00613356 -0.0100505 
-0.00509925 -0.00339139 -0.00743979 -0.00790062 -0.0209711 -0.0195664 -0.0156758 -0.000603572 -0.000825128 
-0.000628206 0.00577335 -0.00622488 0.023387 0.0148093 -0.00499849 -0.00360128 0.00125138 0.00162427 
0.000745973 -0.000173335 -7.85243e-05 -3.73925e-05 -0.000269855 -0.0163028 -0.0130791 -0.0147131 -0.00617862 
-0.00829692 -0.0110092 -0.000559239 -0.0135865 -0.0126737 0.013554 0.0237378 0.0269647 -0.0123538 
-0.0133916 -0.0114717 -0.010011 -0.000647579 0.00803358 -0.0132902 -0.00115897 -0.00104574 -0.0152486 
-0.0222736 -0.0174578 -0.0217673 0.0637931 0.0711255 0.0617207 0.0491073 -0.00296533 -0.00102052 
-0.00685245 -0.00661521 -0.0144181 -0.0199149 -0.0221858 -0.00110307 -0.000809342 -0.00368286 -0.00328513 
-0.00473018 -0.00442719 -0.00327551 -0.00542761 -0.00524721 -0.0044476 -0.00563132 -0.00564856 -0.00514175 
-0.00528364 -0.00552659 -0.00526478 -0.00416997 -0.00462516 -0.00450708 -0.00333976 -0.00374492 -0.00329047 
-0.00236504 -0.00275194 -0.00238756 0.0215105 0.0173725 0.02128 -0.0138138 0.0010091 -0.00146094 
0.00287199 0.00364464 0.00447232 0.00547121 0.00523799 0.000849548 0.00120793 0.00021793 0.000489654 
0.0009057 -0.000263696 -6.54872e-05 0.000145418 -0.000628034 -0.00048432 -0.000454098 -0.000916985 -0.000797068 
-0.000885793 -0.00115881 -0.00106671 -0.00122111 -0.00137926 -0.00129911 -0.00151767 -0.00155467 -0.00148457 
-0.00178536 -0.00164841 -0.00161613 -0.00197772 -0.0016981 -0.00169654 -0.00208974 -0.00161207 -0.00168183 
-0.00209604 -0.00140391 -0.00154004 -0.00195631 -0.00104125 -0.00124197 -0.00165116 -0.000548334 -0.000825437 
-0.00115079 -1.79906e-05 -0.000290312 -0.000531536 0.00044972 0.000216094 0.000118304 0.000815332 0.000647835 
0.000670245 0.000995488 0.000943613 0.00108335 0.000958348 0.00101237 0.00124672 0.000775435 0.000890332 
0.00115838 0.000506018 0.00065594 0.000896982 0.000191067 0.000368294 0.000537988 -0.00131543 -0.00115025 
-0.000457962 -0.011371 -0.0102912 0.00611748 0.0027163 -0.00804776 -0.00729581 -0.0199499 0.0688883 
0.0508616 0.039534 0.0574247 0.0324083 0.0253689 0.0403954 0.0729322 0.0720501 0.0700888 
0.0686801 0.0641293 0.0671003 0.0660758 0.0604229 0.0736789 0.0735124 0.0664754 0.0732155 
0.0733032 0.0665467 0.0725251 0.0730474 0.0659669 0.0710002 0.0717774 0.0650131 0.0688298 
0.0698042 0.0630594 0.0663796 0.0674622 0.0605741 0.0632848 0.0648591 0.0577937 0.0593932 
0.0612035 0.0543263 0.0547014 0.0565879 0.0497048 -0.00265511 -0.00226933 -0.00200755 -0.0017739 
-0.00139055 -0.000286781 -0.000979714 -0.00784575 -0.00318376 0.0104545 0.00267561 0.00650855 0.00769079 
0.00751926 0.00169399 0.00223062 0.00330176 0.00189723 -9.45454e-05 -0.00566645 -0.00584981 0.00580639 
0.00266923 -0.00240648 -0.00880147 -0.0112802 -0.013482 -0.0127362 -0.0110775 -0.00373795 -0.00930665 
-0.00821225 -0.00998583 -0.0124859 0.0319845 0.039994 0.0501259 0.0165691 0.0131639 0.00841472 
-0.00688571 -0.00479628 -0.00765545 0.00956135 0.0101482 0.0137849 -0.0113496 -0.0128162 0.00132684 
0.0063925 0.011662 -0.0125575 -0.0127231 -0.0109187 -0.0126954 5.0731e-05 0.000171456 -0.00012098 
0.00235299 3.62554e-05 -0.000463706 -0.000293969 -0.00707131 -0.00890806 -0.00760522 -0.00275094 -0.000693398 
-0.000469862 0.000148124 5.10086e-05 -0.00305337 -0.00240083 -0.0169294 -0.000310916 -0.000201797 0.000143829 
-0.00482567 -0.00738747 -0.00369962 0.0230021 0.0183341 0.0201761 -0.00979725 -0.0105299 -0.00859637 
-0.000147848 0.00987697 0.00827356 0.0101956 -0.00183117 0.0654025 0.0623297 0.0528169 0.0583875 
-0.0145875 -0.0119781 -0.0143531 -0.00857147 0.0518245 0.0207074 0.0259129 0.0341684 0.0121682 
0.0153099 0.0217111 0.0138078 -0.00794594 -0.00698141 -0.00886825 -0.00916635 0.0443734 -0.0003035 
-0.00261931 -0.00214074 -0.00488498 -0.00480397 0.0150058 0.0162195 0.00874606 0.00148442 -0.00321155 
0.00649228 0.0080063 -0.0042231 -0.00489437 0.000222483 0.0006806 0.00122577 0.00175891 0.00125743 
-0.00106714 -0.000844846 -0.00151802 -0.00132518 -0.00138934 -0.00192125 -0.00174526 -0.00191413 -0.00225622 
-0.00211707 -0.00238617 -0.00250568 -0.00241486 -0.00278083 -0.00266352 -0.00260408 -0.00307317 -0.00260337 
-0.00264789 -0.00317059 -0.00239638 -0.00252874 -0.00305282 -0.00194322 -0.0022198 -0.00274005 -0.0012776 
-0.00166166 -0.00215449 -0.000389096 -0.000859842 -0.00128037 0.000425231 1.17357e-05 -0.000234509 0.00113548 
0.00080752 0.000751614 0.00156525 0.00139507 0.00151773 0.00163481 0.00166432 0.00196067 0.00139113 
0.00155175 0.00194057 0.000979673 0.00121339 0.00159182 0.000517856 0.00075885 0.00106279 0.00601219 
0.0023274 -0.00190405 0.0365271 -0.000539433 -0.000224296 8.30193e-05 -0.000783131 0.0583402 0.0562276 
0.0449612 0.0379532 0.0502392 0.0582771 0.0588521 -0.0135891 -0.0146453 -0.011697 -0.0101403 
0.0603131 0.0598611 0.0529565 0.0514945 0.0500227 0.0465919 -0.000874979 -0.00364857 0.00200863 
0.0578313 0.0580927 0.0511158 0.0565837 0.0574289 0.0505185 0.0542751 0.0555009 0.048982 
0.0516784 0.0530042 0.0466652 0.048694 0.0501784 0.0440558 0.044308 0.0463253 0.0403837 
0.0391785 0.0418689 0.0358244 -0.00409064 -0.0012007 -0.000814123 -0.0006981 0.00967877 0.0114759 
0.0108908 -0.00406575 -0.00370999 -0.00257687 -0.00475089 -0.00470874 -0.00403762 -0.00468094 -0.00602667 
-0.00827716 -0.00952906 -0.0091782 -0.00884047 -0.00840262 -0.00875208 0.0308407 -0.00435235 0.01451 
0.0124115 0.000624306 0.000839936 0.0126722 -0.00820697 -0.00710379 -0.00401753 0.00519009 0.00723153 
0.00405329 -0.00686642 -0.0074119 -0.0040473 -0.00364364 -0.00481234 -0.00594951 -0.00814465 -0.00902332 
0.00266207 0.00240641 0.00317199 0.000276669 0.000440156 0.0101842 0.0102204 0.0152475 0.0527506 
0.000751957 0.000796487 0.015723 0.0136444 0.0151615 -0.0100638 -0.00988257 -0.00824539 2.28472e-05 
0.0290071 -0.00882922 -0.00843207 -0.00836994 -0.00433045 -0.00219139 0.00136842 -0.010142 -0.0121768 
0.000815584 0.00093701 0.00159913 0.00184103 0.000575327 0.000578946 0.000870447 0.00121431 -0.000268816 
0.0265713 0.0202733 0.0207977 0.0101083 0.0063352 -0.000120446 0.000235663 0.00165807 0.000813488 
-0.00989686 -0.00882226 -0.00986574 -0.00875172 -0.00843894 -0.00811698 0.00291203 0.0045912 0.0342912 
-0.00861055 0.0424668 0.0336506 0.034112 0.00900362 0.00973564 -0.00420582 0.00172086 0.00203786 
-0.0032057 -0.00482827 0.0505147 -0.00667493 -0.00519304 -0.00681943 0.0109566 0.0102606 0.00788135 
-0.00227189 -0.00197503 -0.00162996 -0.00130795 -0.00199452 -0.00333123 -0.0031263 -0.00366264 -0.00352359 
-0.00395609 -0.00374704 -0.00374687 -0.00428024 -0.0036068 -0.00372154 -0.00434507 -0.00319057 -0.00346387 
-0.00414173 -0.0023591 -0.00282092 -0.00352074 -0.00117234 -0.0018601 -0.00244846 0.000169016 -0.000484892 
-0.000998057 0.00142035 0.000822247 0.0006137 0.00227528 0.00192191 0.00200992 0.00258925 0.00254332 
0.00289821 0.00225382 0.00247677 0.00306823 0.00160454 0.00193859 0.00246153 0.00119102 0.0436901 
0.0441092 0.0451598 0.0466467 0.0384977 0.043756 0.0443571 0.038085 -0.00979496 -0.0104276 
-0.00868198 -0.00750655 0.00464792 0.00758504 0.00073865 -0.00128681 -0.00367388 0.00516804 0.00180645 
0.0406078 0.0418942 0.0365395 0.0381211 0.0394864 0.0336511 0.0357836 0.0372686 0.0316534 
0.0320741 0.0344019 0.0292902 0.0277303 0.0301479 0.0259335 -0.00648538 -0.00566227 -0.0036971 
-0.00760307 -0.00757342 0.0124597 0.0151767 0.00316012 0.00338339 0.00419809 0.022965 0.0254268 
-0.00284296 -0.00259138 -0.00342471 0.00153876 0.00231963 -0.00860695 -0.00830165 -0.00896388 -0.00889517 
0.0217079 -0.00279503 0.00538766 -0.00328396 -0.00568253 0.0179843 0.00452864 0.00925724 0.00841277 
0.00760224 -0.0018959 -0.00274615 0.00813332 0.0101614 0.0134428 -0.0108053 0.0407308 0.0327262 
-0.00457157 -0.00524769 0.00331604 0.00427032 0.00352629 -0.00127375 -0.000968646 -0.000556427 0.00154979 
0.0146993 0.00956262 0.00918401 -0.00927628 0.00284406 0.00287429 0.00440845 -0.00753622 -0.00778125 
-0.00781133 -0.00756317 0.00159491 -0.0068573 -0.00569142 -0.00753801 -0.00711151 -0.0075334 0.0195985 
0.000421838 0.000826943 0.00283773 -0.0076806 -0.00700116 -0.00826374 0.0261904 0.0197805 0.0320188 
0.000684657 0.00145338 3.56881e-05 0.00173096 -0.00385287 -0.00288026 -0.00349051 0.0028246 0.00456679 
-0.00497967 -0.00484339 -0.00457645 -0.00432923 -0.00538721 -0.00484606 -0.00504333 -0.00251012 -0.00333781 
0.00145002 0.000446051 0.00331135 0.00256402 0.002542 0.00393171 0.00382143 0.00447533 0.00342013 
0.00375849 0.0047092 0.00237677 0.00292883 0.00365142 0.00220463 0.030839 0.00506369 0.0064107 
0.00879242 0.00565901 0.0259932 0.0274288 0.00234399 -0.00485243 -0.00415125 0.0214668 -2.41564e-05 
0.0033421 0.0177122 0.0225792 0.0239026 0.00717424 0.00578124 -0.00160727 0.000852771 0.00022029 
-0.00334697 -0.00394445 -0.00357902 -0.00465116 0.0244144 0.0252329 0.020438 0.0451792 -0.00490592 
-0.00492198 -0.00563598 -0.00572502 -0.00214374 -0.00170766 0.00729983 0.00566053 0.00524808 0.00714479 
0.0311956 0.0306641 -0.00177702 -0.00837221 -0.00801047 -0.00852458 -0.00670951 -0.00602829 0.00408494 
0.00549636 -0.00461335 -0.00638127 -0.00129377 0.00513212 -0.00381121 -0.00430716 -0.000414282 -0.00144317 
0.00414335 0.0193916 0.0124689 0.00777318 0.025175 0.0179942 -0.00653977 -0.00667774 -0.00825409 
-0.00825303 -0.00822216 -0.00804647 0.0143936 0.00323562 0.000719062 0.00253402 0.00409618 0.00137348 
0.0291522 0.0228799 -0.0036837 -0.00311944 -0.00272471 -0.00604449 -0.0060649 -0.00585898 -0.00529992 
-0.000224335 0.00629439 -7.65434e-05 -0.00251058 7.69787e-05 -0.00230543 0.019216 0.0141825 0.0145471 
0.0107992 -0.00730365 -0.00649143 -0.0062173 -0.00755822 0.00802229 0.00739542 0.00513635 0.00593556 
0.00312755 -0.00520925 -0.00474363 -0.00411946 -0.000552766 0.000226438 0.000999239 -0.00111077 0.0050432 
0.0187204 0.0174224 -0.00694831 -0.00706115 -0.00143298 -0.00251613 -0.00428889 -0.00370677 -0.00497905 
0.000421506 0.0016993 -2.92119e-05 -0.00531159 -0.0022783 -0.00351135 -0.00446314 -0.00260469 -0.00298595 
-0.0022723 -0.00355783 0.00598658 0.00563063 0.0151062 0.0157118 -0.00109128 0.0112589 -0.00214434 
-0.00159391 0.0163652 -0.000133425 -0.00119959 -0.00425303 -0.00553593 -0.00625396 -0.00627684 0.0115862 
0.0154085 0.00379446 0.00587426 0.000472038 -0.00396502 -0.00482428 0.00848118 0.0080162 0.00845376 
-0.00303718 0.00159584 -0.0062462 -0.00585413 -0.0061135 -0.0070075 0.00394025 0.00330843 -0.00662378 
-0.0071616 -0.00232142 -0.00575808 -0.00750901 0.00181194 0.000427112 -0.00740069 0.00863109 -0.00516233 
-0.00073293 -1.98336e-05 0.105654 -0.0387768 3.28668e-05 3.98088e-05 5.34786e-05 4.5899e-05 5.40765e-05 
2.99579e-05 2.10616e-05 -2.66176e-05 -7.93582e-05 -0.000125656 0.000343069 0.000112308 -0.000418493 -0.00063157 
-0.0018847 -0.000815793 -0.000475227 -0.00066057 -0.00119806 -0.000459581 -0.00133438 -0.00290719 -0.0021864 
-0.00162454 0.000918367 -0.000173188 0.000638093 -9.08105e-05 0.000534376 0.000327313 -0.000243395 4.28731e-05 
-0.000174131 -1.69724e-05 0.000334057 0.00040733 0.000806311 0.000460789 -0.000560438 5.49328e-05 0.000328516 
0.000348058 0.000152291 9.90125e-05 -1.32066e-05 -0.000163014 -0.000267958 0.108866 -7.34708e-06 1.18881e-06 
-0.0544218 0.00462156 -0.00357034 -0.00419704 -0.00174167 -0.00121287 -0.00101242 -0.000625252 -0.000659231 
-0.00037118 -0.000272704 -0.000211617 -0.000180328 -0.000128926 -0.000108006 -7.02334e-05 -8.36012e-05 -9.6187e-06 
3.61382e-06 -2.20366e-05 -1.10988e-05 -7.60682e-06 2.23748e-06 5.74231e-06 1.04528e-05 1.71908e-05 9.42467e-06 
3.30119e-05 2.66586e-05 2.84559e-05 3.36117e-05 3.40621e-05 4.49347e-05 5.37632e-05 3.78707e-05 4.10885e-05 
4.23034e-05 4.47674e-05 5.05075e-05 4.69689e-05 5.71403e-05 3.22979e-05 1.03804e-05 4.42869e-05 3.65557e-05 
1.54613e-05 1.6537e-05 -2.46105e-06 -5.36366e-06 -1.32305e-05 -1.46627e-05 -1.91693e-05 -2.57235e-05 -1.41016e-05 
-5.13041e-06 -3.34913e-05 -2.40629e-05 -1.34989e-05 -1.47386e-05 -2.89206e-06 -6.01398e-08 5.96529e-06 8.59517e-06 
1.16335e-05 2.0017e-05 3.36835e-06 7.24414e-06 2.7282e-05 2.67112e-05 -1.42956e-05 -1.91934e-05 -1.85504e-05 
-0.000212007 -3.14437e-05 6.34187e-06 1.87936e-05 2.51304e-05 4.64857e-06 -4.33231e-06 2.81549e-05 0.00010292 
0.000142336 4.97957e-05 7.57214e-05 -3.55622e-06 -0.000136071 -0.000287276 -0.000539986 -0.000769658 -0.00111406 
-0.00181073 -0.00238173 -0.00286401 -0.00356483 -0.00415257 -0.00492155 -0.00560515 -0.00637698 -0.00795637 
-0.00890292 -0.00962505 -0.0105147 -0.0112147 -0.0120235 -0.0124833 -0.0130253 -0.013388 -0.0132451 
-0.0130979 -0.0126602 -0.0121244 -0.0112996 -0.0103626 -0.00933636 -0.00734458 -0.0060416 -0.00501958 
-0.00379167 -0.00286213 -0.00184093 -0.00120229 -0.000496394 -8.74171e-05 0.000132735 4.72366e-05 -0.00144588 
-0.00712269 -0.0132073 -0.00837049 0.0199297 0.109825 0.102442 0.140415 0.145637 0.166334 
0.181828 0.182018 0.209957 0.227027 0.233507 0.238269 0.242411 0.262776 0.287357 
0.272027 0.263054 0.244154 0.208674 0.228672 0.236928 0.174308 0.167412 0.100244 
0.118705 0.139912 0.108527 0.166109 0.147613 0.191128 0.179295 0.221476 0.208682 
0.245417 0.239294 0.252685 0.272105 0.262973 0.254513 0.254583 0.27152 0.251002 
0.265559 0.201625 0.217955 0.153684 0.130781 0.140987 0.03593 0.0409412 0.0798302 
0.0796188 0.0792393 0.0701381 0.0878513 0.0640679 0.0784798 0.0624599 0.0799135 0.0587032 
0.0585205 0.076934 0.0911725 0.0733313 0.0694097 0.0410862 0.072294 0.0287647 0.0745933 
0.222634 0.217494 0.207644 0.196536 0.000184697 6.27164e-05 0.00017856 7.5164e-05 0.222476 
0.217899 0.18462 0.133334 0.141903 0.0453979 0.105905 0.111377 0.173136 0.0656473 
0.0743145 0.0712619 0.0981149 0.0708123 0.177858 0.202315 0.16116 0.218521 0.215991 
0.138034 0.0682339 -0.000582639 -0.00231905 -0.000388894 -0.0014178 0.169002 0.163948 0.00175688 
0.0154334 0.100554 0.021604 0.0408387 0.206744 -0.0143588 0.00303248 0.00237662 0.00457254 
0.00403797 -0.00147035 -0.000916163 -0.00205133 -0.0206504 -0.0185977 -0.0169991 -0.0153416 -0.0150631 
-0.011052 -0.0127179 -0.0107702 -0.0037044 -0.00307051 -0.00309735 -0.00208661 -0.00273677 -0.00264152 
-0.00341168 0.0707404 0.0621762 0.0637009 0.0123548 0.0116342 0.00761217 -0.00342924 -0.0032897 
-0.00281591 -0.00260487 0.00507637 0.003616 0.00423354 -0.00114446 -0.00115111 -0.00154071 -0.00152773 
0.000300357 0.00137852 0.00111788 0.00180088 0.000455104 -0.00195093 -0.00191505 -0.00151145 -0.000710314 
-0.00152885 -0.00113762 -0.00934282 -0.0109883 -0.0101561 0.104489 0.0964696 0.111621 0.110396 
-0.00428905 -0.00548585 -0.00486086 -0.00830163 -0.00945857 -0.0089684 -0.0101324 -0.00548442 -0.011079 
-0.0125125 -0.00925328 -0.023854 0.114496 -0.0118557 -0.010337 -0.0103201 0.000245114 8.05044e-05 
9.0671e-05 -0.0035976 -0.00399956 -0.0032712 -0.00368246 0.000400646 0.00179374 0.000158023 0.00160532 
-0.00458766 -0.00658619 -0.00662035 -0.00743253 -0.00738617 0.0155654 0.0103191 0.0158912 -0.0139527 
0.000192512 0.000168565 0.00023352 -0.00545652 -0.00719724 -0.00647862 -0.00855133 -0.00185856 -0.00167773 
-0.00135235 2.66717e-05 -5.28689e-05 -0.000124178 -0.00113298 0.0810348 0.084162 0.0770461 -0.000293944 
-0.000416523 -0.000327775 -0.0098396 -0.0100555 -0.00890816 -0.00913687 -0.00806934 -0.00928648 0.000676381 
0.000689586 -0.000140365 0.00104053 0.00139819 0.00127047 0.00162575 -0.00444089 -0.00443067 -0.00388051 
-0.00388785 -0.00518003 -0.00459989 -0.00569498 -0.00496088 -5.22933e-05 -0.00380705 -0.0034008 -0.00438129 
-1.37503e-05 8.07742e-06 -5.13826e-05 -0.00393607 -0.00614498 -0.00531423 0.00819561 0.013153 0.00490829 
0.0163689 -0.00552478 -0.00542692 -0.0066519 0.126342 0.123833 0.0926481 0.102917 5.9076e-05 
0.000169718 7.91359e-05 -0.000215341 -0.000408974 -0.000552644 -0.000748409 0.0129865 0.011003 0.0162321 
0.0135685 8.34656e-05 0.000153475 -9.70092e-06 0.000103922 -0.0158877 0.00254986 0.00318006 0.00395151 
0.00439596 -0.00273763 -0.00365307 -0.00243935 -0.00329588 0.0263402 0.014114 0.120734 0.12213 
-6.58846e-05 -0.000443172 -0.000471595 -0.000684854 -0.000710503 -7.26843e-05 -0.000116828 -0.00353424 0.000267777 
-0.00109377 0.000204367 -0.00528868 -0.00564051 -0.00484464 0.00301864 0.00493685 0.00125588 -0.00288673 
-0.00232458 -0.00195296 -0.0460731 -0.0778199 -0.0272515 2.19861e-05 3.42931e-05 4.70091e-05 -0.00271223 
-0.00321644 -0.00273512 0.108429 0.113081 0.112322 0.104755 0.106637 -9.32379e-05 -0.000233033 
-0.000215324 -0.00498077 -0.00419679 -0.00477355 -2.47071e-05 -0.00424113 -0.00544958 -0.00522242 -0.00442793 
-0.00310138 -0.00375799 -0.00309726 0.100305 0.103069 0.111393 0.00301048 0.0022837 0.00251971 
-0.000438807 -0.000345993 -0.000697169 -0.000518715 -0.000157214 -8.26035e-05 -0.000193357 0.0289156 0.0341534 
0.0284792 -0.00197365 -0.00470573 -0.00204148 0.0964127 0.0955548 0.00926407 0.00657676 0.00786733 
0.0755715 0.0750189 0.0825877 0.0822309 0.00556094 0.00686832 0.00461075 0.120944 -0.0128456 
-0.000462411 -0.000742377 0.00301597 0.00620444 0.00190162 0.00474958 -0.00212605 -0.00210304 -0.00175056 
-0.000720546 -0.00170136 -0.00171977 -0.00210174 0.00819312 0.00724088 0.0110785 -0.00420778 -0.00362281 
-0.00845203 -0.010607 -0.00811888 0.130498 0.000445943 0.000370277 0.000789298 8.60779e-05 9.97844e-05 
3.97111e-05 -0.000693951 -0.00139834 -0.00844648 -0.00842664 -0.00864381 0.0652261 0.0179618 0.0403034 
-0.0336253 0.00229206 0.00172376 0.00133035 -0.000170063 -0.000187842 -0.000276624 -0.0019254 -0.00146337 
-0.00151594 0.00360029 0.00390777 0.0101905 -0.00184344 -0.00233708 0.0527907 0.0421069 0.0626914 
-0.00396295 -0.00942802 -0.00776921 -0.00277336 -0.00221444 -0.000863083 0.127573 0.111856 0.10899 
0.109509 0.110528 0.111475 0.0031786 0.00208382 0.00161732 0.0169719 0.0139617 0.0224714 
-0.00175963 0.0970705 0.08997 0.0971623 -1.47304e-05 -7.60925e-06 -3.22017e-05 -6.73147e-06 -0.00170985 
-0.00278024 -0.0022855 -0.00210976 -0.00161665 -0.00039212 -0.000253779 -0.000263663 -8.24694e-05 -0.00075325 
-0.000103725 -0.000349052 -0.000334696 -0.000520751 -0.00861521 -0.00876906 -0.00843037 -6.45248e-05 -4.31383e-05 
-6.4824e-05 0.00480114 0.00370592 0.00112674 -0.00303622 -0.00345045 -0.00275948 0.0858494 0.0943122 
0.0866905 4.78837e-05 -0.00312806 -0.00359706 -0.00789252 0.127226 0.0588626 0.0663759 0.0645201 
0.0512382 0.0522062 0.0441583 -0.000474582 0.000521956 0.000757677 0.000487838 0.000271985 0.000493657 
0.00264482 0.000288596 0.000312561 0.108804 0.113419 0.119138 0.0896983 0.0936559 0.104168 
-0.00216856 -0.00166317 -0.00597491 -0.00522343 -0.00572875 -0.00505576 0.0027986 0.00204242 -0.00268152 
-0.00630216 0.00259401 -0.0218199 -0.0165407 -0.0192509 -0.0130207 0.000326378 0.000296323 -0.000300966 
-0.000202963 0.00026914 0.000401848 0.000593589 0.00439069 0.00652144 0.00521575 0.000243203 0.00032276 
0.000157749 0.000143752 -0.00763277 -0.00809414 -0.00914933 3.24188e-05 5.742e-05 5.10234e-05 -0.00423756 
8.36339e-05 0.00103023 -0.00020929 0.000729828 -0.012778 -0.0135756 -0.00378834 -0.00976345 -0.00399305 
-0.00270062 -0.00310823 -0.00235438 -0.00275775 -0.0127506 -0.0144135 -0.018483 -0.00220094 -0.00258252 
-0.00268226 -0.00553211 -0.00597069 -0.00503205 0.0665847 0.0652016 0.0603803 0.0592922 -0.027258 
-0.018872 -0.0279882 -0.0255297 -0.0268083 -0.0234441 0.0182511 0.0222424 0.0188967 0.110201 
0.111469 0.114396 0.000703636 0.000791355 0.0013584 0.00164275 0.00205523 0.00183677 -0.00471069 
-0.00687397 -0.00320364 -0.00428045 0.0377968 0.0314278 0.0373565 0.0437785 0.000462965 -0.00107286 
-0.00620319 0.029848 0.0257159 0.000173669 0.0670479 0.0343412 0.00974747 0.0115972 0.00908017 
0.00187232 0.00271344 0.00207604 -0.00294862 -0.00388409 -0.00832615 -0.000926584 -0.00298111 -0.00357561 
-0.00726977 -0.0041771 -0.00648916 -0.00722633 -0.00458336 -0.00413179 -0.00377024 0.0909578 0.0908648 
-2.46704e-06 -4.36854e-06 1.33539e-06 0.0014875 0.00308588 0.00893433 -0.00490487 -0.00583177 -0.00509555 
-0.00115709 -0.001289 -0.00083139 -0.0114019 -0.0140495 0.0952301 0.109333 0.00106487 0.00211944 
0.0016851 0.00273366 0.00504297 0.00562797 -0.00125717 -0.00132853 -0.000986763 0.0109752 0.00767411 
0.00151987 0.00183172 0.00188491 0.000502103 0.000929363 -0.000278999 0.00698724 -9.01708e-05 -0.00020978 
-0.000216929 -0.000383691 -0.000243846 -0.000820122 -0.000519213 -0.0008255 -0.000533548 0.000942749 0.0010624 
0.00139583 -0.00718848 -0.00665606 0.000383516 -0.000453593 0.000906539 -0.00756389 -0.0078528 -0.00872755 
-0.00740448 -0.00808953 -0.00728225 -0.000340222 -0.00026853 -0.000477228 -0.000361647 -0.0110689 -0.00991465 
0.00961814 0.00679629 0.000351134 -0.000908082 -0.00181349 -0.000956393 -0.000236165 -0.000295506 -0.000146616 
-0.000178578 -0.0054855 -0.00499015 -0.00658996 0.00118439 0.00102078 0.00145039 0.132856 0.000118113 
0.000112912 0.000147504 0.0681573 0.0756834 0.0755492 -0.0107817 -0.00904873 -0.00424587 -0.00588752 
0.0975972 0.0898728 0.0896384 0.0899932 0.0825189 -0.000900535 -0.000998998 -0.00205092 0.0579174 
0.0625392 0.0684825 0.100651 0.112994 0.111327 0.000886141 0.000780381 0.00117203 -0.00410594 
-0.00325124 -0.00368847 -0.00288106 -0.00060629 -0.000163886 -0.000635294 -0.000197193 -0.00159382 0.00767555 
0.0105144 0.00418849 0.00656344 -0.00333072 -0.00513638 -0.00554805 -0.0051286 -0.00525086 -0.000728922 
-0.00126396 -0.00272464 -0.00315724 0.0152158 0.0186708 0.0133887 -0.00123628 -0.000434904 -0.000748112 
-0.00108286 -0.001096 -0.000769745 -0.000803486 0.00260999 -0.0121187 -0.0110381 0.0967978 0.0972727 
0.101644 -0.000826514 -0.000805397 0.00585289 0.00396377 0.0159515 0.0192002 0.021666 0.0805948 
0.0739422 0.081377 0.0202901 -0.00150602 -0.000709843 0.000362237 -0.00198971 0.00119524 -0.0040092 
-0.00406698 -0.0152289 -0.0127094 -0.0133266 -0.0137096 0.0543365 0.0546436 0.0604461 0.0610882 
-0.00560542 -0.00421332 -0.00498772 0.0432161 0.0451758 -0.0109104 0.0031638 0.00240995 0.00227797 
-0.000355238 -0.000560479 0.00774972 0.010294 0.00550006 0.00745657 -0.0363188 -0.025144 -0.017021 
-0.0125906 -0.0128151 -0.00195951 -0.00326734 -0.00241796 -0.00370212 -0.00479159 -0.00281524 -0.00648358 
-0.0061661 -0.00574021 -0.00105599 -0.000919607 -0.00120811 -0.00130813 -0.0010938 -0.00145258 -0.00329585 
-0.00394057 0.112657 0.112837 -0.00235646 -0.00204799 -0.0036381 0.0086599 0.00815045 0.00820907 
-0.0356431 -0.0331107 -0.0386547 -0.00319212 -0.0043257 -0.00114181 -0.00365908 -0.00646883 -0.00436368 
-0.00733144 -0.00585347 0.000946741 0.000666412 0.000929523 0.000656182 -0.000592612 -0.000527576 -0.000150658 
-0.000150878 -0.000121849 -0.0167931 -0.0206966 -0.028478 -0.00634656 -0.00504267 -0.00699204 -0.00835478 
-0.00819877 -0.00800891 -0.00103714 -0.00640216 -0.00734181 -0.0061652 -0.00716916 0.0237041 0.00998294 
0.0110201 -0.019325 0.0444615 -0.00122819 0.0014719 0.00139559 0.0024486 -0.00761381 -0.0140234 
-0.00599033 -0.0158557 -0.0139966 -0.0135087 -0.0119841 -0.00606147 -0.00574199 -0.00538855 -0.00400025 
-0.00387682 -0.00456719 -0.00712217 -0.00620551 -0.00668811 -0.0142493 -0.0162676 -0.0137007 -0.000548478 
-0.000488361 -0.000387215 -0.000337232 -0.00455928 -0.00412565 -0.00331061 -0.00526661 0.00201881 0.00260711 
0.00163571 -5.23127e-05 -2.57588e-05 0.0654031 0.0725751 0.080014 0.10553 0.113593 0.0619802 
0.0558923 0.0543704 0.00707194 0.00545955 0.010229 0.105641 3.14522e-05 -4.03366e-05 -3.11456e-06 
-6.21814e-05 -5.19003e-05 -0.000266864 -0.000295681 -0.00043961 0.00033039 0.000694135 0.04675 -7.29933e-05 
-9.38008e-05 -0.000114436 -0.00639911 -0.000297789 -0.000209458 -0.000323782 0.0512123 0.0522059 -0.0029317 
-0.00284711 -0.00239637 -0.0146155 -0.0157347 -0.0168536 0.0861144 0.094797 0.0941612 -2.31645e-05 
0.000695343 0.000210055 0.0808826 0.08891 0.0882044 -0.00871852 -0.00838485 -0.00806676 -0.00789247 
-5.29298e-05 0.0131182 0.0188586 0.0134614 -0.00107982 -0.00098754 0.0793158 0.0803978 0.0873804 
0.123271 0.0110851 0.0117829 0.0154895 0.0114977 0.0119332 0.0121565 0.00844879 0.0100885 
0.000157052 8.48292e-05 -0.00529824 -0.00644334 -0.00598547 -0.00721849 0.0166539 0.0109454 0.01534 
9.80637e-06 -0.000127518 0.0302179 0.0386763 0.0337961 0.00485877 0.00531682 0.00642062 0.00497813 
-0.000816475 -0.000870978 0.00121584 0.0238595 0.0230364 0.01916 -0.014125 0.0239742 0.0310456 
0.0296119 -0.00370157 -0.00433539 -0.00386218 -0.00447541 0.0956571 0.0877766 0.0880477 0.0953818 
0.0874943 -0.00242679 -0.00295798 0.0117833 0.000197234 0.0790302 0.0802301 0.0993838 0.111598 
-0.0033211 -0.00112838 0.00655672 0.00833747 0.00183507 0.017099 0.0112726 0.00938257 0.00505812 
0.00770423 0.00329029 -0.00319504 -0.00413604 -0.00296909 -0.00385732 0.120562 0.112089 0.0814472 
0.0875497 0.111861 0.0961193 -0.0108802 -0.0100017 -0.011278 -0.00843394 -0.006445 -0.00852963 
0.112483 0.112375 0.112665 -0.0116879 0.111833 0.109436 -0.00853121 -0.0100869 -0.00890632 
-0.0104886 0.0206662 -0.00143516 -0.0012292 -0.000889838 -0.000480181 -0.00145988 -0.00216154 1.04405e-05 
-0.00176993 0.00787819 -0.00068012 -0.00100268 -0.000799951 -0.00340498 -0.00373578 -0.00294226 -0.00152713 
-0.00137358 -0.00119446 0.000835351 0.00118751 -0.00173256 -0.00127716 -0.0010905 0.146858 0.129428 
0.0674286 -0.000937414 -0.00113026 -0.00663493 -0.00571868 0.000331229 0.000582894 -0.00656459 -0.00639755 
-0.00725717 -0.00697409 -0.00925758 -0.00111561 -0.00773617 -0.00792154 -0.00734512 -0.00605362 -0.00537186 
-0.00425897 -0.00488872 -0.00274035 0.00919181 0.0065632 0.00839152 0.0109985 -0.00840578 -0.00779004 
-0.00892944 -0.00258618 -0.00224601 0.00298081 0.00235764 0.00127135 -0.000190445 -0.00175273 0.0181129 
0.0150258 0.0207513 -0.00224925 -0.00198348 0.0615659 0.0536454 -6.77525e-05 -0.0468621 -0.0293023 
-0.0148626 -0.0175699 -0.0220842 -0.0176302 -0.0041136 -0.00291299 -0.00361142 -0.00087889 -0.00071409 
-0.000591788 0.000436099 -0.00530171 -0.00444552 -0.00272135 -0.00056879 -0.000821902 -0.00108573 -0.00141437 
-5.75273e-06 -0.00185854 -0.000127204 -0.000121441 -0.00591103 -0.00608418 -0.00685716 -0.0053466 -0.00529651 
0.0400539 0.0298184 0.0315025 0.00193111 0.0021839 0.00251504 0.0257783 0.000559062 0.000790517 
0.00105767 -0.000107265 -0.000263744 0.0683477 0.0689797 0.0676537 0.0598358 0.0582037 0.0765939 
0.07366 0.0703657 0.0620024 0.058528 0.000556752 0.000578674 0.00101113 0.0010993 0.00108413 
0.00142878 0.000590581 -0.000430776 0.0703191 0.0625185 0.061493 0.000788362 0.000524041 0.000687635 
0.100895 -0.0184408 -0.0213233 -0.018897 0.00293696 0.00314074 0.00357657 0.00181243 0.00130756 
0.043167 0.0500858 0.0416523 0.0488851 0.00275914 0.00229463 -0.00534459 -0.00406566 -0.00255216 
-0.0021132 -0.00312405 -0.00435974 -0.00351484 0.0141064 0.0110864 -0.00938579 -0.00786198 -0.00586146 
-0.00685963 0.00384591 0.00531829 0.00332083 -0.00800342 -0.00961589 -0.00745953 -0.00824473 -6.47267e-05 
-6.42884e-05 -0.000122553 -0.000102129 -0.00872968 -0.00768324 -0.0081781 0.00655976 0.00555476 -0.00865121 
-0.00744473 -0.007313 -0.00510627 -0.00585139 0.00488201 0.0190188 0.0184804 -0.00187717 -0.00147138 
-0.000491539 -0.00160035 -0.000956676 -0.00196137 0.00207606 0.00452361 0.00163632 0.00454401 -0.00238118 
-0.00242939 0.0182956 0.00532816 0.00441205 0.00611293 0.000901335 0.00119344 0.00149173 0.00438782 
0.0670563 0.00344795 0.00261942 0.000466323 0.127241 0.106453 -0.00231103 -7.58197e-05 -0.0223071 
-0.0180719 0.00299505 0.0025086 0.00257775 0.00218526 -0.000184399 -0.00059253 -0.00046883 -0.000531964 
-0.000415095 -0.00326712 0.00022084 0.000373107 0.000250605 0.000432187 0.00134537 0.00152744 0.000224734 
-0.000630874 -0.000157587 -0.000335988 -0.0278765 -0.0256579 -0.0335363 -0.000257497 0.000877676 -0.00202175 
0.0546844 0.0470367 0.0231951 -0.00365342 -0.00505622 0.0184076 0.0141658 -0.00863228 -0.00871271 
-0.00866941 -0.0103031 -0.00928522 -0.00956593 0.113681 -0.00466335 -0.00461481 -0.00481985 -0.0253782 
-0.0239922 -0.0259788 -0.00330441 0.0463872 0.0396372 0.04736 0.0404059 0.0536426 0.0478243 
0.0686412 0.0750222 0.0680252 0.000872347 0.00064868 0.000598298 0.0284549 -0.0116093 -0.00978135 
-0.0114187 -0.00953142 -0.0081648 -0.00812978 -0.00986779 -0.00353378 -0.00831752 0.0133904 0.00240881 
-0.00192834 -0.00846136 -0.0117325 -0.0113153 -0.0124275 -0.0105492 -0.0108017 0.000175288 0.000307288 
0.000247203 -0.00884475 -0.00844723 8.55178e-06 9.50569e-06 -0.00198311 0.0442861 -0.000421564 -0.0028685 
-0.00294768 -0.00585876 0.0459053 0.038474 0.0406018 0.00328086 0.00451141 0.00237808 0.0033819 
0.0194271 0.0165546 -0.00836751 -0.00516253 -0.00529423 -0.00594823 -0.0297117 -0.0249108 -0.0305231 
0.00281012 -0.0043569 -0.00452541 -0.00382572 0.00111599 0.00236351 0.00163614 -0.00368347 -0.00932439 
0.0148055 0.0591741 0.0614845 0.0675259 0.00107149 0.00911704 0.0120346 0.0102201 0.0315626 
0.0448107 0.0185224 0.0304032 0.00767749 0.0421328 0.051468 0.0479928 0.0610113 0.0536953 
-0.00813573 -0.00739705 -0.0074482 0.0390103 0.0331934 0.031596 -0.00335975 -0.00320973 -0.00263391 
-0.000686181 -0.000909455 -0.00039189 0.00104047 0.0639958 0.0525108 0.0563452 0.045804 0.105313 
-0.00713271 -0.00657108 -0.00781108 -0.00210423 -0.00240028 -0.000494341 0.00244103 0.00344507 0.00272743 
0.000404669 0.00879425 0.00462365 0.00872965 0.0402754 0.0489783 -0.00221496 0.000153913 0.058633 
-0.0028361 -0.00245433 -0.00219183 -0.000339526 -0.00433992 -0.00142476 0.0311273 0.0331872 -0.00606878 
0.00089289 -0.00280092 -0.00453855 0.0692268 0.0672913 -0.00824338 -0.0066491 -0.00662649 -0.00291519 
-0.00834589 -0.0162355 -0.0141069 -0.0132686 0.0013535 -0.00873256 0.0735868 0.0727371 0.0130344 
0.0180046 0.0152892 0.0181279 0.000190283 0.0380315 0.0301607 -0.00420403 -0.00346874 0.00845448 
0.00182515 0.000927991 0.00112264 0.00995328 0.00545219 0.00718465 -0.0123049 0.00071954 -0.000111089 
-0.000371382 0.0411369 0.0389344 0.0469649 0.0450948 0.00882375 0.00617325 0.0606811 0.00163082 
0.00118363 -0.00947032 -0.00682622 -0.00944427 0.00683146 0.00858998 0.00936408 -0.0044358 0.0712861 
0.0640284 -0.00320526 0.000157859 0.000627237 0.000706973 -0.000339104 -0.000431366 -3.23015e-05 0.0161153 
-0.00747951 -0.0125709 -0.0111374 0.0155317 -0.00152385 -0.00154173 -0.0010488 -0.00241975 -0.00186424 
-0.00182506 -0.00297904 -0.00614486 -0.00678994 -0.000933306 -0.0020005 2.69575e-05 3.3384e-05 -0.0111571 
-0.0101544 -0.000542826 -0.000685629 0.00954554 0.00402031 0.00699516 -0.00492156 -0.00442599 -0.00487589 
-0.000132012 -0.000110523 -0.000305394 -0.000140873 -0.0118932 -0.0117502 -2.91299e-05 -1.54911e-05 -1.4189e-05 
-1.34968e-05 0.000331044 -3.12499e-05 0.00115505 0.00168529 0.00174584 0.0128407 0.0171366 0.000891881 
-0.00830942 -0.00977197 0.0322912 0.00169123 0.0133664 0.025068 0.0404918 -0.0162105 -0.0123608 
-0.0103857 -0.000175083 -0.00532243 -0.00437577 -6.42269e-06 6.14105e-06 -1.57147e-05 0.0823191 0.0800076 
0.0715235 -1.81753e-05 -1.05031e-05 -2.56064e-05 -0.00732163 -0.0069077 -0.00624971 1.95423e-05 -0.00472856 
-0.00825406 0.00805225 0.00766889 0.0100342 0.00883989 0.0516493 0.031182 0.0813459 0.136146 
0.027207 0.0123132 0.00998624 -6.34788e-05 -0.000490276 -0.000305582 -0.000273781 -9.24111e-05 -3.64631e-05 
-0.000529665 0.00155928 0.00187402 0.00228626 0.000871056 -0.00348657 -0.00243236 -0.00292987 0.000310461 
0.000396994 0.000371148 -0.00192133 -0.00180308 -0.00154912 -1.61985e-05 -4.84636e-05 -1.9474e-05 -4.4143e-05 
-7.16349e-05 -0.000102954 -0.000108772 -4.76843e-05 -6.14488e-05 -4.52748e-05 -0.000114878 0.00364048 0.00543158 
0.00267993 -0.000412264 -0.000365952 -0.000143412 -0.000151388 -0.000247658 0.000320577 0.000827581 0.000385265 
0.0139649 0.0113726 -0.000607069 -0.000648855 0.00555852 0.0106514 0.0164422 -8.59526e-05 -0.00332371 
-1.1692e-05 -0.00369182 -0.00223655 -0.00215581 -0.0018017 -0.000750315 0.109992 0.113653 0.0785955 
-0.013541 -0.00459142 0.096941 0.102204 -5.16388e-05 -0.000109152 0.00837707 0.0128888 0.00764167 
0.0268479 0.00454774 -0.000539195 -0.000513495 -0.000714067 0.0072082 -1.86537e-05 -0.000320228 0.000329499 
0.00317367 0.00283151 -0.00641486 9.82627e-06 0.0953292 -0.0196531 -0.000324556 -4.73059e-05 -0.000115363 
0.00156968 0.00133967 -0.0224291 -0.0268587 0.0318313 0.0248257 0.0313175 0.0308069 0.0387398 
-0.00103073 -0.000860533 -0.00103517 0.000246377 -0.00161573 -0.0012404 -0.00126267 -0.00414222 -0.00309308 
-0.00260096 0.00168509 0.0249833 0.0394768 -0.0113673 -4.75449e-06 -6.99511e-05 0.0120435 0.00697497 
-0.00811143 -0.0103646 4.28214e-07 1.43507e-05 -0.00796655 0.0570321 0.00447255 0.00321607 0.00209863 
-0.00118068 -0.0014997 -0.00120718 -0.00146433 -0.0013012 -0.0028367 -0.00321323 -0.0014475 -0.0375801 
-0.0557483 -0.0327446 -0.00100204 -0.000129735 -0.000308369 -0.00033039 0.0962863 0.0375372 0.037021 
0.0453458 0.0444772 -0.000209285 -0.000149655 7.41378e-05 0.000127438 -0.00496907 -0.00468845 0.0559015 
-0.0234298 -0.0185602 -0.0189239 -1.21005e-05 -3.66944e-05 -4.02544e-05 -0.00512638 0.00659905 0.0129569 
-0.00218775 0.00710033 -0.0167597 -0.00909682 0.0247847 0.0683097 0.00220558 0.00033028 -0.0307872 
-0.0368973 -0.0323872 -0.0385031 -0.0407927 -1.67791e-05 -0.000487819 -0.00450043 0.0193066 0.0132537 
-0.0503801 -0.0476157 -0.000212572 0.0415801 0.0515383 -0.00368594 0.00100333 0.00205074 0.00198682 
-0.0343056 -0.00447806 -0.0082148 -0.00817975 -0.00931799 -0.00732674 0.0994493 0.098179 0.0701701 
0.0593141 0.0616296 0.0529881 0.0112531 0.0207012 -0.00840797 0.00622542 0.0102692 0.0462775 
0.0562802 -0.0045501 -0.00508149 -0.00712129 -0.00238159 -0.00872479 0.00593189 0.0870549 0.120736 
0.113316 -0.00573968 -0.044441 -0.0393221 -0.0265894 0.00131779 -0.0102197 0.107125 0.000423158 
-0.0330552 -0.0146459 -0.0136024 -0.0169684 0.000151853 0.000199674 0.000130157 0.0119315 -9.18693e-05 
-0.00110076 -0.00127454 -0.00159853 -0.000208596 -0.000218993 -0.0129549 -0.0136721 -0.0119809 0.00198043 
0.0227945 0.0167134 -0.000103584 -5.54662e-05 0.00112525 -0.000495685 0.000495628 0.000852871 -0.00127576 
-0.00134123 0.000164623 -0.0043947 -0.00397371 -0.00671176 -7.19036e-05 0.00217509 0.000726415 0.0146725 
0.0106173 3.72974e-05 -3.69179e-06 -9.18695e-05 -0.00579188 -0.00552388 -0.00514056 0.000274143 0.000343241 
0.000202293 0.00013076 -0.000632069 -0.000603494 -0.000461448 -0.000762261 -0.00102568 -0.00031913 -0.000493705 
-0.00583593 -9.94908e-05 -0.00356863 -0.00317017 -0.00375515 -3.87744e-05 -0.00177333 0.00184208 0.0307923 
0.00758154 -4.59611e-05 -6.85163e-05 -0.00343085 -0.00346787 -0.00404667 0.00373047 0.00450869 0.00462063 
0.00816199 -0.0112588 -0.00862148 0.0956836 0.0876813 3.79505e-05 0.000137399 0.0404907 0.000211013 
0.000300206 0.0886339 0.0966463 -0.000766954 -1.74353e-05 0.00367784 -0.00574214 0.0544169 0.0477602 
0.0752565 0.0838325 0.0768538 0.0637373 0.00010776 0.0011765 -0.0036334 -0.00440409 -0.000513438 
0.000263839 9.87643e-05 0.0116305 0.000661586 0.00101099 0.00180766 -0.00021763 -0.00596047 0.000224643 
2.29597e-05 0.000368297 0.000489816 -0.00841429 -0.00816605 0.0937962 -0.000225554 -0.000177364 -0.00442925 
0.00474137 0.0241525 -0.00611013 -0.00548947 -0.00777598 -0.00497821 0.00922806 -0.00538306 -0.0046703 
-0.000364742 -0.001052 -0.00174174 -0.00124905 0.000246365 0.000176783 -0.00700709 -0.000703303 -0.00423816 
-0.00326869 -0.00978052 0.110645 -0.0140098 0.0901425 0.0878846 0.0788144 -0.000280566 -0.000284079 
-0.000154599 0.0168097 0.0202254 0.0145458 -0.00391744 -0.00340693 -0.00362418 -0.00174904 -0.00163894 
-0.00742519 -0.00477104 -0.00328234 -0.00419819 0.00263902 -0.00736806 -0.00811023 -0.00527379 0.00633787 
0.00502756 0.0054205 0.0405229 0.0499215 0.0424875 0.0514018 0.000909471 0.000646095 0.00426413 
0.00465442 0.00213938 0.00199214 0.00042184 0.0460564 0.053177 -0.00979444 0.00772465 -3.16711e-05 
0.000711057 -0.00133567 -0.00614599 -0.00776789 -0.00733024 0.0854148 0.0252231 0.0239852 0.00100695 
0.000665669 0.11015 0.114617 0.0977292 0.087037 0.000336609 -0.00247355 0.00843803 0.0160863 
-0.00478593 0.00459066 0.00312878 0.0212407 0.0256603 6.37062e-05 4.67189e-05 0.000147276 0.0160907 
0.00108094 0.000381294 0.0285321 0.0240842 0.0309382 0.0383626 0.0337196 -0.0035092 -0.000338471 
-0.000319714 -0.000591501 -0.000788206 -0.000787115 -0.00897165 0.00304482 0.00405902 -0.000713801 -0.000766416 
-0.000991181 -0.00100472 -0.0040864 -0.00509476 -0.00189238 -0.00149911 0.00505597 0.0398246 -5.46088e-05 
-3.68767e-06 -0.000295583 -0.0002115 -0.000416157 0.00377505 -0.00779217 -0.00837693 -0.00142253 -0.00113342 
0.0603503 0.0847646 0.00403451 0.000650842 0.00114354 -0.00318923 -0.0229798 0.0018245 0.00758479 
0.0475663 0.056309 0.0658309 0.00168675 0.00303243 -0.00202668 0.0109591 -0.000886008 -0.00555441 
0.0282558 0.0224214 0.0249866 -0.0361169 -0.0550505 -0.00219515 -0.00278577 -0.00201091 -7.27368e-05 
0.000245205 -0.00462182 0.0478772 0.00212266 -0.00761378 -0.00831472 -0.00889451 0.000295353 0.000121668 
0.020452 0.0274697 0.0269544 0.0331333 -5.14969e-05 0.052786 0.00470377 0.00867713 -0.00481151 
0.0339592 -6.12429e-05 -9.54729e-05 0.00629142 -0.00319928 -0.00542023 -0.021385 -0.0169993 -0.020355 
-0.000789874 -0.000148902 0.000311173 -0.0047923 0.0038824 -0.00462412 -3.21864e-05 0.112923 0.101147 
0.112529 -0.000938812 0.0891005 0.08251 0.000619589 0.000587186 0.000816821 -0.00173744 -0.00144513 
-0.00923209 -0.00533323 -0.00726665 -0.00617156 -0.00804764 -0.00722993 0.000831763 0.00206528 0.000225669 
-0.000284071 -0.00645027 -0.00640445 0.00430702 0.00153768 0.00502053 -0.0019394 -0.000732211 -0.00154801 
-0.00125252 -0.00113242 0.00212369 0.00322597 0.00185994 -0.0016156 -0.00101001 -0.00348086 -0.00266349 
-0.000703345 0.000241086 0.000174267 0.000272846 0.0253059 -0.00154535 -0.00730397 -0.000818004 8.092e-05 
2.69849e-05 -0.0521859 0.0394084 0.102449 0.0464123 0.000365458 6.60397e-05 0.0863679 -0.0316072 
-0.0357588 -0.0326341 -0.0387501 0.00113711 -9.90108e-05 -0.00353548 -0.00488723 -0.00036537 -0.00632339 
-0.00554273 0.000458421 0.000466856 -0.000339046 -0.000522995 -0.000345784 -0.00671801 -0.00462664 -0.000867889 
-0.00475411 -0.0112783 -0.0325893 -0.000480284 -0.000547024 0.0684003 0.0480195 -0.000487005 -1.77025e-05 
0.00169987 -0.000704785 -0.00813465 -0.00943634 0.0030639 0.100911 0.0997046 -0.0161214 -0.0161412 
-0.00374929 -0.00468763 -0.00402906 -0.00406323 -0.0061168 -0.00632298 -0.00441488 -0.00670072 -0.00704904 
0.0166299 0.000928913 -0.00455945 -0.00521164 0.0241988 0.0845896 0.0928349 0.0933887 0.109829 
-0.000844946 0.00389624 0.00118266 -0.000638493 0.0226936 0.000248753 -0.0020437 -0.00225399 0.111036 
0.111812 -0.000148268 -0.00232905 0.000945909 0.000482054 0.000710264 0.0223247 0.026012 -0.000422853 
0.0678921 0.0098671 0.0101453 0.011775 0.0118956 4.56184e-05 0.00155016 0.00109688 -0.00281571 
-0.0030108 0.00191265 0.00153034 0.00178228 0.00125156 0.00454565 0.00406897 -2.74899e-05 -0.000186983 
-0.000428178 -0.000459874 0.0773894 -0.00254597 -0.00767338 -0.000407146 -0.000122079 -3.42851e-05 -0.00697345 
-0.000513356 0.0922424 0.0833095 0.0933721 -0.00259589 -0.0013317 0.014538 -0.00138779 -0.00174427 
-0.00144923 -0.000323001 -0.00164536 -5.96361e-05 -4.40261e-05 0.000442057 0.000366557 0.000285803 0.00119713 
0.0015241 0.00382509 0.000886948 0.00218179 0.00183986 -0.0425668 -0.0297097 -0.0125051 -0.0128478 
-0.00238266 -0.0018498 -0.000123466 0.114736 -0.00707821 0.0849158 0.0786387 -0.0143578 -0.0119128 
0.0214926 0.0259635 0.0529443 0.110503 0.102181 0.0129447 -0.0007465 0.10362 0.113082 
-0.00707366 -0.00346058 -0.00701698 0.00675253 0.00524562 0.00555925 -0.00459321 -0.0031756 -0.00261017 
-0.006141 -0.00181686 -0.00166279 -0.00233372 -0.00510606 -0.00205446 0.0535572 0.0724646 -0.000634029 
-0.000792463 0.00283897 -0.00115699 0.0278913 0.0398382 0.00370985 0.114218 0.110068 -0.000439791 
0.00135761 0.00445684 0.0944087 0.137773 0.0755712 -0.00101234 0.0428923 -0.00503009 0.073413 
0.00561985 0.00312039 0.00476309 -0.00223914 -0.0267176 -0.00725632 -0.00660889 -0.0125632 0.000153996 
0.00227808 0.0106308 -0.0110765 -0.0114075 -0.00706975 -0.00670287 -0.000106641 -0.00166115 0.00028976 
0.000599038 0.000324204 0.00913604 0.00335911 0.00326283 0.0145278 -4.60364e-05 1.68913e-05 0.0159047 
-0.00117622 -0.000777825 0.000463123 0.000437866 0.000423225 -0.000506918 0.00120861 0.000477886 0.000141876 
3.73835e-05 0.00037486 4.49509e-05 0.000753218 1.00172e-05 -0.00447394 -0.00458141 -0.00508761 -0.00461622 
0.00240007 -0.00201969 -0.00329595 -0.00765189 -0.00705838 2.52328e-05 3.69513e-05 0.0889678 0.0819383 
0.0822004 0.0821001 0.0750004 -0.000524139 -0.0019453 0.0186228 0.0243729 0.027454 0.00031398 
0.000289397 0.000183715 -0.0324698 -0.0265552 -0.0250372 -0.0204242 -0.0154197 -0.0163667 0.00508083 
0.00509678 -0.00406126 -2.92267e-05 -0.00599826 0.0150534 -0.000547772 -0.00623417 8.98974e-06 -0.00780885 
0.00206229 0.000360091 -0.000253569 -1.13533e-05 0.0333432 0.0354968 0.0172856 0.0202491 -0.00502106 
0.0866248 0.05876 0.00670316 0.00320515 -0.00218842 0.0681342 0.0451559 0.0539346 -7.72213e-05 
-1.35919e-05 1.9946e-05 -0.000194697 0.000396064 -0.00409659 -4.02969e-05 -0.00162561 -0.00960924 -0.000931047 
-0.000692898 -0.0023833 -0.00266832 0.00220585 0.0353676 0.0244826 0.018308 -0.00130865 -0.0043386 
0.00725338 -0.0026205 0.000126696 0.00349558 -0.0121339 -2.6222e-05 -2.8433e-05 0.00203624 0.00158314 
-0.00263575 -0.00230282 -0.00186005 -0.00982201 0.00893428 0.00834614 0.00665927 0.00632256 0.0521061 
0.0215122 0.0154755 0.0138937 0.0637858 0.0616728 -0.00211468 -0.00290523 -7.17237e-05 -9.98065e-05 
3.28487e-05 6.09594e-05 -0.00119585 -0.00128663 -0.000937676 -5.60114e-05 1.75484e-05 3.02532e-05 0.0130278 
0.0750165 0.0187719 2.22874e-05 2.89751e-05 2.95176e-05 -0.0270616 -0.0217894 -0.0262181 -0.00791464 
-0.00224867 0.124989 8.03467e-06 0.00703505 0.00346983 0.00107289 0.0838183 0.0936994 0.00218356 
0.0139587 0.00539651 -0.0106981 0.0914573 9.80756e-05 0.000215099 0.0360361 0.0314836 -0.00390701 
-0.00367923 -0.00129891 -0.00262583 -0.031624 -0.00126249 -0.000737316 -0.00619106 -0.0065708 -0.00690937 
-0.000386034 -0.00816042 0.00023616 -1.35418e-05 0.000565537 8.02654e-05 0.000806368 -0.00762697 -0.000320027 
0.000180417 0.0591596 0.0549083 -0.000179848 1.77278e-05 0.00785164 -0.00206497 -0.00296107 -0.0399197 
-0.000233122 -0.000301466 -0.00135503 -0.000965803 0.0726654 0.00155041 -0.0219694 -0.00578236 -0.00455718 
0.000781736 -0.0025066 -0.00193845 -0.00591372 -0.00528663 -0.0056875 0.0231769 0.0313896 0.000394158 
0.0366742 0.00365957 0.0351664 -0.0191911 0.0288261 -0.00116604 -0.000938862 -0.000271124 -0.000142335 
0.00182876 -0.000216371 0.00280335 0.110008 0.114573 0.110296 0.000492216 0.0721153 -0.00392053 
0.000125323 0.000162871 -0.00875629 -0.00952614 -0.00785684 -0.00812599 -0.00202039 0.00337755 0.00504571 
0.00740977 -0.00501468 0.0391795 -0.0031514 0.00308685 -0.00516364 -0.000675467 -0.0119006 0.00149867 
0.00900286 -0.000598652 -0.00186095 -0.00340346 -0.00284157 0.100489 0.00039873 0.000237492 0.11217 
0.0223728 0.101501 0.0115854 0.016785 0.00737531 -0.00645882 -0.00887118 0.000317053 -0.00735013 
0.112504 2.71221e-05 -0.00203563 0.00213061 0.000665787 0.000447102 0.000472181 -0.00219769 0.00344845 
0.0052245 -0.0046884 0.0388887 0.0296061 0.0446771 -0.0252383 -0.0292767 0.00238378 0.00363515 
-0.0113968 0.0320042 0.00413719 -0.000240101 0.000572479 0.000465211 0.0271868 0.0243998 0.0758677 
0.0753943 0.109595 -0.00906068 -0.00826915 -0.0237059 -0.00943487 -0.00866238 0.00363099 5.27191e-05 
0.0630939 -0.00905217 -6.28188e-05 -0.00329854 -0.00344329 0.00633263 0.000900555 0.00103037 -0.000240431 
0.0789566 0.0926932 -0.00485219 -0.00575604 -0.00532255 0.0193784 -0.00584858 -0.00185633 -0.00716055 
0.093505 0.0985961 0.0673074 -0.00809264 0.00235857 -0.0062631 0.00159657 -0.00245173 -0.00668942 
-0.00895862 1.13313e-05 9.69107e-05 3.49619e-06 -0.00490884 4.59042e-05 -2.48699e-05 -0.00640541 8.61922e-06 
-6.46065e-05 0.00060915 0.00135506 0.0910678 -0.00711658 0.101603 -0.00251192 -0.00267371 -0.0230465 
0.000743588 0.00187411 0.00509982 0.0111455 0.013651 -0.0010835 0.0981624 -0.00853922 0.0046329 
0.00773652 0.00335231 -2.58868e-05 0.0203912 0.0782914 0.0956903 0.109997 0.0254788 -0.00433436 
-6.69917e-05 0.0148022 0.00255365 0.00444986 -0.00594311 -0.00212511 -8.54151e-05 0.0605735 0.0527024 
0.00761428 -0.00217589 -0.00316878 -0.00150987 -0.00179424 0.00235355 -0.0015166 -0.031264 -0.0166686 
-0.00208952 -0.000122863 0.00887812 0.00672357 0.00542532 -0.000685613 -0.00082611 0.000248599 0.000909623 
0.000945161 0.0123679 -0.00535915 -0.000400377 2.43104e-05 0.00743682 0.00606965 -0.00117275 -0.00107733 
0.00117829 0.102708 0.117371 0.108783 0.000742595 -0.0153286 -0.01338 -0.00693587 -0.0290474 
0.00270003 0.000175866 -0.00150487 0.0743164 0.0817443 0.0959189 0.000881299 -0.010326 -0.010165 
-0.0202309 -0.000594529 0.0109137 0.0601095 0.023525 0.0863519 0.0146413 0.0495683 0.0485079 
-0.0191591 -0.000181311 0.000216668 0.0141564 -0.0070714 -0.00394926 0.0225489 -0.00074033 -0.0042586 
-0.00465622 -0.00123965 -0.000706258 0.00664868 0.00558404 6.69792e-05 0.00457711 -0.000850867 -0.000801467 
0.00803407 -0.0124867 0.000925412 -0.00196516 -0.00127134 -0.000443476 0.000500664 -0.00394229 -0.000100014 
-0.00276788 0.0717186 0.0219594 3.06653e-05 0.000373581 0.0394259 -0.0402306 -0.00461526 -0.00443758 
-0.00461872 -0.00467565 -0.0328851 -0.00348441 6.71647e-05 0.0890485 0.0282362 -0.0058137 0.0261355 
9.40606e-05 0.000794036 0.086662 -4.57663e-05 0.112465 0.0347388 -0.00747995 -0.000410502 -0.00373432 
0.0713652 0.00232058 -0.00186664 -5.23966e-05 -0.00138528 0.0155607 -0.00862554 0.0600207 -0.0276742 
-0.03455 -0.00236325 0.00517951 0.0955821 -0.000247581 -0.00211584 2.67628e-05 -0.010222 0.000718244 
-9.0226e-05 0.109368 -0.00725423 0.0419737 -0.00516458 0.0746026 -0.000121962 -6.11882e-05 0.115175 
0.0706601 -0.00767254 -2.98e-05 2.81866e-05 -0.017672 -0.00110344 -0.000256046 -0.00494333 
Stress%20xy%20component 1 9350 double
-0.217941 -0.236343 0.243934 0.221591 -2.95783e-05 -2.27365e-05 7.79388e-07 3.5235e-06 -0.108868 
-0.0646619 -0.0203767 -0.0252089 0.0667646 0.0268824 -0.126136 -0.153661 -0.124286 -0.093065 
-0.0685793 -0.0598958 -0.0488088 -0.0395048 -0.0342853 -0.0211886 -0.0171116 -0.00970201 -0.00223502 
0.00345305 0.00873402 0.0159537 0.0227986 0.0271344 0.0399517 0.0444062 0.0539102 0.0623202 
0.0834774 0.125306 -0.122106 -0.0776403 -0.067218 -0.0542496 -0.0492543 -0.0452064 -0.0420911 
-0.0334285 -0.0230897 -0.0132422 -0.0117702 -0.0103775 -0.00840268 0.00269319 0.0125363 0.0138665 
0.0157455 0.0183984 0.0271527 0.0374711 0.0487641 0.0515807 0.0539614 0.0669564 0.0819906 
0.115777 1.13227e-05 3.76014e-06 -8.90561e-06 -7.53443e-06 -4.53484e-06 -1.43685e-05 -1.86314e-05 -3.51025e-05 
-3.28486e-05 -3.06698e-05 -4.59587e-05 -3.95075e-05 -4.69775e-05 -4.85723e-05 -2.85199e-05 -2.07097e-05 6.07933e-06 
2.01005e-05 1.74347e-05 3.36929e-05 5.32994e-05 3.98154e-05 4.57238e-05 4.6147e-05 2.80239e-05 3.39825e-05 
-6.89928e-05 0.000182922 -0.00330279 -0.00156734 -0.000704625 -0.000368713 -0.000459167 -0.000486048 -0.000319535 
-0.000227006 -0.000179116 -0.000177286 -0.000127504 -0.000134252 -0.000114498 -0.000104193 -9.10682e-05 -5.94616e-05 
-6.47846e-05 -6.98943e-05 -7.75457e-05 -5.50215e-05 -3.37561e-05 -3.31394e-05 -3.99105e-05 -4.63019e-05 -1.02009e-05 
2.834e-07 1.56167e-05 5.21259e-06 7.86301e-06 2.1356e-05 1.38615e-05 1.17207e-05 1.25649e-05 8.22733e-06 
3.96796e-07 -1.06324e-05 -7.30396e-06 -7.41227e-06 -1.42437e-05 -1.34594e-05 -1.19683e-05 -1.08116e-05 2.44106e-06 
1.4613e-05 -0.000109588 -2.00892e-05 5.15686e-05 0.000105264 7.58626e-05 -0.000154736 -0.000731702 -0.000568559 
7.6685e-05 0.000381205 0.000682928 0.00124747 0.000127726 -0.00111678 -0.000561636 -0.000159905 0.000228095 
0.000340928 0.000352091 0.000326325 0.000795512 -0.000658467 0.000536987 -0.0132103 0.018685 -0.0962898 
-0.0968854 -0.193715 -0.203538 -0.202731 -0.167206 -0.182423 -0.15879 -0.0824379 -0.024574 
-0.145711 -0.113762 -0.116292 -0.12784 -0.068393 -0.0721738 -0.116053 -0.0446772 -0.065105 
-0.131074 -0.147851 2.00836e-05 3.3754e-06 6.8078e-06 -2.8032e-06 1.25378e-07 -1.89092e-05 -2.39186e-05 
-2.59675e-05 -3.72207e-05 -4.43895e-05 -4.52743e-05 -5.06308e-05 -1.54431e-05 4.96494e-05 3.88707e-05 4.83689e-05 
7.4187e-05 7.85091e-05 6.82464e-05 6.11062e-05 -4.4031e-05 -6.1509e-05 0.017285 -0.00434636 -0.000555747 
-0.000420887 -0.000119592 -0.000106644 -9.94563e-05 -0.000101887 -7.26352e-05 -8.36307e-05 -6.30851e-05 -5.27215e-05 
-4.01807e-05 -3.22381e-05 -3.27944e-05 -2.38795e-05 -1.05482e-05 -1.68185e-05 -1.32654e-06 1.23479e-05 7.21945e-06 
2.54158e-05 2.56324e-05 3.88243e-05 3.46605e-05 3.49189e-05 2.83994e-05 2.56448e-05 5.58245e-06 9.07844e-06 
-7.75853e-06 -5.55374e-06 -5.23469e-06 -1.20215e-06 8.33015e-06 2.54341e-05 -6.04087e-05 2.86386e-06 4.38392e-05 
9.47466e-05 9.93507e-05 8.80369e-05 -0.000436064 -0.000770844 -0.000445331 0.000164439 0.000862535 0.00144171 
0.00151698 0.000935063 -0.000868328 -0.000778036 -6.90777e-05 0.000219189 0.00041007 0.000504508 0.0008172 
0.000859445 0.00274533 0.00250957 -0.0211162 -0.0693508 -0.0997387 -0.163967 -0.154143 -0.123339 
-0.125728 -0.164767 -0.0872032 -0.106758 -0.099579 -0.0727982 -0.0929263 -0.061085 -0.0604236 
-0.0983273 -0.136022 -0.142732 -0.0676076 -0.142974 -0.176157 -0.102212 -0.0595904 -3.10948e-05 
-0.000128264 -0.000247933 -0.000389832 -0.000548399 -0.000697085 -0.000865222 -0.00103949 -0.00119799 -0.00127189 
-0.00131204 -0.00127573 -0.00113198 -0.000859339 -0.000508583 -5.07861e-05 0.000379401 0.000834025 0.00122083 
0.0014613 0.00159397 0.00157279 0.00139814 0.00113768 0.000855617 0.000412845 0.0641264 0.0241178 
0.0137636 0.00693825 0.00343179 0.00136115 -9.31304e-05 -0.000986051 -0.00156689 -0.00199372 -0.00227916 
-0.00237085 -0.00241334 -0.00238504 -0.00231851 -0.00217451 -0.00207973 -0.00192756 -0.00175868 -0.00158812 
-0.00139457 -0.00112787 -0.000898326 -0.000641976 -0.000354411 -8.91286e-05 0.000149229 0.000363045 0.000510779 
0.000606752 0.000631007 0.000604231 0.000525127 0.000389514 0.00025143 0.000107259 -3.9304e-05 -0.000149826 
-0.00023171 -0.000270438 -0.000262319 -0.000214769 -0.000134856 -5.17806e-05 0.00158824 0.0023428 0.00235611 
0.000932862 -0.00127395 -0.00165364 0.00226674 0.00718459 0.0098036 0.00934466 0.00517058 -0.00662901 
-0.00880666 -0.00507148 -0.000936915 0.00139359 0.00161646 -0.000358632 -0.00494516 -0.0163925 -0.0258223 
-0.0480633 -0.0993338 -0.0800355 -0.0707265 -0.059044 -0.0483273 -0.0388628 -0.0307072 -0.0271032 
-0.0241528 -0.0178378 -0.00986332 -0.00215692 0.00127503 0.00327656 0.0084677 0.01694 0.0246627 
0.0309497 0.0342436 0.0376732 0.0459967 0.0577459 0.0708632 0.0804896 0.0949551 -0.0245924 
0.0221013 0.0498766 0.04919 0.0422889 0.0375182 0.0343753 0.0313593 0.0297115 0.0249521 
0.0291866 0.0186001 -0.0422642 -0.0187798 -0.0048354 0.0230419 0.0410052 0.0499479 0.053012 
0.0525996 0.0475948 0.0366127 0.0302364 0.0183396 0.00446858 0.000711388 -0.0484754 0.0477884 
0.00682721 -0.015569 -0.00641027 0.0156976 -0.000352059 -0.000592679 -0.000836396 -0.00111127 -0.00143122 
-0.00171725 -0.001987 -0.00220114 -0.00230062 -0.00227429 -0.00210732 -0.00178945 -0.00124604 -0.000502843 
0.000298985 0.00109196 0.00189144 0.00247426 0.00278183 0.00286 0.00267059 0.00234361 0.00187514 
0.00349547 0.0366622 0.0219631 0.0129701 0.00744741 0.00343278 0.000809983 -0.000935591 -0.00214375 
-0.00296821 -0.00350546 -0.00379376 -0.0039455 -0.00395264 -0.0038776 -0.00372056 -0.00355968 -0.00330582 
-0.00296297 -0.00262419 -0.00223999 -0.00178759 -0.00134724 -0.000867932 -0.000387031 5.04499e-05 0.000447548 
0.000760035 0.000981256 0.00107894 0.00107137 0.000970192 0.000791214 0.000560407 0.000299347 3.68821e-05 
-0.000197444 -0.000371035 -0.000471618 -0.000500212 -0.000452356 -0.000364204 -0.000219617 -0.0636169 0.0588413 
0.00425392 0.00399647 0.00195732 -1.6052e-05 0.00338494 0.0108607 0.0156175 -0.0148414 -0.00862505 
-0.00246301 0.000837924 0.00146261 -0.00100119 -0.00689737 -0.0170999 -0.031494 0.018633 0.0128358 
-0.0618795 -0.0558765 -0.0487387 -0.042304 -0.0362423 -0.0293598 -0.0225579 -0.016769 -0.0121899 
-0.00713263 -0.0022902 0.00318296 0.00856445 0.0132979 0.0184592 0.0230345 0.0301082 0.0369215 
0.0443215 0.0512031 0.0610148 0.0688699 -0.021093 0.0140064 0.0270257 0.0258834 0.0254688 
0.0251571 0.0226153 0.0206109 0.0142916 0.0253518 0.01897 0.0346863 0.0029985 0.0264882 
0.00172944 0.0342413 -0.0223458 0.0254373 0.0303512 0.000139718 0.0146044 0.0319459 0.0310732 
0.0122379 0.0240156 -0.00747966 -0.0234005 0.00148221 0.0120583 -0.0151074 -0.000941903 -0.00129553 
-0.00168621 -0.00212591 -0.00253935 -0.00286375 -0.00307354 -0.00315125 -0.0030335 -0.00276707 -0.00224913 
-0.00130488 -0.000245382 0.000941122 0.00211134 0.00311764 0.00375045 0.00397644 0.00380912 0.00341883 
0.00626443 -0.000582381 0.0249225 0.015895 0.0100715 0.00506536 0.00170815 -0.000570813 -0.00223373 
-0.00341139 -0.0042002 -0.0046377 -0.00485762 -0.00493403 -0.00486611 -0.0047041 -0.00446804 -0.00412029 
-0.00368529 -0.0032046 -0.00266685 -0.00207132 -0.00146684 -0.0008267 -0.000191599 0.000365309 0.000832074 
0.00118719 0.00140608 0.00147021 0.00138681 0.00118784 0.000896332 0.000531854 0.000144934 -0.000205011 
-0.000473115 -0.000663408 -0.000755848 -0.000736532 -0.000612161 0.00541826 0.00450368 0.00688048 -0.00965982 
-0.0426202 0.0538159 -0.00063037 -0.00596419 -0.0145665 -0.0250637 0.0172594 0.00390175 0.0105063 
-0.0157086 -0.0470676 -0.046456 -0.0401759 -0.0353237 -0.0300565 -0.0238785 -0.0181984 -0.0134232 
-0.0085922 -0.00375888 0.000843247 0.0056217 0.0105059 0.0151631 0.0200437 0.025423 0.0311527 
0.0373367 0.0429816 0.0489342 0.00159415 0.0384142 0.00772974 0.0187179 0.0136161 0.0112055 
-0.00198666 0.0213715 0.00521933 0.0213553 0.0185443 -0.00238349 0.00551814 0.023067 0.0152599 
0.00194062 0.0231236 0.00302793 0.00642247 0.0195395 0.00549742 0.0131841 -0.0141358 0.0136228 
0.00153056 0.0144976 -0.00805658 0.00714031 -0.00169393 -0.00220453 -0.00274418 -0.00328378 -0.00367771 
-0.00390105 -0.00394584 -0.00373494 -0.00353775 -0.00258935 -0.00113066 0.000305855 0.00190248 0.00338102 
0.00450815 0.00500593 0.00480167 0.00445123 0.00944859 0.000707589 -0.00392104 0.0173229 0.0111971 
0.0061446 0.00239621 -0.000169298 -0.00211918 -0.00354071 -0.00442939 -0.00499389 -0.00530993 -0.00544082 
-0.00538289 -0.00519346 -0.00489487 -0.0044741 -0.00397158 -0.00339857 -0.00273358 -0.00203896 -0.0012897 
-0.000531748 0.000196017 0.000820896 0.0013351 0.00168845 0.00182158 0.00178851 0.00156644 0.00122371 
0.000776514 0.000274396 -0.000216826 -0.000615977 -0.00088794 -0.00105598 -0.00105981 0.0136596 -0.00590064 
0.0155398 0.00534835 0.015023 -0.0367517 -0.0109187 -0.0194315 -0.0106599 0.00101313 -0.0296402 
-0.0280884 -0.024087 -0.0190564 -0.0143379 -0.00998844 -0.0054031 -0.00110937 0.00317201 0.0073794 
0.0115896 0.0156578 0.0201099 0.0248074 0.029172 0.0334085 0.0357588 0.016279 0.00443627 
0.0136985 -0.00127927 0.0113793 0.0153128 -0.000899891 0.00389985 0.0145018 0.00824001 0.00389463 
0.0241854 0.0110949 0.00548577 0.010412 -0.00887035 0.00510655 0.0134379 0.00580853 0.00763499 
-0.00254154 -0.00325274 -0.00397815 -0.00447703 -0.00462698 -0.0050634 -0.00459046 -0.00242705 -0.00077059 
0.00110438 0.00309163 0.00611232 0.00752335 0.00700542 0.0178358 0.0113084 0.00632726 0.00277101 
6.78937e-05 -0.00194172 -0.00338314 -0.00430351 -0.00492644 -0.00530357 -0.00544531 -0.00539283 -0.00521045 
-0.00487691 -0.00441558 -0.0038801 -0.00324088 -0.00250795 -0.00169456 -0.000861241 3.31641e-06 0.000778972 
0.00145272 0.00197317 0.00221523 0.00217749 0.00194233 0.00153267 0.00103459 0.000432502 -0.000235969 
-0.000815235 -0.00120072 -0.00143435 -0.0014611 -0.00708921 0.0257398 -0.00081801 0.00986712 -0.0083464 
-0.00681545 -0.0136459 -0.00574159 0.00302019 -0.0208551 -0.0145378 -0.0101445 -0.00683152 -0.00296605 
0.000892705 0.0045783 0.00821435 0.0110289 0.0143902 0.0180585 0.021395 0.0242878 0.0085984 
-0.00195208 0.0109406 0.00354062 0.0117057 0.00542418 -0.00115187 0.00518218 0.00546579 -0.00634204 
0.00396135 0.0121956 0.00657405 0.00433239 0.0119671 -0.00287562 0.00191834 0.00964489 -0.00365832 
-0.00527179 -0.00256259 -0.0048707 0.00471967 0.0105788 0.00603347 0.00273192 0.000157544 -0.00177471 
-0.00301552 -0.00389935 -0.00447653 -0.00485222 -0.00510404 -0.00494056 -0.00474366 -0.00443797 -0.00399641 
-0.00347734 -0.00278128 -0.00193935 -0.00110515 -0.000191161 0.000707753 0.00157784 0.00237001 0.00275327 
0.00270565 0.00233895 0.00180324 0.0009849 -0.000329586 -0.00104142 -0.00164927 -0.00190919 0.0168642 
0.00440605 -0.00424281 -0.00495815 -0.00112913 0.00209666 0.00584952 0.00893639 0.0120826 0.0147032 
0.00506005 0.00842785 0.00650494 -0.00478838 0.000746184 0.00491745 0.00262932 -0.00259336 0.00204147 
0.0108035 -0.00874651 0.00127362 0.00768586 0.00409992 -0.00166148 0.00344882 0.00270715 -0.00275774 
0.00362524 0.000789536 0.00934857 0.0052532 0.00237757 0.000202007 -0.00132565 -0.00245334 -0.00317741 
-0.00358855 -0.00411841 -0.00399806 -0.00391736 -0.00364292 -0.00320266 -0.00279023 -0.00194576 -0.00106271 
-0.00030993 0.000685394 0.00153543 0.00262901 0.00368628 0.00337024 0.00260648 0.00090253 -0.00217622 
0.00356712 0.00902809 0.00228448 0.00216264 0.000652009 0.000555603 0.00734951 -0.000614628 0.00187691 
0.00482133 0.00135143 0.00525713 -9.00233e-06 0.00280212 0.00223878 -0.00183618 -0.00225507 -0.00260165 
-0.00183087 0.00196076 0.000594109 0.000949393 0.000581442 0.000130369 0.00413683 0.00186503 0.000514737 
-0.000670889 -0.00170253 -0.00173359 -0.00284964 -0.00226426 -0.000837309 0.000851518 -0.00037424 -0.00120939 
0.000882088 -0.00025984 -5.52593e-05 -0.000189717 -0.000339929 -0.000579517 -0.00084747 -0.00113108 -0.00135931 
-0.00153935 -0.00158443 -0.00149012 -0.00119313 -0.00067115 3.92762e-05 0.000740603 0.00136837 0.00187351 
0.00204962 0.0019898 0.00172905 0.00120051 0.000407316 0.0773581 0.0270376 0.0118602 0.00507901 
0.00169649 -7.30268e-05 -0.00119624 -0.00190499 -0.00236837 -0.00253919 -0.00255289 -0.00253949 -0.00243821 
-0.00222529 -0.00203933 -0.00180945 -0.00146238 -0.00110806 -0.00075783 -0.000397251 -4.9234e-05 0.000282343 
0.00054397 0.000698594 0.000737841 0.000674857 0.000521814 0.000308865 8.44314e-05 -0.000103455 -0.000229656 
-0.000292865 -0.000280687 -0.000191618 0.000503937 0.000942537 0.00186253 0.00234518 0.00187593 -0.00142389 
-0.000700563 0.00432722 0.0092849 0.0118549 0.0110517 -0.00797817 -0.00857974 -0.00362627 9.65319e-05 
0.00170545 0.00128285 -0.000917991 -0.0052698 -0.0129719 -0.0298656 -0.0588875 -0.097247 -0.0778978 
-0.0643324 -0.0524811 -0.0444826 -0.0366245 -0.0272171 -0.0186637 -0.0133475 -0.00707123 -0.000920788 
0.00660058 0.0123267 0.0187476 0.0243718 0.0330016 0.0426246 0.0507749 0.0604258 0.0742742 
-0.00821823 0.0167079 0.0476544 0.0449419 0.0414835 0.0363915 0.0328824 0.03035 0.0284887 
0.0242507 0.0227616 0.0176548 -0.048074 -0.0202042 -0.00156058 0.0256331 0.0417041 0.0497895 
0.0528796 0.0480963 0.0434075 0.0427522 0.0310789 0.0177172 0.00212487 0.0015605 0.00341762 
0.0529056 -0.06898 0.00467383 0.00984679 -0.0203652 -0.00305729 -0.000493296 -0.000351481 -0.00123258 
-0.00170447 -0.00219031 -0.00256474 -0.00276172 -0.00274419 -0.00238546 -0.00165976 -0.000599583 0.000647666 
0.00181465 0.00284343 0.0034129 0.00348778 0.00325293 0.00278897 0.00179797 0.0144306 0.0167795 
0.0310877 0.0563753 0.00838844 0.00325783 0.000377767 -0.00148435 -0.00279867 -0.00360578 -0.00405762 
-0.00420665 -0.00411277 -0.00393528 -0.00367379 -0.00327048 -0.00280098 -0.00223434 -0.00165633 -0.0010451 
-0.000388173 0.000177961 0.000687125 0.00104209 0.00122193 0.00120947 0.000998654 0.000677167 0.000290138 
-5.88903e-05 -0.000324339 -0.000501705 -0.000555723 -0.00049909 0.0036314 0.00390352 0.00423672 0.00593388 
0.00124012 0.0184975 -0.00565706 -0.0143281 0.00138084 0.00109307 -0.00203727 -0.00769157 -0.0177476 
-0.0344407 -0.0569564 0.0358242 0.0204071 -0.0543025 -0.0454875 -0.0373956 -0.0292347 -0.0226106 
-0.0160242 -0.00939045 -0.00298687 0.00282633 0.00900088 0.0152982 0.0216182 0.0288419 0.0354081 
0.0429357 0.0513146 0.0595329 -0.0195898 0.00483591 0.0190172 0.0245658 0.0283719 0.0249965 
0.0240245 0.0192681 0.0230021 -0.000453679 0.0271928 0.0167599 0.0316188 0.0353617 0.0184215 
0.0250699 -0.000817437 -0.000941267 0.0169417 -0.0239948 0.033219 0.0131452 0.0215474 0.0121703 
0.00640452 -0.0138727 0.00224285 -0.0309842 -0.0109313 0.0232683 0.0249895 -0.0225271 0.00806249 
-0.00312803 -0.00186449 -0.00356788 -0.00376248 -0.00359376 -0.00291829 -0.00170043 -4.08151e-05 0.00164324 
0.00328913 0.00439816 0.00475491 0.00447573 0.00438382 0.00888316 -0.000723167 0.00033383 0.0171683 
0.0431087 0.000948946 -0.00142106 -0.00315694 -0.00424282 -0.00482329 -0.00508532 -0.00506266 -0.00483901 
-0.00443617 -0.00393662 -0.00330638 -0.00257123 -0.00176361 -0.000900433 -0.000130529 0.000605422 0.0011703 
0.00152856 0.00160277 0.00144323 0.00106441 0.000559859 4.20058e-05 -0.000360062 -0.000658146 -0.000819336 
0.0128 0.00419947 0.00567167 -0.00252686 0.000652752 -0.001752 0.00148029 -0.0153701 -0.0277854 
-0.041977 -0.0296996 -0.0233463 -0.0173834 -0.011654 -0.00571977 8.26642e-05 0.0056577 0.0111483 
0.0168492 0.0223132 0.0284882 0.0347064 0.040738 0.00662845 0.00224006 0.0165784 -0.0363141 
0.0151469 0.0157914 -0.00757475 -0.017796 -0.00352638 0.0281214 0.00386412 0.0226849 0.00929153 
0.0246125 0.0186927 0.0127236 0.0240144 -0.0012472 -0.0194214 0.00503964 0.007814 -0.000838383 
0.005252 -0.00126719 0.013815 0.0212535 0.0467195 0.0178028 -0.00392566 -0.00440111 -0.00326258 
-0.00137005 0.00090858 0.00303515 0.00555349 0.00590049 0.00569748 -0.00936916 0.00899542 -0.00120399 
0.0016626 -0.00440783 -0.00508008 -0.00540218 -0.005393 -0.00513417 -0.00467605 -0.00407945 -0.00335435 
-0.00249068 -0.00148596 -0.000491904 0.000385921 0.00118813 0.00173153 0.00196672 0.00184853 0.0014607 
0.000843981 0.000148099 -0.000410718 -0.000824604 -0.00110218 0.0153716 -0.000272024 0.00442056 -0.0299128 
-0.0213423 -0.0128425 -0.0173352 -0.0221159 -0.00753768 -0.00271667 0.00234863 0.00713845 0.0118365 
0.0162313 0.021017 0.0260523 0.030492 -0.00473623 -0.00450258 0.0050604 -0.0132048 0.00532576 
-0.00317312 -0.00659802 0.00500047 0.0166665 0.0128121 0.0352967 -0.0108302 0.00493386 -0.0054302 
0.0136332 0.00475237 0.0116315 -0.00117457 0.00312383 -0.00242361 0.00605682 -0.00317873 -0.00170859 
0.00493662 -0.013056 0.0127732 0.00913902 -0.0277254 0.0166255 0.023488 0.0150836 0.00950339 
-0.00551943 0.00343902 0.000916861 -0.00605654 0.00198626 0.00097215 -0.00478958 -0.00411201 -0.00518145 
-0.00491514 -0.00442911 -0.00379364 -0.00299488 -0.00198731 -0.000907674 0.00013148 0.00112467 0.00189419 
0.00233027 0.00231967 0.00188537 0.00114983 0.000226844 -0.00056684 -0.00111896 -0.00138353 0.00185823 
-0.00513847 -0.0121212 -0.0209721 -0.0046693 0.0150998 -0.00888202 -0.0139572 0.0052795 -0.000671006 
0.00344195 0.00715009 0.0106065 0.0138705 0.0171672 0.0202419 -0.00600835 0.00621585 -0.00339462 
-0.00063684 0.00841663 0.0102928 0.00843082 -0.00357027 -0.00466136 0.00379269 -0.00104936 0.00991068 
0.0105248 -0.00298444 -0.00221806 -0.00266466 0.0128304 0.011643 0.00350198 0.00560184 0.00910864 
-0.00361336 -0.0019371 -0.00739699 -0.00888658 -0.00557415 0.0114051 0.00652453 0.00194563 -0.00713282 
0.00960001 -0.00535776 -0.00423962 -0.00462189 -0.00306245 -0.002239 -0.00121359 -4.30802e-05 0.00106418 
0.00208881 0.0028049 0.00291009 0.00245169 0.00150919 0.000211262 -0.000901025 -0.00166032 -0.0027086 
-0.00739284 0.000588499 0.011899 0.00459058 0.00623079 0.00307014 0.00303359 0.00550461 0.00783374 
0.00995418 0.0119013 0.0045455 0.0052819 0.00576287 -0.00551068 -0.0037416 -0.00327775 0.00452158 
-0.00101117 0.00168442 0.00602054 -0.00223633 -0.00443597 0.00031748 -0.0036822 0.00365786 0.00295945 
0.00711584 -0.00831513 0.00220954 -0.0029557 -0.0040139 0.00602914 0.00384446 -0.00101389 -0.00185498 
0.00120867 0.0034754 0.00323606 0.00205559 -1.34284e-05 -0.00160316 -0.00248161 -0.00100771 0.00181527 
0.00449684 0.00473187 -0.00251987 0.00313626 -0.000174633 -0.00339537 -0.00294087 0.000100227 0.00206453 
-0.00122974 0.00710785 0.00218588 0.00371096 0.00119695 0.00150808 0.00310248 0.0026734 -0.00217222 
-0.00300261 0.00314308 0.000463442 0.000595251 -0.000811023 -0.00282747 0.00240415 -0.000494855 -0.00027883 
0.00192779 -0.0014694 0.000719503 -0.000874243 1.05681e-05 0.000368276 0.0515729 0.0289307 -0.237944 
0.244538 -0.180255 -0.103884 -0.0798606 -0.0671972 -0.0549093 -0.0436904 -0.0346836 -0.0279096 
-0.0215392 -0.0137954 -0.00535014 0.00156379 0.00334179 0.0126777 0.0203221 0.0278082 0.0335703 
0.0392696 0.0489118 0.0598965 0.0736391 0.0996834 0.176354 -0.17224 -0.0968956 -0.0722861 
-0.0586546 -0.0512403 -0.0475862 -0.0441367 -0.0392903 -0.0276375 -0.0158217 -0.0125947 -0.0115678 
-0.0101712 -0.00467739 0.00914093 0.0128028 0.0139335 0.0152578 0.0205174 0.0330694 0.0446827 
0.049014 0.0521526 0.0570028 0.0738022 0.0916433 0.182859 9.73935e-06 7.86315e-06 -5.50518e-06 
-8.56639e-06 -7.4682e-06 -6.82022e-06 -1.7572e-05 -2.87672e-05 -3.7822e-05 -3.46478e-05 -3.65966e-05 -4.3143e-05 
-4.48749e-05 -5.45094e-05 -4.5923e-05 -2.68041e-05 -7.77702e-06 1.61996e-05 2.34261e-05 3.10718e-05 4.18324e-05 
4.618e-05 4.93223e-05 5.51995e-05 4.19776e-05 3.19798e-05 -2.95802e-05 -5.18318e-05 0.11913 -0.000481321 
-0.00165764 -0.00139812 -0.000585541 -0.000383295 -0.000479715 -0.000419124 -0.000299658 -0.000230123 -0.000168443 
-0.000146684 -0.00013457 -0.000138359 -0.000120325 -9.39638e-05 -7.24542e-05 -6.52835e-05 -7.47608e-05 -7.88272e-05 
-6.66114e-05 -3.75403e-05 -3.69943e-05 -3.9286e-05 -4.59614e-05 -3.13463e-05 -3.25297e-06 1.06581e-05 1.49444e-05 
9.44744e-06 1.18694e-05 1.81641e-05 1.62066e-05 1.62138e-05 1.17656e-05 5.38852e-06 -6.84376e-06 -9.15775e-06 
-7.21025e-06 -9.25515e-06 -1.46671e-05 -1.41786e-05 -1.18459e-05 -4.63061e-06 1.17497e-05 6.95841e-06 -3.41044e-05 
-7.31488e-05 2.18506e-05 8.70493e-05 0.000103116 -6.38011e-06 -0.000452161 -0.000681925 -0.00034567 0.000174973 
0.000530459 0.00106228 0.000719356 -0.000522178 -0.000741949 -0.000363294 -1.23618e-05 0.000274209 0.000355472 
0.000341561 0.000394781 0.000286126 0.000241012 -0.00595192 -0.100516 -0.0754542 0.0542459 -0.0648415 
-0.115574 -0.145924 -0.237764 -0.24146 -0.166132 -0.221531 -0.145572 -0.106014 -0.0483468 
-0.0160911 -0.082555 -0.217657 -0.154679 -0.143426 -0.152478 -0.0986564 -0.101709 -0.10864 
-0.0565238 -0.0567562 -0.0979496 -0.15137 -0.146018 1.08444e-05 1.35082e-05 7.64283e-06 1.27558e-06 
-9.68382e-06 -1.06413e-05 -2.18602e-05 -3.27235e-05 -3.63514e-05 -4.70906e-05 -5.49243e-05 -4.60212e-05 -3.47965e-05 
7.30648e-06 3.44773e-05 5.97298e-05 7.27103e-05 8.57812e-05 8.64151e-05 6.46391e-05 1.74994e-05 -6.05788e-05 
-4.2568e-05 0.10493 0.00205699 -0.00222282 -0.000591994 -0.000409094 -0.000162054 -0.000134734 -0.000130538 
-0.000137438 -8.55159e-05 -9.12873e-05 -7.14455e-05 -6.21697e-05 -4.59409e-05 -4.63821e-05 -3.66008e-05 -2.61407e-05 
-2.75983e-05 -1.37842e-05 4.07622e-06 1.43809e-05 1.45426e-05 2.08413e-05 3.47483e-05 4.28593e-05 3.87185e-05 
3.49271e-05 2.65302e-05 1.57132e-05 1.27741e-05 -7.36686e-07 -9.62924e-06 -7.00521e-06 -5.21563e-06 2.78198e-06 
1.8551e-05 1.33233e-05 -2.6523e-05 -4.94071e-05 2.46375e-05 8.48819e-05 0.000102653 6.89289e-05 -0.000191759 
-0.00065552 -0.000627602 -0.000174276 0.00058987 0.00109965 0.00153039 0.00161529 7.79392e-05 -0.000943455 
-0.000432915 5.98177e-05 0.000314853 0.000443595 0.000592292 0.00080449 0.00158273 0.00166097 -0.00349082 
-0.124753 -0.124426 -0.0238085 -0.127444 -0.121717 -0.213705 -0.157239 -0.162395 -0.159443 
-0.148608 -0.0797312 -0.11259 -0.107097 -0.0534255 -0.0771139 -0.184889 -0.0974913 -0.0870933 
-0.091769 -0.162893 -0.173243 -0.118396 -0.0600248 -0.172026 -0.155782 -0.0888168 -0.0685872 
-1.39969e-05 -1.93519e-07 -0.14637 -0.0854483 -0.0186266 0.0529852 -0.179862 0.18957 -0.122229 
-0.101745 -0.0864374 -0.0784108 -0.0663135 -0.0613253 -0.0576754 -0.0535977 -0.0498359 -0.0462169 
-0.0431164 -0.0401659 -0.0389819 -0.0285895 -0.02079 -0.0164343 -0.0157596 -0.0136324 -0.0116361 
-0.00914645 -0.00694632 -0.00469142 -0.00265903 0.00867289 0.00984303 0.0122946 0.0140523 0.0165817 
0.0187165 0.0209009 0.0223888 0.0323554 0.0400241 0.044858 0.045828 0.0489994 0.0518533 
0.0552303 0.0571388 0.0626824 0.0745286 0.0918037 0.121582 -0.0349768 0.00209453 0.0259215 
0.0818337 1.12931e-05 -8.33445e-06 -1.99607e-05 -5.69046e-05 -6.93547e-05 -8.16786e-05 -0.000123001 -0.000129618 
-0.000187736 -0.000196197 -0.000201143 -0.00031833 -0.000276572 -0.000288355 -0.000471552 -0.000350599 -0.000362668 
-0.000620289 -0.000436815 -0.000450505 -0.000781907 -0.000532598 -0.000540224 -0.000955704 -0.00061505 -0.000625782 
-0.00112562 -0.000651526 -0.000666622 -0.00123814 -0.000679721 -0.000676844 -0.00129638 -0.000666158 -0.000658391 
-0.00129867 -0.000592546 -0.000583199 -0.00121689 -0.000455979 -0.000434269 -0.00100792 -0.000278555 -0.000247019 
-0.000690751 -5.75661e-05 -1.24322e-05 -0.000283678 0.000174905 0.000204255 0.000165917 0.000415692 0.00043798 
0.000609287 0.00061371 0.000650866 0.00103883 0.000741168 0.000770617 0.00134824 0.000818477 0.000817962 
0.00153695 0.000815917 0.000804751 0.00159224 0.000723354 0.000715232 0.00150092 0.000591228 0.000569947 
0.00128042 0.000451134 0.000423544 0.00100696 0.000234761 0.000143958 0.000643649 -5.66528e-05 -0.0656596 
0.000140488 0.0740672 0.0348971 0.0246207 0.0125754 0.0118825 0.0385906 0.00623895 0.00625791 
0.0189411 0.00324803 0.00314847 0.0100999 0.00156779 0.00134751 0.00501917 0.000550163 0.000449892 
0.00235909 -0.000181602 -0.000185585 0.000548913 -0.00061872 -0.000631854 -0.000587487 -0.000881211 -0.00089916 
-0.00132867 -0.00107565 -0.00110936 -0.00181534 -0.00122793 -0.00121797 -0.0021404 -0.0012584 -0.00125061 
-0.00232836 -0.00126149 -0.00125618 -0.00241032 -0.00125052 -0.00124366 -0.00242033 -0.0012097 -0.00120868 
-0.00236501 -0.00113861 -0.00111746 -0.00224736 -0.00108514 -0.00107228 -0.00212826 -0.000994756 -0.00098773 
-0.0020145 -0.000915654 -0.000908929 -0.00185502 -0.000830788 -0.000813252 -0.00167972 -0.000736374 -0.00071306 
-0.00149071 -0.00059007 -0.000573683 -0.0012672 -0.000471026 -0.000457489 -0.00101975 -0.000341598 -0.000327866 
-0.000773817 -0.000199983 -0.000170723 -0.000500345 -6.00706e-05 -3.90422e-05 -0.000222076 6.38983e-05 8.34442e-05 
3.16365e-05 0.000182741 0.000189329 0.000260906 0.000255031 0.00026336 0.000442961 0.000304796 0.00031383 
0.000564073 0.000326855 0.000320921 0.000619491 0.000310895 0.000306927 0.000623607 0.000270498 0.000264181 
0.000570637 0.000201461 0.000193545 0.000461453 0.000133327 0.000119479 0.000321859 6.04805e-05 4.82384e-05 
0.000178215 -1.88327e-05 -2.60589e-05 3.37039e-05 -7.68492e-05 -8.37777e-05 -9.71268e-05 -0.000117707 -0.000123968 
-0.000194175 -0.000141545 -0.000140558 -0.000251997 -0.000137766 -0.000135824 -0.000269885 -0.000113715 -0.000109751 
-0.000242258 -7.34741e-05 -6.18492e-05 -0.000177329 -2.62427e-05 -1.39807e-05 -9.24533e-05 0.000763175 0.00085348 
0.00118239 0.00124156 0.00200214 0.00125011 0.00119274 0.00241878 0.000606883 0.000315911 0.0017581 
-0.000600776 -0.000950678 -0.000194046 -0.00114621 -0.000932342 -0.0016933 0.000611451 0.0013397 1.92628e-05 
0.00338262 0.0038932 0.00474423 0.00499786 0.00521094 0.0086432 0.00509037 0.00531551 0.00950047 
0.00332039 0.00225314 0.00767111 -0.00274278 -0.00381369 -0.000622518 -0.00496342 -0.00443344 -0.00839889 
-0.0030116 -0.00241913 -0.00703212 -0.000761637 -0.000258585 -0.0029602 0.000729393 0.000884439 0.000359689 
0.00104758 0.000938014 0.0016482 0.000245243 -8.76355e-05 0.000777817 -0.00186652 -0.00234495 -0.00246847 
-0.00677936 -0.00859382 -0.010286 -0.012416 -0.0136726 -0.0203888 -0.0210518 -0.0306461 -0.0351896 
-0.0704222 -0.112693 -0.0785147 -0.0781097 -0.0738965 -0.0868922 -0.0753545 -0.0638754 -0.0757777 
-0.0623227 -0.0518526 -0.0660319 -0.0532254 -0.0428735 -0.0538321 -0.0451695 -0.035309 -0.0435366 
-0.0353133 -0.0273842 -0.0335546 -0.0293454 -0.0256218 -0.0291278 -0.0287085 -0.0193948 -0.0258117 
-0.0207857 -0.0119589 -0.0217102 -0.0148489 -0.00586199 -0.0140421 -0.00881422 0.000130706 -0.00581644 
-0.00369102 0.00697519 -0.000105684 -0.00149353 0.00776511 0.00315565 0.00547249 0.0143132 0.00565271 
0.0115858 0.0205691 0.0127016 0.0179358 0.0269907 0.0209172 0.0256576 0.0337134 0.0285531 
0.0318965 0.0354023 0.0325905 0.03255 0.0422706 0.0361966 0.0421816 0.0518517 0.0410351 
0.0513758 0.0608117 0.051772 0.0620158 0.0734395 0.0637616 0.0753552 0.0824371 0.0755634 
0.0909793 0.100836 0.088148 -0.0147521 -0.0663313 0.0693768 0.0607088 0.061956 0.0749649 
0.0395918 0.0505827 0.0589576 0.050445 0.0420257 0.0461339 0.045563 0.0351357 0.0383013 
0.039457 0.0310095 0.0324083 0.0353576 0.026746 0.0278808 0.0320355 0.024767 0.0251497 
0.0296995 0.0233611 0.0224537 0.0267359 0.0225312 0.0243254 0.0247356 0.0194795 0.0174074 
0.025337 0.011783 -0.065045 -0.0456766 -0.0473755 -0.030092 -0.00772731 0.0159363 -0.0152482 
0.0311478 0.0397317 0.049775 0.0528092 0.032884 0.0583754 0.0571716 0.0594817 0.0565726 
0.0511674 0.0565331 0.0533334 0.0521712 0.0515349 0.0488863 0.0426323 0.0356057 0.0410517 
0.031929 0.0234002 0.0326435 0.017175 0.00839233 0.00100488 -0.0117599 0.0123118 -1.65536e-06 
0.100991 0.000272479 0.000373453 -0.0496842 -0.0772223 0.0550637 0.0265792 -0.0675472 0.0264655 
0.000775475 0.00859628 -0.0336754 -0.0169384 -0.0426164 -0.00461835 -0.0245586 -0.0137428 -0.00536314 
0.00943122 0.0509737 0.0111833 0.0457492 0.0237798 0.00114282 -0.0796433 -0.000458021 0.0908247 
-0.000236732 -0.000303877 -0.000418662 -0.000497886 -0.000471808 -0.000609853 -0.000701559 -0.000714147 -0.000823439 
-0.000916584 -0.000975242 -0.00105878 -0.00116247 -0.0012693 -0.00129234 -0.00139288 -0.00157312 -0.00151381 
-0.00160542 -0.00185571 -0.00169663 -0.00175199 -0.00209858 -0.00178881 -0.00181407 -0.00225826 -0.00180402 
-0.00177334 -0.00229705 -0.00170505 -0.0016174 -0.00220183 -0.00148092 -0.00131886 -0.00195782 -0.00107245 
-0.000856873 -0.00152661 -0.000530435 -0.000252843 -0.000884751 9.86616e-05 0.000368844 -0.000105467 0.000718021 
0.000993109 0.000688977 0.00134555 0.00158222 0.00150105 0.00183156 0.0019982 0.00219324 0.00211972 
0.00220367 0.00264512 0.00223911 0.00221849 0.00284018 0.00213895 0.00203867 0.00277559 0.00189516 
0.00174117 0.00251713 0.00152994 0.00135645 0.00212025 0.00252798 0.00293492 -3.93477e-05 0.0316441 
0.0249797 0.0183528 0.0141058 0.0289594 0.0102521 0.00803151 0.0172988 0.00566193 0.00418499 
0.0100622 0.00247556 0.00159476 0.00533629 0.000400363 -0.000139243 0.00204676 -0.000933798 -0.00130566 
-0.000133699 -0.00184278 -0.0021362 -0.00158653 -0.00247448 -0.00268001 -0.0025762 -0.00288394 -0.00296508 
-0.0032544 -0.00309746 -0.00312588 -0.00365768 -0.00319866 -0.00319307 -0.00389396 -0.00318779 -0.00316207 
-0.00395645 -0.00311059 -0.00303993 -0.00391978 -0.00297321 -0.00290472 -0.00380163 -0.00284049 -0.00275367 
-0.00364258 -0.00263727 -0.00254185 -0.00344647 -0.00238328 -0.00228159 -0.00313842 -0.00212823 -0.00200021 
-0.00279455 -0.0018328 -0.00167907 -0.00243089 -0.00147053 -0.00133969 -0.00202128 -0.00113763 -0.000991424 
-0.00157307 -0.00077041 -0.000605611 -0.00110974 -0.000391318 -0.000226351 -0.000626752 -3.41584e-05 0.000115139 
-0.00016663 0.00029218 0.000411571 0.000252331 0.000556291 0.000644733 0.000610468 0.000740981 0.000801103 
0.000875087 0.000839831 0.000857276 0.00103667 0.000855744 0.000837117 0.00108204 0.000792982 0.000746229 
0.00102464 0.000663152 0.000588441 0.000888312 0.000485001 0.000399362 0.000678661 0.000287917 0.000194435 
0.000430793 7.8405e-05 -6.31913e-06 0.000167586 -0.000114652 -0.000176354 -8.28766e-05 -0.000254298 -0.00030474 
-0.00028704 -0.000347572 -0.000373238 -0.000425222 -0.000385 -0.000380139 -0.000490083 -0.000358301 -0.000332214 
-0.000480556 -0.000292191 -0.000248033 -0.000410592 -0.00018208 -0.000128932 -0.000292792 -0.0597816 -0.0743933 
-0.0731878 0.0620634 0.0403025 0.0471701 0.00327701 0.00329731 0.00314355 0.00246768 0.00419885 
0.00142722 0.000255982 -0.000708897 -0.000814992 0.000850137 0.0005901 0.00302904 0.00124362 0.0064392 
0.00907786 0.00705595 0.0113353 0.0127374 0.00856875 0.00633377 -0.0114164 -0.0116195 -0.00890821 
-0.00667854 -0.00384494 -0.00167223 -0.00542572 -4.09433e-05 0.00107396 0.00149835 0.00142696 0.00132308 
0.000453537 -0.00089236 0.00044074 -0.00342175 -0.00634433 -0.00368754 -0.0108385 -0.0174815 -0.0117272 
-0.0293764 -0.0244951 -0.0366566 -0.0240966 -0.0448077 0.0179493 0.0293537 0.0321092 -0.000159859 
-0.0700496 -0.0622741 -0.0636327 -0.0567727 -0.0592341 -0.0584059 -0.0483657 -0.0521193 -0.0524118 
-0.0412847 -0.045559 -0.0454063 -0.0348298 -0.0399125 -0.0390882 -0.0334637 -0.0284221 -0.0333692 
-0.0245835 -0.0200637 -0.0258673 -0.0139439 -0.0197136 -0.0190012 -0.0101753 -0.0149716 -0.0145208 
-0.00509296 -0.00997648 -0.00957576 -0.000440774 -0.00661103 -0.00451821 0.000411714 0.00531549 0.000219357 
0.0111394 0.00771023 0.00581611 0.0159633 0.0112514 0.0109505 0.0209376 0.0162179 0.0161271 
0.0255247 0.020183 0.0210331 0.0274004 0.0319351 0.0261144 0.0360178 0.0410748 0.0336057 
0.0463149 0.0449801 0.0410254 0.0535372 0.0509097 0.047747 0.0611705 0.0607197 0.0558914 
0.0685322 0.0730184 0.0789415 0.0648052 -0.0294733 -0.0226568 0.0299877 0.0186286 0.0148865 
0.031262 0.0340639 0.0286943 0.0309073 0.0263826 0.0267691 0.0288208 0.0257255 0.0255817 
0.0272378 0.0253153 0.0239293 0.0243453 0.0237099 0.0211355 0.023108 0.0218111 0.0147806 
0.0179923 0.0174565 0.0759676 0.0313967 0.0370643 0.022749 0.0179155 0.0421102 0.0426385 
-0.000662455 0.0111591 0.0316017 0.0273719 0.0224648 0.00120497 0.00167267 0.0410748 0.0392648 
0.0347016 0.00987927 -0.0255311 -0.0384823 -0.00540048 0.0362466 0.0356254 0.0198718 0.035277 
0.038856 0.028276 0.0289163 -0.00879093 -0.00581938 0.000435274 0.0174619 0.0268697 0.00889099 
0.0391636 0.0418964 0.0336154 0.0373269 0.034256 0.0328265 0.0131855 0.00656973 0.0154826 
-0.000119894 -0.000179821 -0.000285287 0.00393176 0.00261848 0.0013049 0.00106262 0.000559873 0.0207947 
0.0307396 0.0216555 0.0290268 0.000117308 -0.0215461 -0.0153278 -0.00183715 0.00311612 0.0134892 
0.0121743 0.0109833 -0.0117169 -0.0101187 -0.00067272 0.0655404 -0.0254099 -0.0328832 0.02036 
-0.00349184 -0.00474315 0.00205153 0.00726412 0.00903377 0.0124526 0.0155179 -0.0196199 -0.0283896 
-0.013313 -0.018123 0.0288286 -0.00076635 -0.000898708 -0.0010671 -0.00121569 -0.00111837 -0.00139759 
-0.00156687 -0.00148957 -0.00178074 -0.001932 -0.00190521 -0.00213333 -0.00227725 -0.00233296 -0.00242496 
-0.00254607 -0.00270611 -0.00263842 -0.00269828 -0.00297852 -0.0027291 -0.00271635 -0.00312271 -0.00266066 
-0.00256917 -0.00310567 -0.00245118 -0.00226775 -0.00291757 -0.00202575 -0.00172876 -0.00252402 -0.00129106 
-0.000884495 -0.00179232 -0.000389616 4.58185e-05 -0.00078044 0.000599306 0.00103008 0.000340916 0.00158411 
0.0020216 0.00153042 0.00249248 0.00281658 0.0026296 0.00310611 0.00328689 0.00345748 0.00337981 
0.00343094 0.0038823 0.00333578 0.00323855 0.00391172 0.00304468 0.0028739 0.00361891 0.00521111 
0.00518076 -0.000391944 -0.000468924 -0.000470748 0.023856 0.0188395 0.0146323 0.0115441 0.0202169 
0.00890075 0.00663184 0.0128478 0.00431999 0.00286595 0.00744564 0.00131249 0.000338677 0.00328461 
-0.000718175 -0.00141049 0.000498428 -0.00215088 -0.00266643 -0.0014339 -0.00317682 -0.00351184 -0.00285553 
-0.00386048 -0.00402715 -0.00382968 -0.00423354 -0.00432783 -0.0044308 -0.00440797 -0.00443868 -0.0047567 
-0.0044511 -0.00443301 -0.00490599 -0.00438146 -0.00430302 -0.00490852 -0.0042332 -0.00413818 -0.00479115 
-0.00403401 -0.00390076 -0.00459193 -0.00372795 -0.00355268 -0.00430084 -0.00334015 -0.00316104 -0.00390627 
-0.00292786 -0.00271631 -0.00344751 -0.00247006 -0.00222487 -0.00293981 -0.00194632 -0.00170801 -0.0023717 
-0.00142155 -0.00116475 -0.00177305 -0.000864031 -0.00059786 -0.00114505 -0.000300647 -6.3591e-05 -0.000506574 
0.000196457 0.000414877 8.95754e-05 0.000635301 0.000801161 0.000604322 0.000966407 0.0010909 0.0010149 
0.00119301 0.00124634 0.00130727 0.00127818 0.00127133 0.00144715 0.00123506 0.00117748 0.00143638 
0.00108763 0.000990715 0.00129299 0.000852512 0.000725739 0.00104656 0.000555043 0.000411149 0.000716329 
0.000232954 8.68272e-05 0.000339082 -7.7909e-05 -0.000203143 -3.27037e-05 -0.000330801 -0.000423546 -0.000344419 
-0.000510498 -0.000569415 -0.00057301 -0.000611788 -0.000627802 -0.000716432 -0.000617128 -0.000592674 -0.000751803 
-0.00053315 -0.000486679 -0.000600427 -0.000676318 0.00443547 0.00486005 0.00203976 0.00405094 0.00534582 
0.00457645 0.00664516 -0.0127466 -0.00911061 -0.035706 -0.0521808 0.0609983 0.0571381 0.0454451 
0.000524433 -0.000960827 -0.00340759 -0.00661866 -0.00307786 -0.0106898 -0.0160326 -0.0100251 -0.021219 
-0.0282814 -0.0196681 0.021309 0.0243203 0.00183509 0.00277399 0.0183868 0.0126075 -0.0186838 
-0.0202168 -0.0541558 -0.0518579 -0.0513701 -0.0477894 -0.046913 -0.0447186 -0.0412519 -0.0433043 
-0.0388554 -0.0355231 -0.0378014 -0.0330838 -0.0299773 -0.0327018 -0.0263924 -0.0235189 -0.0269567 
-0.020141 -0.0175651 -0.0210572 -0.015456 -0.0127352 -0.0157788 -0.0104839 -0.00763211 -0.0109969 
-0.00537528 -0.00256527 -0.00618229 -0.000483302 0.00177154 -0.00143921 0.0046571 0.00694932 0.00325234 
0.0095687 0.0118012 0.00805401 0.0141093 0.0169903 0.0128125 0.0192491 0.0220473 0.0175929 
0.0244669 0.02767 0.0227284 0.0308926 0.0339732 0.0283051 0.0374618 0.0409303 0.0342053 
0.0439442 0.0468407 0.040191 0.0500245 0.0549661 0.04592 0.0582266 -0.00033811 0.00109079 
0.0380939 0.0303674 0.0314957 0.0457587 0.0107561 0.0129533 0.00859164 -0.000592917 0.0220939 
0.022223 0.0198127 0.0200157 0.0163239 -0.0532125 0.0131249 0.0178261 0.0144265 -0.00531757 
-0.00230926 -4.09921e-05 -0.00563597 0.0259556 0.0238304 0.00339313 0.00239844 0.00428652 0.0265554 
0.0278782 0.0195712 0.0221314 0.0189306 0.0199388 -0.01774 -0.0150791 0.00376958 -0.0109988 
-0.0098744 0.00474876 0.00933662 0.00834458 0.0284077 0.0270112 0.0222876 0.0171257 0.0137787 
0.0168241 0.00150755 0.00158057 0.000840849 0.0287537 0.0285781 0.0232179 -0.0451904 0.00270421 
0.00246406 0.00323766 0.0058891 0.0224334 0.00462472 0.000670021 0.00826929 0.008802 0.00831369 
0.00239902 0.00326274 0.0152566 0.0175818 0.00285144 0.00464242 0.00359415 0.00633553 0.0121329 
0.00191072 0.00993946 0.0162903 0.018561 0.0043713 -0.000759703 -0.0156504 -0.0183818 0.0516684 
0.0143825 0.0131653 0.0128223 0.0211774 0.0191025 0.0180026 -0.00352071 0.00136191 -0.00615936 
-0.0395002 0.00401605 0.00372856 0.0199921 0.0134937 -0.0155465 -0.0113233 -0.01186 0.00669964 
-0.00928921 0.0223091 0.0224163 0.0191014 0.00625532 0.00671461 -0.00149746 -0.00169796 -0.00195376 
-0.00217375 -0.00194762 -0.0024411 -0.00265103 -0.00246937 -0.00291204 -0.00309038 -0.00301352 -0.00327233 
-0.00338902 -0.00348965 -0.00348302 -0.00352779 -0.00380278 -0.00354932 -0.00348798 -0.00394252 -0.00338345 
-0.00324658 -0.00385322 -0.00313848 -0.00287541 -0.00364359 -0.00241797 -0.00192277 -0.0030949 -0.00122301 
-0.000670039 -0.0018803 1.30253e-05 0.0006345 -0.000416355 0.00139999 0.00201946 0.00109583 0.00273246 
0.00326885 0.00265413 0.00380015 0.00413217 0.00398185 0.00437028 0.0044936 0.0047858 0.00438216 
0.00431106 0.00491068 0.00413903 0.0039342 0.00464503 0.00769521 0.00813995 0.00181111 -0.00328373 
-0.00420358 0.00327786 -0.00226313 -0.00506085 0.0168039 0.0136228 0.0107201 0.00805712 0.0140898 
0.00567316 0.00389837 0.00853526 0.00210338 0.00087914 0.00418188 -0.000320454 -0.00125687 0.00108179 
-0.00214776 -0.00282037 -0.00118987 -0.0034593 -0.00390777 -0.00286486 -0.0043104 -0.00455623 -0.00400658 
-0.00481424 -0.00496775 -0.00472745 -0.00509227 -0.00515961 -0.0051631 -0.00519659 -0.00518084 -0.00538677 
-0.00514613 -0.00506054 -0.00542163 -0.00496717 -0.00484089 -0.00529279 -0.00469199 -0.00452444 -0.00505055 
-0.00430724 -0.00409101 -0.00469139 -0.00383835 -0.0035942 -0.00422776 -0.00331907 -0.00303539 -0.00368931 
-0.00271728 -0.00240242 -0.00307091 -0.00206529 -0.00175313 -0.00238826 -0.00138754 -0.00105522 -0.00166686 
-0.000687295 -0.000357369 -0.000908157 -7.22529e-06 0.000281878 -0.000164317 0.000582852 0.000827657 0.000511906 
0.00107647 0.00126241 0.00108652 0.00143295 0.00154905 0.00152147 0.00161302 0.00164589 0.00176807 
0.00163137 0.00158495 0.00181752 0.00148317 0.00137284 0.00168671 0.00120977 0.00105642 0.0013993 
0.000841186 0.000650317 0.00100344 0.000416113 0.000209205 0.000528208 -2.66068e-05 -0.00021291 2.59508e-05 
-0.000406258 -0.000543512 -0.000423523 -0.000675448 -0.000775475 -0.000761121 -0.000855597 -0.000904156 -0.00098019 
-0.000907376 -0.000896665 -0.00106506 0.0173721 0.0149713 0.0135271 -0.00441562 -0.0104851 0.0191029 
0.0184257 0.0055864 0.00791995 0.018888 0.0189297 0.0153643 -0.0308817 -0.0344169 -0.00847552 
-0.0128091 -0.00725036 -0.0171068 -0.0223162 -0.0150579 -0.0127489 -0.0125173 -0.00864876 0.00158014 
8.99639e-05 -0.00129369 -0.0348661 -0.0325958 -0.0316997 -0.0291924 -0.0289593 -0.0269946 -0.0240215 
-0.0261068 -0.021484 -0.018738 -0.0215838 -0.0162792 -0.0139157 -0.0166649 -0.011693 -0.0092922 
-0.0121613 -0.00699081 -0.00460026 -0.00769729 -0.00240093 -0.000146008 -0.00325501 0.00206483 0.00434987 
0.00102554 0.00651212 0.00892876 0.00527333 0.0110859 0.0133478 0.00949109 0.0154907 0.0178307 
0.0136447 0.0201622 0.022789 0.0178808 0.0252635 0.0279612 0.0224674 0.0302625 0.0331423 
0.0269891 0.0354268 0.038097 0.0313208 0.0395419 0.0422294 0.0347434 0.0234059 0.0205196 
0.0149738 0.0216216 0.00415052 0.00469408 0.00476168 0.0173946 0.0182308 0.0144574 0.0136168 
-0.00111433 -0.0012942 -0.001483 -0.0416951 0.0142982 0.0160906 0.0126522 0.0181995 0.0169398 
0.0154854 -0.000741038 -0.000923997 -0.00108573 -0.000754985 0.00293305 0.00278022 0.0164464 0.0149492 
0.014936 0.00980416 0.0123973 0.00992829 0.00678489 0.00857473 0.0011671 -0.000952947 0.0247013 
0.019916 0.0205648 0.0116401 0.0100915 0.00822706 0.00978454 0.0373034 0.0439615 0.0147346 
0.00728504 0.00617658 -0.000819596 0.0112054 0.00914786 0.0121858 0.00254096 0.0052159 0.00471024 
0.00499734 0.0121822 0.0120558 0.00761826 -0.0276018 -0.0332915 -0.00997216 -0.0110915 0.00173897 
0.0030767 0.00451252 -0.000873222 0.0143861 0.0135874 0.0139195 -0.0417813 -0.0385869 0.00396217 
-0.00351106 -0.11016 -0.151691 0.00665974 0.00495091 0.0100771 -0.0244585 0.00889247 -0.000984119 
0.00511136 0.00562413 0.00645841 0.00531232 0.00745184 0.00860634 -0.00238449 -0.0026494 -0.00300887 
-0.00328541 -0.00288898 -0.00362987 -0.00384433 -0.00361829 -0.00406071 -0.0041894 -0.00424524 -0.00425214 
-0.00427435 -0.00456736 -0.00446008 -0.00437865 -0.00484962 -0.00430653 -0.14283 -0.00402235 -0.00353343 
-0.00488983 -0.00249767 -0.0017629 -0.0035238 -0.000952084 -0.000204575 -0.00163106 0.000691527 0.00149825 
0.000191697 0.00248245 0.00323422 0.0020856 0.00529867 0.00556381 0.00542013 0.00695442 0.00430121 
0.00920347 0.00915949 0.0101559 0.0176728 0.0145302 0.0113404 0.00867334 0.0144569 0.0063217 
0.00434522 0.00869432 0.00265859 0.00128232 0.0044716 -1.35466e-05 -0.00106002 0.00138761 -0.00200381 
-0.00278045 -0.000980865 -0.00344284 -0.00393142 -0.00269409 -0.00435762 -0.00466917 -0.00386737 -0.00495472 
-0.00515438 -0.00463328 -0.00530502 -0.00540127 -0.00512939 -0.00544058 -0.00542939 -0.00538385 -0.00539701 
-0.00530757 -0.00543241 -0.00521632 -0.0050655 -0.00530869 -0.00489103 -0.00469302 -0.00505013 -0.00445173 
-0.00420721 -0.00465437 -0.0039327 -0.00364499 -0.00415346 -0.00333122 -0.00299234 -0.00356672 -0.00263089 
-0.00227523 -0.00287857 -0.00187396 -0.00149443 -0.00210395 -0.00108117 -0.000696997 -0.00127728 -0.000271342 
9.92055e-05 -0.000426148 0.000477059 0.000795553 0.000395321 0.00112579 0.00138942 0.00112317 0.00164477 
0.00182522 0.00172436 0.00194663 0.00201414 0.00210934 0.00199984 0.00197996 0.00221155 0.00186934 
0.00174772 0.00207566 0.00155342 0.00137636 0.00174401 0.00113091 0.000904837 0.00128418 0.000618534 
0.000349779 0.000739874 2.83247e-05 -0.000229763 9.99376e-05 -0.000507876 -0.000712302 -0.000536005 -0.000900755 
-0.0010398 -0.00101842 -0.00115577 -0.0012421 -0.00132716 -0.0012568 -0.00125693 -0.00145342 -0.00865919 
-0.00803272 0.0251313 0.0216041 0.0216655 -0.0011691 0.0012982 -0.00317405 0.0123009 0.0126474 
-0.008775 -0.0112266 -0.00847664 -0.00543838 -0.0089529 -0.0123967 -0.0165883 -0.0101299 -0.00585416 
-0.00809787 -0.00344569 0.00354335 0.00195426 -0.00137478 -0.00158131 -0.022606 -0.0200869 -0.0167729 
-0.0145439 -0.0177002 -0.0122146 -0.0101308 -0.0123701 -0.00839745 -0.00613876 -0.00851003 -0.00414943 
-0.00209351 -0.00489028 -8.2529e-05 0.00196486 -0.00104539 0.00392515 0.00593887 0.0027251 0.00782027 
0.00989828 0.00638317 0.0113984 0.0133237 0.00963775 0.0151306 0.0172101 0.0127371 0.0191789 
0.0213723 0.0162407 0.0231718 0.025178 0.0197498 0.0267978 0.0286918 0.0228683 0.0296573 
0.0304784 0.00305642 0.0110623 0.0116722 0.00928421 0.0078581 -0.00183217 -0.00208146 -0.00223825 
0.0131443 0.0131128 0.0104397 0.00397031 0.00429977 0.0134657 0.0130999 0.0113943 0.00347868 
0.00548582 -9.05379e-05 -0.0026085 -0.00387101 0.000992202 0.0306533 0.029971 0.00995627 0.00599895 
0.00423206 0.00483973 0.00574311 0.00874867 0.00818032 0.00629304 0.00687343 -0.0202794 -0.0252041 
-0.00686478 -0.00751682 0.0066819 -0.00661206 0.00370286 0.00469977 0.00587405 0.0129467 0.0118398 
0.0127505 0.00558482 -0.0172305 0.00608484 0.00515185 0.00478112 0.00484214 0.00436972 0.00395237 
0.0132213 0.0127367 0.0118615 -0.00170071 0.0251136 -0.024395 -0.0484604 -0.0914351 -0.00557518 
-0.00505592 0.00159623 0.00377277 -0.00265274 0.00677245 0.00413474 0.0103155 0.00868809 0.0108608 
-0.00346607 -0.00384968 -0.00485527 -0.00497276 -0.00250959 -0.00160178 0.000937091 0.00194543 0.00643115 
-0.00600016 -0.00579131 -0.00581756 -0.006945 0.00384135 0.00495426 0.00634006 0.00266608 0.0110387 
0.00846728 0.00624868 0.0043988 0.00823029 0.00281325 0.00140258 0.00431346 0.000148382 -0.000906855 
0.00141287 -0.00183708 -0.00259216 -0.000852292 -0.00318855 -0.00367418 -0.00242402 -0.0040909 -0.00443269 
-0.00347828 -0.00469634 -0.00492624 -0.00421031 -0.00507554 -0.00517887 -0.00467804 -0.00526948 -0.00524992 
-0.00498473 -0.00517891 -0.00509324 -0.00503567 -0.00498507 -0.00483806 -0.00485194 -0.0046636 -0.00445044 
-0.0046028 -0.00421145 -0.00395643 -0.00422503 -0.00367919 -0.00336332 -0.00374225 -0.00301717 -0.00265168 
-0.00313822 -0.00222877 -0.00182557 -0.00236618 -0.00140017 -0.000988457 -0.00152304 -0.000529052 -9.81162e-05 
-0.00064684 0.000350691 0.000738161 0.000260059 0.00116844 0.00150568 0.00114591 0.00189764 0.00215181 
0.00198587 0.00235501 0.00246898 0.00258931 0.00245609 0.00243168 0.00275079 0.00225341 0.00213558 
0.0025295 0.00189214 0.00166471 0.0020987 0.00127592 0.00102068 0.00139206 0.00070186 -0.150891 
-0.121837 7.27577e-05 -0.000283067 0.000333878 -0.000631957 -0.000924041 -0.000706699 -0.00122076 -0.00141458 
-0.00135008 -0.0015558 -0.00166723 -0.00179332 -0.00169447 0.0211481 0.0204295 0.0174254 -0.0142318 
0.00733915 0.0080914 0.00549855 0.00370854 -0.0018583 -0.0040802 -0.00533372 -0.00456641 -0.00740158 
-0.00589339 -0.00410285 -0.165878 -0.172504 -0.00201103 -0.000155223 -0.0030726 0.00153426 0.00319446 
0.000502336 0.00533984 0.00704199 0.00393507 0.0083246 -0.168922 -0.131657 0.0100712 0.0115821 
0.0074006 0.0133334 0.014976 0.010531 0.016449 0.0179269 0.0134403 0.0192074 0.00740481 
0.00424091 0.00514549 0.00531123 0.00476666 0.00963537 0.0100202 0.00810327 0.00864787 0.00751489 
-0.00194579 -0.00222594 -0.00436454 -0.00463985 -0.00501512 -0.00424729 -0.00580679 -4.72563e-05 -0.168015 
-0.125652 0.0047401 0.00664982 0.00729641 0.00576312 -0.0051092 0.00345018 0.00306961 -0.00258506 
-0.00292192 -0.00223899 0.0141628 0.00215681 0.00278582 0.00290104 0.00234784 0.0120996 0.0114807 
0.011376 -0.00959826 -0.0069014 -0.011609 -0.00549601 -0.00457287 0.00212767 7.35066e-05 0.00715211 
0.00598978 -0.000525863 0.00309692 0.00473934 0.00464921 0.00280826 -0.00293196 -0.00314986 0.00632796 
-0.00786005 -0.0112479 0.0158328 0.00515454 0.00590068 0.00423559 -0.00310464 0.00881049 0.00473632 
0.0030998 0.00409834 -0.00484234 -0.00559908 0.0136089 -0.00205743 -0.00523389 -0.00371974 -0.000716915 
-0.00639512 -0.00212543 0.00398137 0.00317586 -0.000570897 -0.00205108 0.0100279 0.00772766 -0.00391586 
0.00568995 0.00402044 0.00722486 0.00260741 0.00128502 0.00377661 0.0002106 -0.000791631 0.00125122 
-0.00152793 -0.00217551 -0.000599055 -0.0027026 -0.00317894 -0.00191758 -0.00353174 -0.00383849 -0.00285187 
-0.00403538 -0.00426204 -0.00340639 -0.00446623 -0.00463435 -0.0038657 -0.0045354 -0.186419 -0.109893 
-0.00446261 -0.00437998 -0.00406553 -0.00432606 -0.00420301 -0.00397096 -0.004042 -0.00384534 -0.00378736 
-0.00360146 -0.0033653 -0.00342796 -0.00313008 -0.00278316 -0.00300149 -0.00237362 -0.0019599 -0.00238171 
-0.00149855 -0.00110061 -0.00151028 -0.000706566 -0.000256204 -0.000681355 0.000245219 0.000690424 0.000179968 
0.00112259 0.00155262 0.00112257 0.00209454 0.00249376 0.00207288 0.00300316 0.00318424 0.00315233 
0.00303927 0.00301419 0.00354701 0.00269539 0.00246825 0.00304265 0.0021676 -0.134769 -0.119974 
0.00139516 0.000957352 0.00178737 -0.00406148 -0.00095745 -0.000357116 0.000896314 -0.00291693 -0.00316201 
-0.00196049 -0.00241493 -0.0057853 0.00557588 0.00403334 0.00126977 0.00255483 -0.00189778 0.0087249 
0.0103418 0.0104631 0.012699 0.00313067 0.00371154 0.00251446 -0.0982125 -0.0387751 0.010734 
0.0119143 0.0032244 0.00175045 0.00429641 0.000896561 -0.000876884 0.0102731 0.00921605 -0.00086353 
-0.0238747 0.0208659 -0.00124522 -0.000939607 0.000244574 -0.00158941 0.00157601 0.00126966 0.00214524 
0.0028104 0.00963345 0.00838554 0.00818387 -0.000889462 0.000684456 0.00209077 0.00363854 -0.0484519 
0.00536125 0.00679116 0.00611504 0.0013437 0.00440064 0.00394648 0.00238818 0.00304328 0.00585461 
0.00680967 -0.00399339 6.20961e-05 0.00135085 0.00162881 0.000707631 0.00384075 0.00461649 0.00405206 
-0.0017367 -4.27286e-05 0.00326043 0.00211073 0.00211554 0.00353518 0.00184714 0.00632555 -0.00271032 
-0.00301646 -0.00318841 -0.00314853 -0.00204904 -0.0032938 -0.00328179 -0.00243031 -0.00249536 -0.00232629 
0.00231502 0.0017491 0.00228669 0.00128251 0.00130449 0.00138607 0.000563143 0.0100091 0.0083363 
0.00656137 0.00439748 0.000718977 0.00154256 0.000780871 0.00201509 0.00144749 0.00121561 0.00135096 
6.16812e-05 0.000341597 0.00567992 0.0047435 0.00330364 0.00452241 -0.00267813 0.00144885 0.00131991 
0.000856396 0.00212704 0.00106526 0.00299207 0.000379184 -0.000396842 0.0011803 -0.000973789 -0.00152592 
-0.000139036 -0.00206151 -0.00240804 -0.00120215 -0.00245196 -0.00266192 -0.00181185 -0.00173642 -0.00271976 
-0.00337702 -0.00325829 -0.00296894 -0.00277469 -0.00256711 0.00368173 0.00313535 -0.00137317 -0.000960345 
-0.000244464 0.000118103 0.000608885 0.00133209 -0.00205423 0.00276985 0.00714429 0.000812914 0.00317177 
0.00297233 0.00224656 0.000684625 0.000482775 0.00115627 -0.00131742 -0.00153533 -0.000152383 -0.00190106 
-0.00135947 2.19065e-05 -0.000775 -0.0018911 -0.000608435 -0.000747461 0.000258251 0.00370057 0.00326948 
0.00181076 -0.000493261 0.00116799 0.00206693 0.00139067 0.000737329 0.000109109 -0.000474429 -0.000959959 
-0.000946798 0.000224672 -0.00203009 -0.00172933 -8.48356e-05 0.00154996 -0.000575368 -0.000612747 -0.000377155 
-0.000838881 -0.00100152 0.000142809 -0.00116258 0.000404677 2.06522e-05 -3.03538e-05 -9.10934e-06 -9.7345e-05 
-8.58832e-05 -0.00012051 -0.000180307 -0.000164086 -0.000264923 -0.000304517 -0.00028603 -0.000457236 -0.00044855 
-0.000418537 -0.000715195 -0.000592441 -0.000570443 -0.000989659 -0.000709279 -0.000691209 -0.00124792 -0.000808645 
-0.000787362 -0.00145468 -0.000821143 -0.000823077 -0.00157323 -0.000766985 -0.000784465 -0.00155171 -0.00060557 
-0.00064198 -0.00135158 -0.000315106 -0.000385316 -0.000943822 7.16306e-05 -2.79845e-05 -0.000325874 0.000417529 
0.000363336 0.00038289 0.00073937 0.000686242 0.00106573 0.00101508 0.000961141 0.00163272 0.00107777 
0.00107326 0.00198401 0.00102992 0.00105349 0.00204008 0.000882348 0.000927029 0.00187439 0.00055371 
0.000652363 0.00147694 0.000160023 0.000207664 0.000802706 -4.95541e-05 0.0773738 0.0377805 0.0574278 
0.0122733 0.0123651 0.0503368 0.00533624 0.00583223 0.0184876 0.00228235 0.00252322 0.008258 
0.000665225 0.000890561 0.00324969 -0.000186487 -9.15705e-05 0.000745563 -0.000703278 -0.000637489 -0.000688742 
-0.00105675 -0.00101107 -0.00160584 -0.00127157 -0.00124318 -0.00216721 -0.00133033 -0.0013265 -0.00247251 
-0.00132098 -0.00132687 -0.0025724 -0.00130566 -0.00131121 -0.00255343 -0.00124588 -0.00126471 -0.00250075 
-0.00113441 -0.00114989 -0.00234165 -0.00103229 -0.00105658 -0.00214536 -0.000909468 -0.000939474 -0.00192844 
-0.000734275 -0.000760168 -0.00164183 -0.000545729 -0.00057808 -0.00129306 -0.000365589 -0.000397653 -0.000935823 
-0.000183339 -0.000210893 -0.000576748 1.73722e-06 -3.81222e-05 -0.000221861 0.000167168 0.000138964 0.000116778 
0.000302649 0.000280615 0.000422576 0.000371764 0.00036516 0.000629269 0.000387711 0.00038808 0.000728323 
0.000352958 0.000363316 0.000713397 0.000267304 0.000285134 0.000606773 0.000148239 0.000178458 0.000417842 
3.99722e-05 5.77789e-05 0.000199012 -6.1749e-05 -4.03632e-05 -1.04649e-05 -0.000121495 -0.00011384 -0.000172966 
-0.000150416 -0.000148574 -0.000266107 -0.000138912 -0.000145363 -0.00029302 -8.71309e-05 -0.000100924 -0.000239868 
0.0969417 0.000272529 0.000190027 0.000488448 0.000444422 0.000728178 0.000994517 0.000937727 0.00139772 
0.00121192 0.00121527 0.0021464 0.000931005 0.0010144 0.00217306 -0.00119597 -0.000907471 -0.000371565 
-0.000823908 -0.0013639 0.00247585 0.00172812 0.0016476 0.00528754 0.00457358 0.0068271 0.006828 
0.00641045 0.0106955 0.0069759 0.00715045 0.0118116 -0.00417465 -0.00307358 -0.0046026 -0.00503315 
-0.00891765 -0.00168478 -0.00246347 -0.00622582 0.000236799 -0.000117951 -0.00161208 0.00103057 0.000925387 
0.0010354 0.000754429 0.000897804 0.00164344 -0.000313313 -0.000149632 0.000260297 -0.0025306 -0.00220346 
-0.0030422 -0.00608662 -0.0060541 -0.00910359 -0.0153409 -0.0127624 -0.02081 -0.0398213 -0.0270337 
-0.0428877 -0.0871227 -0.0947978 -0.113369 -0.0714997 -0.0911457 -0.0845567 -0.0581893 -0.0664046 
-0.0724998 -0.046702 -0.0595105 -0.0582926 -0.0386734 -0.0507164 -0.0482217 -0.0352996 -0.041926 
-0.040348 -0.0224396 -0.032457 -0.0313613 -0.0140596 -0.0201455 -0.0233966 -0.00806769 -0.0187233 
-0.0157601 -0.00161153 -0.0122185 -0.0101437 0.0021396 -0.0063111 -0.00433078 0.0114309 0.00394088 
0.00314468 0.0178299 0.00810301 0.00969182 0.0241797 0.0136689 0.0155198 0.0254059 0.0194184 
0.0213719 0.0384503 0.0280859 0.0292376 0.0470706 0.0415704 0.0377822 0.0564407 0.0455058 
0.0461156 0.0634645 0.0543625 0.0560691 0.0791365 0.0673614 0.0686464 -0.0500173 -0.00921541 
0.0667355 0.0632697 0.0761962 0.0594635 0.0414125 0.0576328 0.050676 0.0473468 0.0472324 
0.0422593 0.0432454 0.0384921 0.0356901 0.03858 0.0329008 0.0308448 0.0343367 0.0283246 
0.0275282 0.0309622 0.0253534 0.0245614 0.028891 0.0229286 0.022974 0.026029 0.0216835 
0.022634 0.0235706 0.0204338 0.0177422 0.020473 0.00755999 -0.0485784 -0.0527394 -0.0240937 
-0.0528296 0.0185576 -0.00223342 -0.01554 0.0424272 0.0346956 0.0530584 0.051447 0.0339117 
0.0573032 0.0579553 0.0455413 0.0580135 0.0591581 0.050829 0.054116 0.0571898 0.0435977 
0.0508608 0.045463 0.0379703 0.044053 0.0258757 0.0323143 0.0366955 0.0104203 0.0182742 
0.0238953 -0.00882446 0.00210265 -9.3171e-06 0.000144841 -2.82135e-05 -8.31444e-06 0.000369924 0.000834927 
-0.00311714 0.00147931 0.00280618 0.00817706 -0.0716646 -0.0788737 0.0374952 0.0670746 -0.0929307 
-0.0532189 0.0815603 -0.0166412 -0.00916451 0.00452859 0.010362 0.00222661 0.0127547 -0.0182529 
-0.0438565 -0.00386178 -0.0409209 -0.0332321 0.0497804 0.0428625 0.00908154 -0.00126575 0.0265152 
-0.000123193 0.0785181 -0.00042268 -0.000335672 -0.000273894 -0.000194957 -0.000271194 -0.000421932 -0.00105894 
-0.000905334 -0.00143356 -0.00127615 -0.00146749 -0.00179758 -0.0016589 -0.00195131 -0.00207134 -0.00196358 
-0.00238556 -0.00218677 -0.00215462 -0.00267504 -0.00211736 -0.00218056 -0.00277176 -0.00177454 -0.00195218 
-0.00258188 -0.00113957 -0.00144656 -0.00204589 -0.000245054 -0.000667177 -0.00114719 0.000721875 0.000309205 
1.70522e-05 0.00163424 0.0012496 0.00123404 0.00238761 0.00208899 0.00235121 0.00275565 0.00263463 
0.00315426 0.00274374 0.00278275 0.00348117 0.00248068 0.00264337 0.00339852 0.00197434 0.00227489 
0.00304306 0.00107788 0.00150875 0.00231257 0.0117218 0.00908022 0.010536 0.0147569 0.0210754 
0.0300661 0.0234132 0.0417926 0.0660593 0.0683396 0.0429797 0.00486782 0.00696482 0.0124039 
0.00148672 0.00261626 0.00570516 -0.000490494 0.000233419 0.00172126 -0.00177836 -0.00132256 -0.000636996 
-0.00265152 -0.00232794 -0.00219146 -0.00310751 -0.00298892 -0.00323507 -0.0033469 -0.00330752 -0.00385449 
-0.0034073 -0.00339149 -0.00414671 -0.0032929 -0.00333666 -0.00417742 -0.00308335 -0.00321051 -0.0040378 
-0.00285759 -0.00297134 -0.00381267 -0.00253603 -0.00266944 -0.00347896 -0.00212411 -0.00232154 -0.00304238 
-0.00166035 -0.0018674 -0.00252644 -0.00119532 -0.00140179 -0.00194685 -0.000700506 -0.000915573 -0.00135324 
-0.000206682 -0.000407859 -0.000714922 0.000241005 4.67198e-05 -0.000103329 0.000628676 0.00047056 0.000438558 
0.000882303 0.000786964 0.000876107 0.000983154 0.000962288 0.00114383 0.000942037 0.000984069 0.00122624 
0.000754294 0.000844617 0.00111267 0.000486731 0.000608878 0.000844053 0.000181464 0.000315247 0.000486288 
-8.6668e-05 2.44877e-05 0.000114291 -0.000283189 -0.000208617 -0.000198202 -0.000398385 -0.000361614 -0.000419838 
-0.000415412 -0.000423178 -0.000536564 -0.000339654 -0.000390218 -0.000533335 -0.000428354 0.00301905 0.00274942 
0.00123824 0.0027485 0.00306477 0.00327822 0.00401073 0.00515591 0.00243138 0.0101223 0.000341615 
1.35648e-05 0.00221332 0.015113 0.0138095 0.0165807 -0.00472294 -0.00735896 -0.0112558 -0.0119578 
-0.00982552 0.00145697 0.000703075 0.00108497 0.0014501 0.00141194 -0.00163987 -0.00025248 -0.000281072 
-0.00674159 -0.00409993 -0.00471759 -0.0162807 -0.0110323 -0.0124311 -0.0333947 -0.023565 -0.0257516 
-0.0594076 -0.0442592 -0.0454084 0.0427497 0.0426405 0.00943429 0.0322873 -0.0581239 -0.0572013 
-0.07111 -0.0487522 -0.0452816 -0.0496246 -0.0399635 -0.0364201 -0.0414608 -0.0298994 -0.0303009 
-0.0335404 -0.023368 -0.0240452 -0.0260074 -0.0186437 -0.0145814 -0.0190685 -0.0115765 -0.00754669 
-0.0126537 -0.00446339 -0.000491662 -0.00617168 0.00183776 0.00362184 -0.000178718 0.00835752 0.00996121 
0.00600727 0.013558 0.0173552 0.012393 0.0206599 0.0246828 0.0184175 0.029533 0.0297843 
0.0249523 0.0366819 0.0353885 0.0318723 0.0444115 0.0433676 0.0392326 0.0531992 0.0546498 
0.0472407 0.0667409 0.0626125 0.0551487 0.0592075 -0.0432614 -0.0126415 0.000220523 0.0140834 
0.00218492 0.0321592 0.031863 0.0339959 0.0322761 0.0224984 0.0347665 0.0317256 0.0267659 
0.0308627 0.0283374 0.0267437 0.0282466 0.0263875 0.0244633 0.0220636 0.0205503 0.0356612 
0.0243707 -0.00249576 -0.00645625 0.00105223 0.0381968 0.0332709 0.0288446 0.0201735 0.0221754 
0.0343254 0.037883 0.0396936 0.0417441 0.0338556 0.0163307 0.0223139 0.0255163 0.0300381 
0.0282564 0.021665 -0.000708932 -0.00057514 -0.000653779 -0.00102394 -0.000500344 -0.00233094 0.000367312 
0.0210527 0.032204 0.0179622 0.0190915 -0.0260386 -0.0292404 0.0426898 0.0401107 0.0302263 
0.00823024 0.0132304 0.0154555 -0.0669014 0.00271766 0.00183825 0.0297663 0.0213175 0.00328537 
0.00935578 0.00875262 0.0127473 0.00545262 0.00410858 0.000452715 0.00139174 0.00111603 -0.0109704 
-0.00469346 0.00186466 0.0154521 0.0191079 -0.00313105 0.014931 -0.00287765 -0.00403875 0.00229344 
-0.0153495 0.0344293 0.035912 0.0245148 -0.0636794 -0.0418013 -0.0284223 0.0107089 0.0163878 
-0.0231809 -0.00519794 -0.0172837 0.0105783 0.00728125 0.0235843 0.0212816 0.0207931 0.0255634 
0.027524 0.0252624 0.0240147 0.00311376 -0.0383211 -0.0257332 -0.0183194 0.00526007 0.0245386 
0.00488243 -0.00339667 0.0155047 0.0139507 -0.00286746 -0.00266216 -0.00180161 -0.00155122 -0.00318226 
-0.00306673 -0.00335863 -0.00325723 -0.00326551 -0.00368826 -0.00297787 -0.0031707 -0.00370657 -0.00226582 
-0.00265988 -0.00328891 -0.00112301 -0.0016968 -0.00233951 0.000330612 -0.000348019 -0.000895238 0.0017479 
0.00111873 0.000800089 0.00309279 0.00252989 0.00248442 0.00391863 0.00360873 0.00388197 0.00412489 
0.0040869 0.00461812 0.00386136 0.00399117 0.00463661 0.003569 0.00383094 0.00444211 0.00457493 
0.00630632 0.00737606 0.00498872 -0.000610782 -0.000532253 -0.000610151 -0.00859689 0.00843491 0.0126815 
0.0172469 0.0373425 0.0490918 0.0517389 -0.000339004 0.000720183 -0.00219899 -0.0014069 -0.000305099 
-0.00343534 -0.0029526 -0.00234788 -0.00417522 -0.00391821 -0.0037369 -0.0045597 -0.00443515 -0.00456011 
-0.00464085 -0.0046534 -0.00497722 -0.00452022 -0.00460596 -0.00509363 -0.0042634 -0.00440816 -0.00496583 
-0.00386676 -0.00407254 -0.0046479 -0.00337741 -0.00361957 -0.00419439 -0.00277216 -0.0030744 -0.0036307 
-0.00210761 -0.00242745 -0.00294772 -0.00139392 -0.00172613 -0.00216984 -0.000635278 -0.000985239 -0.00133375 
3.09233e-05 -0.000271493 -0.000512795 0.000652257 0.000379906 0.000242603 0.00111525 0.000920024 0.000898349 
0.00137701 0.00128118 0.00136434 0.00140493 0.00141614 0.00158061 0.0012173 0.00133259 0.00153536 
0.000866372 0.00103839 0.00126384 0.000419592 0.000629232 0.000815887 -1.12103e-05 0.000177324 0.000300304 
-0.00034729 -0.00020189 -0.000163841 -0.000582312 -0.000487793 -0.000520322 -0.000686696 -0.000657073 -0.000746619 
0.00859443 0.00907761 0.00222083 0.00383528 0.00246674 0.00501996 0.00461219 -0.00237345 -0.00211904 
-0.00219348 -0.00283066 -0.000306098 -0.00227689 0.0134277 0.0163927 -0.00202261 -0.000259285 0.00115132 
0.0015127 3.09922e-05 -0.0168695 -0.0113823 -0.0312228 -0.0228407 -0.0213178 -0.0488752 -0.0387812 
-0.034942 -0.0553925 -0.0295338 -0.0335664 -0.0439133 -0.0478343 -0.023011 -0.0263827 -0.0264831 
-0.0165994 -0.0200086 -0.0204031 -0.0104657 -0.0137641 -0.0145018 -0.00445283 -0.00761058 -0.00868816 
0.0015926 -0.00160541 -0.0028206 0.0073206 0.00427432 0.0028698 0.0132879 0.0100261 0.00840908 
0.0191918 0.0161141 0.0140009 0.0255774 0.0219651 0.0195762 0.0318851 0.0286588 0.0254136 
0.0388176 0.0351391 0.0315454 0.0462743 0.0419603 0.037692 0.0110288 0.00632555 -0.0145735 
-0.0207477 0.00165973 0.000760216 0.00156491 0.00198987 0.0225281 0.0208026 0.0061499 -0.0369582 
-0.0408044 -0.0392423 -0.0330478 0.0143034 0.0166182 0.0174955 0.019111 -0.00782689 -0.00473243 
-0.00445251 -0.0112863 -0.0249567 -0.0184969 -0.0096701 -0.00477444 -0.00900916 -0.00123376 0.0224209 
0.029717 0.0354957 0.0225395 0.0039689 0.00217291 0.00501975 0.0288952 0.0277386 0.00618134 
0.00895758 0.0131233 0.00660159 0.0298689 0.030041 0.0237993 0.025496 0.0228232 0.0208002 
0.0194131 0.014909 0.00967804 0.0158055 0.0277143 0.0294821 0.0245172 -0.00155041 -0.00125041 
-0.00103675 0.0110695 0.00776525 -0.0211737 -0.0245231 0.00470258 0.00301458 0.00350639 0.0101042 
0.00727223 -0.000665173 -0.000696337 -0.000836775 -0.000789572 0.00381524 0.00817196 -0.00184878 0.00923052 
0.0210246 0.0192614 -0.000773547 0.01546 0.0111823 0.000673949 -0.00575545 -0.0120238 0.0131495 
0.0137793 0.0144242 0.0118303 0.00673363 -0.0194826 0.0195 0.00323073 0.00402071 0.0127711 
0.0260447 0.0227433 0.0232534 0.0528878 0.0493767 0.0437896 0.0452707 -0.0182237 0.00505506 
-0.0137389 0.0215428 0.0163283 0.018193 0.0211897 -0.00376519 -0.00352454 -0.00364193 -0.00399462 
-0.00245339 -0.00308461 -0.00388105 -0.000677958 -0.00155799 -0.00237406 0.00130555 0.000406254 -0.000248804 
0.00315862 0.00232316 0.00200967 0.0049622 0.0043497 0.00429831 0.00533122 0.0051275 0.00577925 
0.00509987 0.00524102 0.00585097 -0.0147436 -0.014344 -0.00611681 -0.00686042 0.0112561 0.00841249 
-0.00224258 -0.00126982 5.67846e-05 0.00136827 0.000152289 -0.00464666 -0.00431691 -0.00512957 -0.00495552 
-0.00477264 -0.00526526 -0.0052458 -0.00526875 -0.00513568 -0.00524197 -0.00541866 -0.00480558 -0.00500383 
-0.00527635 -0.00431848 -0.00456583 -0.00491705 -0.00370317 -0.00402101 -0.00438875 -0.00296781 -0.00334836 
-0.00372651 -0.0021272 -0.00254445 -0.00292931 -0.00118839 -0.00163679 -0.00199285 -0.000309517 -0.000706007 
-0.000988968 0.000498414 0.000116004 -4.96448e-05 0.00117923 0.000888287 0.000797723 0.00163121 0.0014438 
0.00147584 0.00177945 0.00174755 0.00186955 0.00164049 0.00173164 0.00192503 0.00125895 0.00146045 
0.00167011 0.000697411 0.000962447 0.00116212 9.50065e-05 0.000366366 0.000496033 -0.000387368 -0.000176914 
-0.000137639 -0.000741298 -0.000588907 -0.000630657 -0.000957846 -0.000875739 -0.000975602 0.00666446 0.00565191 
-0.000974702 0.0198169 0.0189694 -0.00111147 0.00068198 0.00541187 0.00428459 0.0202114 -0.0374823 
-0.0356007 -0.0290288 -0.0332312 -0.0246146 -0.018427 -0.0256379 -0.0122937 -0.0150899 -0.0174077 
-0.0203025 -0.0151092 -0.0228374 -0.0258753 -0.0197263 -0.00667654 -0.00959885 -0.0101976 -0.00138681 
-0.00420396 -0.00511962 0.00396239 0.00124593 -0.000192976 0.00911228 0.00646615 0.00474751 0.0143142 
0.0115744 0.00950097 0.0192287 0.0166453 0.0140619 0.0246887 0.0217811 0.0186315 0.0302664 
0.0273733 0.0235522 0.0355393 0.0327681 0.0282926 -0.00416233 -0.00423027 -0.00462418 -0.00415121 
-0.00403102 -0.00422763 -0.00466468 0.00306384 0.00982022 -0.0163499 -0.0152553 0.00308087 0.00486919 
0.00335489 -0.00374459 -0.00314232 -0.00224669 -0.00382938 -0.0119259 -0.004002 -0.000787822 0.0167983 
0.0150043 0.0120277 0.0026499 0.00119002 0.0203163 0.0205806 0.0161664 0.0120842 0.0175287 
0.0157571 0.0141944 0.000557842 0.0318227 0.0392637 0.041031 -0.0104693 -0.014536 -0.0123753 
0.00457837 0.00484694 0.0047413 -0.00358849 -0.00273782 -0.00660819 0.0144906 0.0156536 0.00516361 
0.00371985 0.00183034 0.00861494 0.0117308 0.0125618 0.00492831 -0.000995104 -0.00114628 -0.00100311 
0.00152239 0.00219865 -0.00248644 -0.00214944 0.0065732 0.00518428 0.0091281 0.00283625 -0.00316823 
-0.00285833 -0.00279866 -0.00355397 0.00702524 0.00674387 0.0195179 -0.0017995 -0.00148878 -0.00205753 
0.00345271 0.00302949 0.00407192 -0.0145078 -0.0103868 -0.00907031 0.013364 0.0140413 0.0131592 
-0.0104659 0.00718293 0.00665912 0.00930014 0.00504125 -0.0287786 -0.0319183 -0.0289472 -0.0249316 
0.0202093 0.0167267 0.0189599 0.00502318 0.0382683 0.0204729 0.02603 0.0292073 0.0121791 
0.0161999 0.0191895 0.0119867 0.0138341 0.0112362 0.00777053 0.0112192 0.0329464 -0.00103833 
-0.00434129 -0.00492575 0.00323722 0.0020194 -0.000238354 -0.00415732 0.00273612 -0.00949081 -0.00637238 
0.000352944 0.00188812 -0.0025413 0.00282966 -0.00514184 -0.00493221 -0.00461774 -0.00424907 -0.00448461 
-0.00517347 -0.00528979 -0.00481785 -0.00503234 -0.00506215 -0.00427232 -0.00456291 -0.00468508 -0.00358446 
-0.00394718 -0.00412268 -0.00275124 -0.00318473 -0.00340523 -0.00174321 -0.00224913 -0.00249999 -0.000701181 
-0.00120128 -0.00145117 0.000257165 -0.000187031 -0.000385948 0.0011536 0.000749066 0.00063623 0.00180978 
0.00153554 0.00152524 0.00214504 0.00202758 0.00214277 0.00207421 0.00214401 0.00234982 0.0016644 
0.00187929 0.00212701 0.000995404 0.00131772 0.0015327 0.000189151 0.000548879 0.000688675 -0.000484696 
-0.000200205 -0.000181442 -0.000968143 -0.000762252 -0.000860503 -0.00124296 -0.00110545 -0.00126226 0.00074801 
0.00256871 0.00680853 0.0271262 -0.0052926 -0.00527535 -0.00499263 -0.00517883 -0.0125273 -0.0147175 
-0.0253386 -0.0212606 -0.0243961 -0.00378591 -0.00608748 0.0165607 0.018082 0.015861 0.0143096 
-0.00824777 -0.010811 -0.0105189 -0.0157599 -0.0179676 -0.0130719 0.00414227 0.00528 0.00353824 
0.000736297 -0.00167756 -0.00267248 0.00522468 0.00293694 0.00136823 0.00941824 0.00720348 0.00530501 
0.01336 0.0113105 0.00890321 0.0173503 0.0151506 0.0122504 0.0214559 0.0192024 0.0155673 
0.0251743 0.023255 0.0187413 0.0073313 -0.00520041 -0.00533295 -0.00584107 0.00394143 0.0058417 
0.00401248 -0.0023707 -0.00332387 -0.00446886 0.000169511 -0.00102705 -0.00208195 0.00135606 0.00656564 
0.00694955 0.0133963 0.0128129 0.0117315 0.0106176 0.00944089 0.0219052 0.00515819 -0.00601178 
-0.00711874 -0.00459968 -0.0042874 -0.0016091 0.00412711 0.00431261 -0.00279957 -0.00108558 0.000393136 
-0.00214242 0.0113956 0.0117444 0.00681283 0.00592014 0.0022828 0.0101918 0.0121755 0.0127585 
-0.00358109 -0.00371402 -0.00305903 -0.00139716 -0.00155319 -0.00125011 -0.000168963 -0.0038802 -0.00678539 
-0.00293679 -0.00255829 0.00931439 0.00899716 0.0110713 0.0115761 0.0127776 0.0121489 -0.00143189 
-0.0169947 0.00470484 0.00398997 0.00367025 0.00536602 0.00542322 0.00522907 0.00702382 0.00748355 
-0.00378548 -0.00340351 -0.00312796 -0.00413518 -0.00218389 -0.00182752 -0.00165191 -0.00228804 -0.00121774 
-0.0102705 -0.00648594 -0.00474339 -0.00985629 -0.0110593 -0.00516737 -0.00501352 -0.00513458 -0.00583012 
0.0139667 0.010937 0.0139793 0.00751316 0.00946755 0.0080757 -0.0103637 -0.0087502 -0.0170236 
0.00875912 -0.0175125 -0.0137209 -0.0106115 0.00157659 -0.000725155 0.004615 -0.00658926 -0.00630798 
-0.00318955 3.0784e-05 -0.0216658 0.0111948 0.00976675 0.0106031 -0.00457678 -0.00778369 -0.00709906 
-0.00435643 -0.00458262 -0.00477488 -0.00489501 -0.00444226 -0.00304024 -0.00343215 -0.0021227 -0.00261673 
-0.00266182 -0.00106806 -0.00159701 -0.0017376 3.55241e-05 -0.000481275 -0.000631126 0.00108995 0.000592887 
0.000511111 0.00197413 0.00159872 0.00159126 0.00255637 0.0023415 0.00246859 0.00260424 0.00260756 
0.00288629 0.00214672 0.00238474 0.00271605 0.0013231 0.00171597 0.00200463 0.0002118 0.000695302 
0.000864124 -0.00072631 -0.000325656 -0.000385331 -0.00138293 -0.00111718 -0.00130525 -0.00152758 -0.00184005 
-0.00367669 -0.00612664 -0.00817715 -0.00500889 0.00195733 2.5359e-05 -0.00106798 0.0135351 0.0142192 
0.0116327 0.0111904 0.00470994 0.00290102 0.0051769 0.00576195 0.00743185 0.00249488 0.00422744 
0.00498403 0.00325171 0.00175245 0.00794763 0.00638242 0.00432313 0.0107663 0.00931116 0.0066944 
0.0134214 0.0120103 0.00895651 0.015854 0.0145708 0.0109965 0.00422981 0.00477145 0.00503904 
0.00768178 0.00686186 0.00391372 0.00607132 -0.00562612 -0.00511881 -0.00629527 0.0178117 0.0165193 
-0.00378822 -0.00408791 -0.00341581 -0.00405208 -0.00368502 0.00684824 0.00537857 0.00400267 0.00554771 
0.0124172 -0.00457624 0.00317173 0.00790369 0.00904868 0.00907707 -0.00206796 -0.00208886 -0.0032003 
0.000392154 -0.00581336 -0.00400427 0.000318995 0.00188649 0.00363671 0.0103321 -0.0106335 -0.00746924 
0.0079997 0.0082269 -0.00318652 -0.00257814 -0.00282037 -0.00453513 -0.00483565 -0.00478159 -0.00181368 
-0.00100771 0.0010371 0.00169103 0.0103834 -0.00420309 -0.00367419 -0.00459562 0.00451823 0.00592781 
0.00514437 0.0100252 0.00458514 0.00337793 0.00372327 0.00867182 0.00622745 0.00922376 0.00869646 
-0.00692319 -0.00699208 -0.00773647 0.00296493 0.00261682 0.00284762 -0.00522112 -0.00265913 -0.00513533 
-0.00439157 -0.00368796 -0.00461512 -0.00216191 0.00794501 0.0060586 0.00786421 0.00422545 0.0029578 
-0.00112909 -0.00161039 -0.00207031 -0.00245619 -0.00144063 0.0011185 0.000575944 0.0031062 0.00277352 
0.00283806 0.00306723 0.00176912 0.00228653 0.00269458 0.000115214 0.000776582 0.00102899 -0.00123281 
-0.000678001 -0.0008621 -0.00205258 -0.00169419 -0.0020772 -0.00259557 -0.00291311 -0.00199466 -0.000991372 
0.000306807 -0.00164381 0.0035139 0.00251619 -0.00305012 0.00326494 0.0040223 0.00790597 -0.00745517 
-0.0030475 0.00522291 0.00712242 0.00623556 -0.00552515 -0.00704632 0.00518961 0.00469042 0.00435432 
0.00469131 -0.00281674 -0.0031237 -0.00219407 0.00535923 0.0044079 0.00250167 -0.00966895 -0.000116091 
-0.000684075 -0.000593272 0.000493692 -0.00383275 -0.00403594 -0.00406158 -0.00430595 -0.00337047 -0.00206165 
0.000316587 -0.00110151 0.00616107 0.00279881 0.00214311 0.00325238 0.00169868 0.00205186 -0.00223592 
-0.00172612 0.00654178 0.00891067 -0.00391078 -0.00804639 0.00212415 0.00162494 0.00327353 0.00324526 
-0.00264334 -0.0012583 0.00081643 0.00203918 -0.00142596 0.0139967 0.00330766 0.00254761 0.00468768 
0.00385433 0.00260107 0.00338916 0.00310701 0.00294615 0.00446591 -0.00271321 -0.00177367 -0.00310118 
0.00143019 0.00102601 -0.0027756 -0.00338966 -0.0036256 0.00511314 0.00417973 0.00232618 0.0017284 
-0.00424394 0.00182911 0.00428704 -0.00322074 0.00348284 0.00366995 0.00384653 0.00237251 0.00185636 
0.00108939 0.00137894 0.000905044 0.000185782 0.0013079 -0.000466884 -0.000870838 0.00205145 0.000649167 
0.00292761 -0.0013458 -0.00165403 0.00283001 -0.0036818 -0.00341098 -0.00251957 -0.00312262 -0.00222287 
5.42792e-05 0.000736473 0.00944405 0.00917926 0.00422714 0.00417973 -0.00156846 -0.00178764 -0.000652836 
0.00257072 0.00119654 0.00104128 0.00256921 0.0021947 0.00395198 0.00439393 0.00407394 -0.00222951 
-0.0024294 -0.00100057 -0.000473156 -0.00144139 0.00179612 0.00138483 0.00418274 0.00062416 -0.00117939 
-0.0021913 -0.0788513 -0.000563027 0.000733785 0.00251921 0.00510832 -0.000227436 0.00710169 0.000956588 
0.00135337 -0.00104597 -0.000628122 0.0038003 0.000734038 0.00123494 0.000222781 0.000700649 -0.000208774 
0.000152383 0.00351517 -0.000373138 -0.000734021 -0.000227694 0.000500568 0.00122064 -0.000165041 0.000932487 
0.00188402 0.000514794 0.000281121 0.0012157 -0.0012457 -0.00157209 0.00174962 -0.000248789 0.000525447 
-0.00185612 -1.65009e-05 -0.103686 -0.0111516 -6.96392e-05 -6.32759e-05 -8.80942e-06 7.28181e-06 4.86652e-05 
6.73729e-05 9.63708e-05 9.49833e-05 8.8507e-05 7.56566e-05 0.000277384 0.000531166 0.00101709 0.00125762 
0.000878711 0.000599745 0.00031657 0.000551748 0.000523431 0.000774071 0.000120394 0.000933016 0.00133376 
0.00172617 -0.00292123 0.00084806 -0.000696353 -0.000925952 -0.00040544 -0.000686146 0.000422883 0.00057714 
-6.5778e-06 -0.000260257 -0.000601855 -0.000521166 -0.000167801 9.24461e-05 -0.000164637 -0.000764084 -0.000140636 
7.24077e-05 0.000209833 0.000260377 0.00037354 0.000329119 -0.000527428 0.0997362 8.64023e-06 1.85294e-05 
0.0071898 -0.00191145 -0.00232882 -0.00224378 -0.00102727 -0.000566688 -0.000529216 -0.000347913 -0.000306138 
-0.000259192 -0.000299661 -0.000180575 -0.000196422 -0.000142971 -0.000146162 -0.000133933 -0.00012474 -5.55467e-05 
-8.1807e-05 -9.0995e-05 -9.3044e-05 -7.96597e-05 -7.34799e-05 -7.49251e-05 -6.30536e-05 -3.12633e-05 -3.28862e-05 
-4.25622e-05 -4.42503e-05 -4.779e-05 -4.04634e-05 -5.08299e-05 -3.78349e-05 -2.50526e-05 -2.31601e-05 -2.23576e-05 
-1.47925e-05 -1.9639e-05 -1.15193e-05 -1.85695e-05 -1.06566e-05 3.5085e-07 1.29465e-05 1.30447e-05 2.029e-05 
2.18715e-05 2.20105e-05 2.18776e-05 2.31114e-05 2.0342e-05 1.77789e-05 1.93187e-05 1.35775e-05 2.67384e-06 
1.47654e-05 2.16378e-06 -1.39409e-06 -6.72347e-06 -7.94883e-06 -8.13777e-06 -8.75608e-06 -8.1626e-06 -6.26173e-06 
-5.84591e-06 -1.746e-06 5.29292e-06 1.08373e-05 1.30604e-05 1.97877e-05 2.02013e-06 1.28764e-06 -7.40757e-06 
-0.000238943 -9.62805e-05 -5.09445e-05 -2.70723e-05 -4.30027e-07 2.62513e-05 -8.78018e-06 7.79678e-06 -3.2092e-05 
-5.17857e-05 1.32998e-05 2.82827e-06 -7.52601e-07 -2.09242e-06 1.0088e-07 -5.63453e-06 -3.25423e-06 -7.1961e-06 
-3.05683e-06 -1.48761e-05 -2.0452e-05 -2.80183e-05 -2.58348e-05 -2.67618e-05 -2.03572e-05 -2.18405e-05 -2.61376e-05 
-3.25457e-05 -4.16063e-05 -4.31892e-05 -4.40863e-05 -3.60527e-05 -3.34714e-05 -1.04763e-05 -1.18049e-05 2.70985e-05 
2.16896e-05 2.58984e-05 2.5627e-05 3.33716e-05 2.96067e-05 3.79212e-05 3.62896e-05 4.57817e-05 5.48727e-05 
5.35122e-05 5.30726e-05 4.19107e-05 4.04075e-05 2.63447e-06 -2.22258e-06 -1.62869e-05 2.41601e-06 -4.56049e-06 
-2.96528e-05 -1.40477e-05 4.58335e-05 -0.0786786 -0.177359 -0.192127 -0.235795 -0.252801 -0.275334 
-0.295207 -0.31652 -0.317985 -0.318137 -0.324835 -0.317397 -0.325056 -0.312389 -0.30466 
-0.291397 -0.284991 -0.260278 -0.25817 -0.209742 -0.191631 -0.147664 -0.124519 -0.122053 
-0.175993 -0.237485 -0.192328 -0.281602 -0.255076 -0.298487 -0.29071 -0.320856 -0.313127 
-0.325999 -0.324826 -0.31757 -0.32354 -0.29103 -0.310803 -0.262175 -0.279759 -0.215192 
-0.239245 -0.153293 -0.199292 -0.127549 -0.188189 -0.120501 -0.10712 -0.100984 -0.0911679 
-0.0810115 -0.092769 -0.0649304 -0.122966 -0.0670354 -0.105891 -0.0714155 -0.111048 -0.0770188 
-0.0939956 -0.118022 -0.154332 -0.11481 -0.117438 -0.0814393 -0.112325 -0.0799817 -0.123388 
-0.321377 -0.333415 -0.333396 -0.337399 0.000308957 0.00020152 0.000182767 9.65115e-05 -0.322402 
-0.307976 -0.331791 -0.282804 -0.299298 -0.119172 -0.243714 -0.257826 -0.326332 -0.0314837 
-0.0324709 -0.0358063 -0.17954 -0.198373 -0.230302 -0.255843 -0.218073 -0.298189 -0.273387 
-0.159886 -0.128137 0.00422024 0.00821324 0.00521041 0.00967517 -0.317026 -0.312686 0.0235318 
0.0394674 0.0989669 0.0684056 0.0724761 -0.257142 0.0314813 -0.00447808 -0.00542414 -0.00489969 
-0.00591172 0.00226333 0.00359578 0.0058186 0.0349017 0.0354366 0.0294243 0.0352343 0.0294503 
0.00950197 0.00634175 0.00830307 -0.000526895 -0.000588069 -0.00108551 0.00259366 0.00272349 0.00222779 
0.002355 -0.0211993 -0.0206083 -0.0181457 -0.000411993 0.000789156 0.00157517 -0.00209898 -0.00130183 
-0.00279912 -0.00202399 -0.00202807 -0.00297631 -0.00259966 -0.00118348 -0.00161099 -0.00108941 -0.00153408 
-0.000518319 0.000490999 -0.000315848 0.000613697 0.000152068 -0.00176086 -0.0022576 -0.00189774 -0.000561598 
-0.00221641 -0.000411108 -0.00101968 -0.00044162 -0.000622488 0.0359731 0.0377814 0.0367166 0.040507 
0.00299978 0.00405269 0.00222442 0.00162455 0.00108994 0.0012878 -0.00282181 -0.0206923 -0.0217602 
0.0534707 0.0517859 0.059226 -0.0162108 -4.79433e-05 -9.28059e-06 -0.000349193 0.00212143 0.00121924 
0.00236197 -0.00166726 -0.00176706 -0.00226559 -0.00237678 0.00863642 0.00778769 0.00710134 0.00635549 
-0.00186511 -0.000147443 0.000471303 0.000209366 0.000789289 -0.0212123 -0.0214657 -0.0267604 0.031897 
-0.000498962 -0.000705895 -0.0010713 0.00517991 0.00474132 0.00460758 0.0338795 0.00167286 0.00131512 
0.0016046 -0.000937312 -0.00111622 -0.000948784 -0.00458315 -0.0364098 -0.0337925 -0.029834 -0.00035464 
-0.000422484 -0.000269624 -0.000774967 -0.00058264 -0.000946008 -0.000606227 -0.000547543 -0.000209405 0.0103373 
0.00534272 0.00526496 -0.000314334 -0.000383097 -0.0006066 -0.000692971 0.00241013 0.00315882 0.00231842 
0.00307188 -0.00123639 -0.00191962 -0.00142021 -0.00204246 -0.000704804 -0.00365909 -0.00377755 -0.00330293 
-0.000526989 -0.000656759 -0.000644553 -0.00847054 -0.00715536 -0.0112776 0.00578413 -0.00386943 0.00714126 
-0.00145525 0.00786007 0.0068199 0.00905516 -0.0759191 -0.0734193 -0.0782639 -0.0727394 0.00035194 
0.000426453 0.000278565 -0.00498974 -0.00462827 -0.0050987 -0.00476931 0.0165458 0.0164929 0.0209311 
0.0207815 -0.00327442 -0.0039137 -0.00246741 -0.0031306 0.0571749 -0.00364993 -0.0031658 -0.00247284 
-0.00237945 0.00538255 0.00487529 0.00525191 0.00476064 -0.0166305 -0.0148667 0.0324692 0.0312169 
-0.00030346 -0.00250617 -0.00223433 -0.00300096 -0.00270619 -0.000403011 -0.000697543 0.0503095 0.00131893 
0.00145984 0.00128428 0.00357281 0.00308514 0.00368252 0.00131791 0.00416727 0.00323822 0.00464066 
0.00445179 0.00504958 0.0683332 0.0694816 0.0226684 -7.91644e-05 -5.4318e-05 -0.000127649 0.00277744 
0.00295024 0.00332589 0.0165513 0.0134349 0.0140187 0.0308248 0.0335026 -5.93102e-05 -0.000159429 
-0.000100823 -0.0006103 -0.00127328 -0.0013566 -2.15583e-05 0.00101853 -0.00256784 -0.00284573 -0.00321676 
0.0041303 0.00363862 0.00352796 0.0131798 0.00819845 0.0116044 -0.00233389 -0.00254183 -0.00305387 
0.000413519 0.000466466 0.00104384 0.00109022 0.000826599 0.000443619 0.00125608 0.00630887 0.00840478 
0.00761176 0.00350873 0.00439263 0.00457643 0.0110107 0.0147151 0.00394781 0.00206388 0.00225927 
0.00165703 0.00440638 0.000494966 0.00329259 0.00464055 0.0071209 0.00429797 -0.028972 0.0577284 
0.000131021 0.000770045 -0.00724208 -0.0100733 -0.0116304 -0.015078 0.00389059 0.00311394 0.00164731 
0.0017157 0.00290575 0.00231319 0.00256707 0.0120374 0.00936536 0.0135408 0.00240437 0.00303992 
-0.00642612 -0.00282111 -0.00373775 -0.0854245 -0.00326594 -0.00353589 -0.00350917 -0.000485172 -0.00062546 
-0.000504481 0.00745472 0.00766187 0.0099563 0.00885546 0.0121301 -0.0895577 -0.0560184 -0.0633485 
-0.0155327 -0.00181568 -0.00267925 -0.00251567 -0.000554426 -0.000723533 -0.000669123 -0.000511205 -0.000326298 
-0.000719226 -0.0113929 -0.0187746 -0.0277645 -0.00013984 -0.00024417 -0.0514756 -0.049421 -0.0595398 
0.031233 0.0273516 0.0278075 6.8048e-05 0.000197126 0.010807 0.0694745 0.0211953 0.024927 
0.0248436 -0.0301085 -0.033832 -0.00672323 -0.00592726 -0.00624601 -0.0163365 -0.017489 -0.0224204 
0.000289697 0.00298263 0.0042048 0.00535595 0.000665546 0.00032851 0.000648803 0.000319146 0.00367145 
-0.0143796 -0.0112189 0.000579744 0.000608242 0.000565099 0.000524393 0.000356049 0.000322477 -0.00244947 
-0.000827795 -0.00128563 -0.00104309 -0.00149844 0.00508401 0.00428652 0.00630383 -0.00207111 -0.00114834 
-0.00214544 0.00453265 0.00706798 0.00301435 0.00183361 0.00132585 0.00134753 -0.0296878 -0.0293581 
-0.0266671 0.00524049 0.00555971 0.00517914 0.00189323 0.0361818 -0.0132731 -0.013585 -0.015848 
0.00589762 0.00767587 0.00650367 -0.00200135 0.00170488 0.00151022 0.00149977 0.000131669 -0.000727716 
0.011029 0.00048285 0.000294419 0.059467 0.0648721 0.0584991 0.0614729 0.0673412 0.0715259 
-0.000366374 -0.000340514 -0.000327643 -0.00130946 -0.000860147 -0.00183826 0.0295594 0.0256046 0.0270372 
0.0276272 0.0243399 0.0181707 0.0127602 0.0148308 0.00984044 0.00160949 0.00141018 -0.00258392 
-0.00231243 -0.0024818 0.00131113 0.00134183 0.0215197 0.0191049 0.0244457 0.0011868 0.00108765 
0.00129256 0.00149412 0.00165972 0.000766147 0.000734357 -1.27951e-05 2.17116e-05 -7.01588e-05 0.00372762 
-0.00394504 -0.0042997 -0.00419882 -0.00457754 0.00918384 0.005568 0.00616127 0.00685417 0.00303232 
-0.00407521 -0.0036871 -0.004332 -0.00393362 0.0353313 0.0373176 0.0361601 -0.000858437 -0.000434547 
-0.000993751 -0.00250127 -0.00241917 -0.00288167 0.00933459 0.0117247 0.00768475 0.00999503 0.0565706 
0.0526857 0.0578062 0.0503068 0.0405202 0.0334751 0.00491949 0.00593329 0.00434223 -0.0460335 
-0.0421811 -0.0450083 -0.00498752 -0.00483482 -0.00451962 0.00108904 0.00106085 0.000783862 0.010079 
0.0148037 0.0123861 0.0170337 -0.0177041 -0.032829 -0.00507234 -0.0261666 -0.00587224 -0.0153916 
-0.0188002 -0.0035211 -0.029551 -0.00137577 -0.0475143 -0.055985 -0.00670648 -0.00956072 -0.00864707 
-0.00418371 -0.00357038 -0.00398791 -0.00385211 -0.0034014 0.0053571 0.00242978 0.00210161 0.00309094 
0.00474592 0.00227048 -0.00223885 -0.00178956 -0.00252268 -0.00295012 -0.00291009 0.0359544 0.0402606 
-0.000277999 -0.000130949 -0.00015271 -0.016642 -0.0142131 -0.0181178 0.00406018 0.00328853 0.00314897 
0.00147052 0.00226001 0.00175971 0.00981152 0.0114344 0.0439785 0.0429218 -0.0018097 -0.000992395 
-0.00178968 -0.000960809 -0.00148424 -0.00139847 -0.00362874 -0.0033478 -0.00324887 0.005873 0.00378513 
-0.00137448 -0.00110535 -0.00165461 0.000445699 -0.000650035 0.0220297 0.030705 -0.00189261 -0.00265782 
-0.00250435 -0.00310655 -0.00236804 -0.000600455 -0.000634185 -0.000943853 -0.000953964 -0.000516641 -0.000858429 
-0.000973192 0.00216788 0.00265039 -0.0056472 -0.00502915 -0.00540229 0.00185793 0.00143986 0.00126655 
0.00691562 0.00947026 0.0078501 0.000723528 0.000896811 0.000928598 0.00111181 0.000430659 0.000794713 
0.0216331 0.0211621 0.0059887 -0.00288433 -0.00438743 -0.00193101 -0.000542043 -0.000464089 -0.000430386 
-0.000359873 0.0261775 0.0241253 0.0251347 -0.00151936 -0.00192214 -0.00180607 0.0722217 -0.00172557 
-0.0010475 -0.00194009 -0.00191944 -0.00337352 -0.00052928 0.00995572 0.00933051 -0.00555022 -0.00400791 
0.000536343 0.00195604 -0.00353118 -0.001275 -0.00180877 0.00162381 -8.12251e-06 0.0014006 -0.0350407 
-0.0410208 -0.0382219 -0.0178564 -0.0210487 -0.0188507 -0.00100578 -0.00072283 -0.00115943 0.00499971 
0.00587333 0.00518595 0.00599963 -0.00177315 -0.00170716 -0.00203181 -0.00195779 -0.00679401 0.000530353 
0.0010943 0.000299992 0.00100454 0.00141365 0.00192697 0.00059823 6.95848e-05 0.00100686 0.000642778 
0.00102357 -0.00331493 -0.00341495 0.00130322 0.00113638 0.000886532 -0.00374814 -0.00347841 -0.00427073 
-0.00261461 -0.00231074 -0.00214346 -0.00185917 0.00160198 -0.00136839 -0.00642462 -0.00837154 -0.00488694 
-0.00686729 -0.00124669 -0.0015738 -0.000118082 -0.000817787 0.00142692 0.00209743 0.00184963 -0.0153948 
-0.013195 -0.0125254 0.000359107 -0.00488382 -0.00551842 0.0200029 0.0174577 0.0169803 -0.00189445 
-0.000860101 -0.000465108 0.00279637 -0.00953557 -0.00427778 -0.024229 -0.0214795 -0.0278793 -0.0250249 
0.00330436 0.0035535 0.00406262 -0.0238185 -0.0562492 -0.0104212 0.00120311 0.00202843 0.00164576 
-0.00327979 -0.00368618 0.0148534 0.0193975 0.0128532 0.017031 0.00557669 -0.00594304 0.0428956 
0.0420941 0.0342463 0.00977267 0.00667576 0.00816499 -0.00304764 -0.00169766 -0.00103013 0.00190933 
0.000899745 0.00160484 -0.005003 -0.00465775 -0.00477351 -0.00456468 -0.00419585 -0.00427083 0.00236256 
0.00169131 -0.00799285 -0.00516188 0.00111438 0.000396079 -1.64509e-05 0.0205111 0.0179643 0.0222279 
0.0356647 0.0320505 0.0383956 -0.00405405 -0.00334657 0.0151459 0.00931197 0.00827253 0.026368 
0.0298236 0.022108 0.00245821 0.00054446 0.000418596 0.00034639 0.00635211 0.00553711 -0.00451599 
-0.00398018 -0.00401385 0.0129027 0.0152107 0.013449 0.0017872 -0.00468026 -0.00108264 0.00361029 
0.00423319 0.00271007 0.00128308 -0.000955091 -0.000424653 -0.00149418 -0.000946316 0.000240233 0.00866438 
0.00954963 -0.00934746 -0.0711145 -0.00328016 -0.00286282 -0.00201275 -0.00194756 0.00559046 0.00840465 
0.00696877 0.0143032 0.015211 0.0135201 0.0143148 0.00268329 0.00261562 0.0033268 -0.000115237 
0.000338704 0.000328001 0.00234858 0.00297437 0.0024549 0.0216933 0.0255081 0.0252296 -0.00109016 
-0.000828808 -0.001066 -0.000812382 0.00444592 0.0047032 0.00543646 0.00374579 0.00671705 0.0127997 
0.00560386 -0.00224257 -0.0010502 -0.0504109 -0.0498564 -0.0547867 -0.0669059 -0.0593271 -0.00715986 
-0.00785809 -0.00574741 -0.00733613 -0.00670569 -0.0120738 -0.0625515 -0.00451878 -0.00406489 -0.00405241 
-0.000161927 -5.10548e-05 -0.00202503 -0.00184819 -0.00270472 -0.0026665 -0.00286188 -0.0208938 -0.000748987 
-0.00129155 -0.00142717 0.0144323 -0.00360908 -0.00281948 -0.00348162 -0.0133463 -0.0111311 -0.000882622 
-0.000363939 -0.000674781 0.0178144 0.0152455 0.0213153 0.0207089 0.0202814 0.0221183 0.00280558 
0.00259306 0.00250073 0.0108097 0.00971935 0.0130208 0.00356067 0.00280103 0.00288453 0.00215156 
-0.00323094 -0.00468446 -0.00611447 -0.00326021 0.00184338 0.00153429 0.0160099 0.0131278 0.0152294 
-0.0302226 0.000808687 0.000806609 -0.0124399 -0.0124633 -0.0165785 0.0101542 0.00712921 0.00760637 
-0.000934617 -0.000786071 0.00918493 0.010779 0.00945962 0.0111198 -0.00930206 -0.00677457 -0.010883 
-4.26108e-05 0.000150239 -0.0161334 -0.0202297 -0.0203995 0.00797517 0.00886358 0.0130065 0.0132727 
-0.00401846 -0.00380133 0.0020743 -0.0119991 -0.013959 -0.0150288 0.0289451 0.00322157 0.00405362 
0.00517037 -0.0031297 -0.00251145 -0.00291171 -0.00232119 -0.0161683 -0.0169056 -0.0145787 -0.0196824 
-0.0203575 0.000951859 0.000917919 -0.00596644 0.0228649 -0.0208627 -0.0178213 0.0186946 0.0182211 
0.0197293 0.0222356 -0.00889765 -0.0110834 -0.00471537 0.0174778 0.000645935 6.90511e-05 -0.0100237 
-0.0137332 -0.0117836 -0.00389367 -0.00284106 -0.00402662 -0.00289611 -0.0262927 -0.0246752 -0.0654189 
-0.0602356 -0.0611137 0.00909338 0.0123481 0.0114247 0.0112258 0.0127945 0.0109216 0.0126962 
-0.000948114 0.00517359 0.00998835 0.00280952 0.00667332 0.0073684 0.0124338 0.0129671 0.0130961 
0.0135988 0.0264747 0.0010026 0.00126339 -0.00457699 -0.00447776 -0.00419505 -0.00584078 -0.00723543 
-0.00565718 -0.0502127 -0.00126956 -0.00126235 -0.0010509 0.000720599 0.00168208 0.00156369 -0.000688661 
-0.000277954 -0.00056431 -0.000478303 -0.00292774 -0.00282396 -0.00320043 -0.00293494 0.103774 0.0894859 
0.0839462 -0.00177555 -0.00191349 0.00847711 0.00602384 -0.00518521 -0.00501212 0.00127739 0.00188888 
0.00139156 0.00195506 0.0278693 -0.00407248 0.00532 0.00465834 0.00318233 0.000131808 -0.00049632 
-0.00191789 -0.00107013 0.00392945 0.00576205 0.0035399 0.00970945 0.0103497 -0.000654485 -0.00137842 
-0.000769522 -0.00423029 -0.00431264 -0.00172501 -0.0026349 -0.00762901 -0.00632164 0.0044132 0.0120748 
0.0086482 0.0117262 -0.00442563 -0.00466736 -0.00516383 -0.00383068 -0.00197944 0.0112678 0.00903907 
0.00199991 0.021353 0.0238004 0.0199264 -0.00229908 -0.00599527 -0.00614678 0.00124679 0.000998795 
0.00117554 -0.00832304 0.000815208 0.00177369 -0.00446015 0.000754561 0.000722622 -0.000161294 2.90551e-05 
-0.000780927 -0.000769399 -0.000618026 -0.000785466 0.00241008 0.00180807 0.00174814 0.00180175 0.00244299 
-0.0323349 -0.0296007 -0.0264302 0.000327002 0.000592024 -4.94882e-05 -0.0179744 -0.00443732 -0.00419632 
-0.00430908 -0.00169452 -0.00221587 -0.0289136 0.0211937 0.0236311 0.020568 0.0228752 0.0238904 
0.0472312 0.05024 0.0447141 0.0477714 0.0021294 0.00231829 0.00190913 0.0021085 -0.00369559 
-0.00326364 -0.00387137 0.000319226 0.0188789 0.015953 0.0181194 -0.000303565 -0.000282396 -0.000485793 
0.00833318 0.032093 0.0278861 0.0271277 -0.000623887 -7.39938e-05 -0.000931603 -0.00381654 -0.00439523 
0.00814007 0.00905212 0.00977575 0.0108467 -0.00324659 -0.00333867 -0.00139848 0.0086107 0.00684202 
0.0069567 0.0056364 0.00626479 0.00441682 -0.00559884 -0.00318803 0.0135204 0.0123635 -0.00256813 
-0.0020768 0.00133604 0.00172407 0.000180575 0.0105739 0.00504868 0.00498455 0.00280493 0.00114561 
0.000881795 0.00110337 0.000838613 0.0106236 0.0132121 0.0151361 0.000876506 0.000747757 0.0118865 
0.0111452 0.0117631 0.00947674 0.0104095 0.0200766 -0.00253484 -0.0011873 -0.00260501 -0.00223832 
0.00352698 0.00371778 0.00308578 0.00321493 0.000232725 -0.00118821 9.36459e-05 -0.00158366 -0.00209601 
-0.00158728 -0.00808037 -0.000559624 -0.00154355 -0.000486012 -0.00101587 -0.00120054 -0.000287989 0.000435831 
0.00724878 -0.00255234 0.00869556 0.00161476 -0.0250975 -0.0270974 -0.00249469 -0.00178252 0.0205258 
0.0165574 -0.00153578 -0.00190621 -0.000972002 -0.00136257 -0.00288134 -0.00463934 -0.0040594 -0.00475809 
-0.00417386 -0.00313356 0.000891925 0.000951662 0.000737731 0.000781779 0.000936059 0.000637005 0.00224062 
0.0022675 0.00228392 0.0020832 0.0218479 0.0225281 0.0360014 -0.00372942 0.000661554 -0.00503009 
-0.0286807 -0.0251669 0.00400656 0.00823001 0.00451344 0.00266343 0.00145864 0.00439721 0.00487563 
0.00579037 0.0220673 0.0169475 0.0203134 -0.0124989 0.00301127 7.66021e-05 0.00235407 0.0276355 
0.0295245 0.0355096 -0.00350485 -0.00482 -0.0038289 -0.00281187 -0.00198883 -0.00951438 -0.00680692 
-0.00647169 -0.00809081 -0.00877214 -8.56193e-05 9.31272e-05 -8.52681e-05 0.00246844 0.016118 0.0134999 
0.0159282 0.0131837 0.0109035 0.01066 0.0136806 0.00423844 0.0100841 -0.0236409 -0.0324295 
-0.0223431 0.00403149 -0.000243061 0.019176 0.0198274 0.0153616 0.0158776 -0.000347549 -0.000398937 
-0.000488984 0.00374176 0.00509764 -0.000134701 -0.000280461 -0.00138391 -0.0104613 0.0094819 -0.00224078 
-0.00183696 0.00320111 -0.00876932 -0.00809113 -0.0061574 -0.00287983 -0.0023443 -0.00356676 -0.00307902 
0.0036516 0.00255051 0.00893434 -0.00023476 -0.000604547 0.0001971 0.038074 0.0313822 0.0349442 
0.0123079 0.00438813 0.00408918 0.00536803 0.0012477 0.00179766 0.00285897 -0.00300634 0.0126357 
0.000512751 -0.0114621 -0.0094654 -0.0114172 -0.00191772 0.0024001 0.00397672 0.00239216 0.0422842 
0.0548581 0.0339 0.0457832 0.0010301 0.0272855 0.0298822 0.0319152 -0.00284488 -0.00180567 
0.00369909 0.00319418 0.00244057 0.012974 0.009898 0.0110661 -0.00326355 0.000420663 0.000462465 
0.00283671 0.00252531 0.00251407 -0.00305654 0.0418287 0.0393119 0.0369703 0.0344251 -0.0291529 
-0.00142115 -0.00143896 -0.000672953 -0.00447684 -0.00406688 0.000692496 0.0012308 0.000536593 0.000594452 
-0.00238075 -0.00205985 0.000378886 -0.000711988 0.0354991 0.0411053 0.00528299 0.00540862 0.0341854 
-0.00208598 -0.00194753 -0.00235994 0.0262655 0.0250512 0.0242913 -0.00572341 -0.00408936 0.0243452 
0.0297287 0.0301865 -0.000764141 0.0359614 0.0389751 0.00752235 0.00436474 0.00530627 0.000770371 
0.00601651 0.0235957 0.019733 0.019868 -0.00436146 0.00717725 0.0113694 0.0141507 0.000897037 
-0.00426258 -0.00352346 -0.00876101 0.0510444 0.0143902 0.0122755 0.00754685 0.0075034 0.00165385 
0.000334539 -0.00136195 0.000103725 0.00136047 0.00261621 0.00215152 0.0114366 0.0011991 0.00167131 
0.00155721 -0.000256565 0.00135371 -0.000888471 0.000806286 0.000165982 -0.000731267 -0.000856001 -0.00215889 
-0.00227039 0.0170892 0.0189537 0.0216445 -0.000443427 0.00106001 0.000940123 0.00486327 0.0162491 
0.0137251 -0.0035208 -0.00217559 -0.00194755 -0.00223377 0.000763316 0.00156168 0.000967887 0.00309674 
0.00617658 0.0290192 0.0247914 0.00341817 0.0019318 0.00232921 0.00216295 0.00586834 0.00654318 
0.00693904 0.0065797 -0.00192326 -0.00187043 -0.00349269 -0.00474482 0.000120741 6.18046e-05 0.000382378 
0.000550804 -0.0007114 -0.000880459 0.00282696 0.00500647 0.00329222 -0.000184192 0.000431241 -0.00189433 
0.000813908 -0.000208059 -0.000206282 -6.95964e-05 2.54344e-05 0.000203095 -0.000247201 -0.00010547 -0.000145316 
-0.00533639 -0.00517867 -0.00534456 0.00238667 0.00211365 0.00251774 0.00628196 0.00842758 0.000150931 
0.00152623 0.000633096 -0.0232092 0.00125527 -0.0406588 -0.0536133 -0.0614055 0.00867084 0.0121009 
0.0091341 0.000146738 0.000943458 0.000870926 -0.0013391 -0.00120865 -0.00247711 0.0332034 0.0364399 
0.0329022 -0.00245873 -0.0012046 -0.00244795 0.00431232 0.00399233 0.0044892 -0.00134544 -0.016171 
-0.0160514 -0.00510236 -0.00297964 -0.00429604 -0.00188957 -0.069854 -0.075069 -0.096994 -0.109935 
0.00864212 -0.0110591 -0.00747024 0.000148671 0.000111627 -8.32296e-06 0.000178266 0.000947857 -0.000963497 
-0.00038736 0.00183959 0.00146277 0.00937977 0.00334322 0.00573033 -0.00117354 -0.00129637 7.21256e-06 
0.000818347 -6.44829e-05 -0.00396976 -0.00423896 -0.00401774 -6.07899e-05 -0.000163758 -2.45303e-05 -0.000119247 
-0.000325756 -0.00027584 -0.0031435 -0.00236553 -0.00229413 -0.000783568 -0.000208667 0.00583922 0.00629076 
0.003376 -0.000540541 -0.000651276 -0.0030729 -0.0029579 0.0132935 -0.00480992 -0.00462152 -0.00504135 
0.0258122 0.0191662 -0.00347787 -0.00323399 -0.0145817 -0.0175722 -0.0255011 0.00019161 -3.05192e-05 
-1.27886e-05 0.000887452 -0.0028599 -0.00329048 -0.00303744 0.00170437 -0.00970186 -0.00902661 0.0184235 
0.00341277 0.00496895 -0.00281616 -0.00157312 7.90327e-05 0.000213177 -0.00286772 -0.00588711 -0.00377072 
0.0662352 0.019988 0.0242478 -0.00119835 0.000265981 0.0140517 0.00559634 0.0108039 0.00486737 
0.00497426 0.00432368 0.0166329 0.000374059 0.0166167 0.0167767 0.00297837 0.00234842 0.00210217 
-0.00254951 -0.0058155 0.0216915 0.0260155 -0.00805698 -0.00712443 -0.010419 -0.0133647 -0.0138281 
-0.00102882 -0.000825161 -0.000293128 0.0014672 -0.000981328 -0.000836408 -0.00117121 -0.00247413 0.00218632 
0.00202316 -0.00388093 -0.00988779 -0.0172678 -0.000301576 -1.95753e-06 -4.48117e-05 0.0207657 -0.000145254 
0.000878178 0.000224923 0.000680856 0.000667204 -0.000947016 0.0114344 0.00304954 0.00302331 0.0039271 
-0.00505348 -0.00493429 -0.00518828 -0.00504876 0.0158403 0.0213529 0.0141593 0.00277745 0.025272 
0.0176798 0.0189205 -0.00444988 -0.000375065 -0.000403341 -0.00061813 -0.0142268 0.00440648 0.00255796 
0.00475461 0.00272478 0.00100778 0.000751458 0.00113684 0.00108533 0.0030649 0.0032014 0.0135742 
0.0426309 0.039424 0.0377347 -0.00132669 -0.00241839 0.000600945 0.00319101 0.0119099 0.0121119 
0.00419808 0.00200504 -0.0207719 -0.003026 -0.020061 -0.0040406 -0.00719348 -0.00651012 0.0496615 
0.0451985 0.052025 0.0480524 0.0502202 -0.000271203 0.00136356 0.00440938 -0.00444473 -0.0016852 
0.0408045 0.0738335 0.00172648 -0.0370929 -0.0392366 -0.0011934 -0.00380084 -0.0041659 -0.00363821 
0.0410891 0.00722908 -0.000130132 0.000465481 0.000157473 0.000820631 -0.030782 -0.036292 -0.0566943 
-0.0329258 -0.0442196 0.000107282 0.0405096 -0.00490136 0.00688048 0.00320581 0.00145113 -0.0142391 
-0.0159442 0.00816896 0.00745558 0.00901683 0.00568456 0.00744211 -0.0130815 0.0183125 0.0353027 
0.0462967 0.0101967 0.0393151 0.0457616 0.0290967 0.00607202 0.0140629 -0.0240469 -0.0098845 
0.027375 0.0181841 0.0166675 0.0182032 -0.000149427 -0.000261557 -0.000231795 0.00117234 -0.00319497 
-0.00199681 -0.00232115 -0.00191098 -0.000285386 -0.000209743 0.00879288 0.0161476 0.0148673 -0.00939689 
-0.0383892 -0.038407 -0.000476234 -0.000504177 -0.00342426 -0.0014677 -0.00167198 -0.0016419 0.00554807 
0.00638252 -0.00182722 0.00425805 0.00435211 0.00230801 -0.00454991 0.00275743 0.00155437 0.00178887 
0.000507711 -0.00518837 -0.00494973 -0.00499672 -0.000923822 -0.00134682 -0.0014515 -0.00431872 -0.00470442 
-0.00482706 -0.00442714 -0.005371 -0.00510461 -0.00520979 0.00196871 0.00100588 -0.00295719 -0.00322978 
0.00445689 5.63719e-05 -0.00292186 -0.00288028 -0.00249748 -1.7471e-05 0.0136445 0.000470534 -0.00562826 
0.0247425 0.000189926 0.000452756 -0.000546097 -0.00100447 -0.000573145 -0.00190779 -0.0199885 -0.00163303 
0.021213 0.016618 0.0126139 -0.0226549 -0.0231402 -0.00244013 -0.00301693 0.0113284 -0.00356812 
-0.00321443 -0.0119358 -0.010611 -0.000196724 1.15605e-06 0.00292452 0.00319711 0.0153163 0.012446 
0.0431115 0.0553661 0.0604302 0.0538927 -0.000805923 0.00125216 0.00181836 0.00185268 -0.00389625 
-0.00319249 -0.002332 0.019507 0.00520526 0.00411508 0.00519215 0.000604428 0.00177001 -0.00110445 
-0.00159417 0.000539345 0.00147309 0.00300433 0.00208257 0.0541581 -0.000869126 -0.00103646 0.00408462 
0.0324319 0.0483411 0.000975702 0.00142041 0.00295848 0.00081836 0.0340444 0.00245152 -0.00317154 
-0.0043094 -0.000708845 -0.00368296 -0.00419701 -0.00369562 -0.000747201 0.00137999 0.00142455 -0.000698032 
-0.00395431 -0.000578874 -0.0370583 0.00466228 -0.0396246 -0.0440557 -0.0393033 0.00167017 0.00146207 
0.00150463 0.0161842 0.0165305 0.0130908 -0.00285115 -0.00346084 -0.00305564 -0.00482295 -0.00488603 
0.00455507 0.00327425 0.00580066 -0.00238928 1.68273e-05 0.00136395 0.00220802 0.00865806 -0.00142497 
-0.000853386 0.000341574 0.0192239 0.0213004 0.0176781 0.0195242 -0.0012974 -0.00140843 0.000431515 
0.00560975 0.00709018 -0.00251881 -0.00413332 0.0141369 0.0176127 0.0014438 0.023604 -0.00469596 
-0.00849674 -0.00866571 0.0214908 0.022225 0.006799 0.0233586 -0.00505294 -0.00283533 0.00308086 
0.00410453 -0.0383327 0.0172835 0.0448193 0.0438391 0.00485991 0.00591898 -0.0286075 0.0121349 
0.00144455 0.00292332 0.00112426 0.0152657 0.0205103 0.000452402 0.000522753 0.000647855 0.0173491 
0.00808348 0.000587877 0.0191142 0.0149095 0.0185034 0.0209083 0.0171025 -0.00344729 -0.00495203 
-0.00524313 -0.00541669 -0.00537919 -0.00157158 0.0339035 -0.00367163 -0.00394542 -0.00500516 -0.00528355 
-0.00526869 -0.00526024 0.00130729 0.00200202 -0.00464337 -0.00476912 0.00145964 -0.0113246 0.00134028 
0.00114625 -0.0054026 -0.00540688 0.00136019 0.00144993 0.00414251 0.00448456 -0.00169135 -0.00145154 
0.00159287 -0.0687151 -0.000659471 -0.000856425 -3.88676e-05 -0.00291522 0.0345885 0.0132851 0.0206108 
0.023675 0.0254526 0.0266228 0.0029177 0.00229764 0.00211651 0.0044413 -0.00263235 -0.00270771 
-0.0186418 -0.0120518 -0.00860257 0.0312034 0.0331567 -0.00365075 -0.00344696 -0.00426826 -0.0040456 
-0.0044314 -0.00294547 -0.03327 0.00317391 -0.00144211 -0.00130318 -0.00116167 -0.00107764 -0.0011224 
-0.000937442 -0.00182392 -0.000258426 -0.00157271 -0.000363218 0.00219274 0.00136508 0.000348111 0.00288545 
-5.22581e-05 -5.54924e-05 0.0463634 0.0417746 0.052934 -0.000429643 0.0259602 0.0223221 0.027622 
-0.000577624 0.00491738 0.00526728 -0.00150326 -0.0037465 -0.00215239 0.00310975 -0.0121814 -0.0128145 
-0.0151731 -0.000481506 -0.00626526 -0.00474559 0.000731328 0.000975946 0.000921959 -0.00466735 -0.00475999 
0.000540228 0.00748698 0.00850749 0.00601855 0.0114281 0.0107529 0.00141325 0.000137056 0.000306687 
0.00300236 -0.000106863 -0.000226213 0.00238956 0.0031296 -0.00437125 0.00574507 -0.00251437 -0.00282466 
0.00313811 0.00394452 0.00360762 0.00374372 -0.00331089 -0.00430887 0.000123458 -0.000423915 -0.000934941 
0.00355993 -0.00012957 -4.87689e-05 -1.05781e-05 -0.00607494 0.00152825 0.00623972 0.00263236 -0.00399519 
-0.00322833 0.0241907 0.0576826 -0.00973568 -0.017329 -0.00157302 -0.00157948 0.0467971 0.0599697 
0.0623289 0.0468042 0.0478721 0.000808218 -0.000517684 0.00136023 0.00399892 -0.000857374 -0.000652477 
-0.000641174 0.000606406 0.000403001 -0.000119151 -0.000294706 -0.000219428 0.0120891 0.0186679 0.0329928 
0.0374294 0.0143214 0.0487119 -0.000373901 -0.0001769 0.0734845 0.0673185 -0.000162535 -0.00131541 
-0.00308006 -0.000365125 0.0118601 0.0133612 -0.00732542 0.0218534 0.0240181 0.0139306 0.0159005 
0.0112823 -0.00113617 -0.00156418 -0.00115518 0.000832812 0.00362858 -0.00208868 0.000257606 0.00149386 
0.000116839 0.00360473 -0.000178024 0.000255095 0.0160748 -0.0517378 -0.0553619 -0.0508132 -0.0554783 
-0.00380058 0.00890716 0.00429362 -0.000465837 -0.0225611 -0.00505064 -0.00441532 -0.00409903 0.0307792 
0.0272372 -0.00524444 0.00641431 -0.00470029 -0.00489228 -0.0046346 0.00752645 0.00965961 -0.00487594 
0.00275265 0.000357225 0.000941936 0.00138412 0.0020496 -0.00102842 0.0013417 0.00149124 -0.00362225 
-0.00323214 -5.75851e-06 -4.2451e-05 -0.00040587 0.00170016 -0.00794432 -0.00864704 -0.00323708 0.00188814 
0.00183823 0.00160262 0.0211801 0.00332065 0.032313 -0.00528112 -0.00520795 -0.00020576 -0.0121812 
0.00168852 0.0330024 0.0298779 0.0294061 0.00089224 -0.00499728 0.00618523 -0.00297598 -0.00336961 
-0.00264859 -0.00168025 -0.00453737 -0.000952814 -0.000879383 -0.000770334 -0.000568224 -0.000660303 0.000209712 
0.000279372 0.00954273 -0.000538424 0.00186367 0.0117094 0.0487127 0.0350726 0.0126654 0.0128486 
-0.00320491 -0.00361549 -0.000135525 -0.039275 -0.0320658 0.0270674 0.0402059 0.0190142 0.0159835 
-0.0367891 -0.0460076 -0.0598911 -0.000763052 -0.00388452 -0.00245954 1.60754e-06 0.00362511 -0.00143561 
0.00897752 0.0101771 0.00622422 -0.00385717 -0.00363297 -0.00229217 -0.000755779 -0.00154593 -0.00382828 
0.00293299 0.000586726 0.00118264 0.00142199 0.00207746 -0.00361031 -0.0444735 -0.0712558 0.000536586 
-0.000296105 -0.00264419 -0.000861511 -0.038225 -0.0410559 -0.00165138 0.0215732 -0.00104484 -0.00126382 
-0.00390108 -0.000671039 0.0761336 0.0824333 -0.00556069 -0.00297771 0.0481906 -0.00191151 0.0297757 
0.0106706 0.00650532 0.00796953 0.0173666 0.0253134 0.00401944 0.00212339 0.0286075 0.000545631 
-0.000555143 0.0228498 0.0148287 0.0152303 0.000621211 0.000580713 -0.000998892 0.000803265 0.000616141 
0.0018889 0.00181359 0.00252709 0.00368351 0.00511896 0.0103025 0.00170865 0.00153174 0.00591411 
0.00490735 0.00447724 0.00325363 3.47055e-05 -0.000130046 -0.00171968 -0.00496217 0.000219644 0.000764805 
0.000598209 0.000718968 3.62213e-05 0.00289544 0.00120943 9.55778e-05 0.0021334 0.000583213 -0.0010136 
-0.00321934 0.00992361 -0.00281207 0.0151257 0.0105781 0.000271135 0.000267936 -0.00898262 -0.0101268 
-0.00714337 0.00560831 0.00655001 0.00266809 -0.000891066 0.0278632 0.0348175 0.0330696 -0.000853257 
0.000157509 6.38985e-05 0.0233346 0.0221667 0.0189934 0.0186629 0.0164926 -0.0425799 0.0106885 
0.0169258 0.00665161 -0.000101659 -0.00142238 -0.00986653 -0.000541918 0.00246241 1.25718e-05 -0.00163297 
-0.000798919 0.00424666 0.00395441 0.00326974 0.024047 0.0222238 0.00555782 0.00755709 -0.00252008 
0.0722785 0.0635767 -0.00397843 -0.00152013 -0.00373178 0.000637421 0.0252472 0.0275646 -0.000228913 
0.00090589 0.000899995 0.000647709 -0.00412184 -0.00251185 0.00206608 -0.00373446 0.0145613 -0.00514044 
-0.00526923 -0.00382996 -0.00388812 -0.00514316 0.0159053 0.00593739 0.020543 0.00501109 0.00458157 
-0.00680445 -0.00448944 0.00169022 -0.00290822 0.0140544 0.00027199 0.000349917 -0.0039052 -0.00433189 
-0.00141387 -0.00128366 -0.00113055 0.0136391 -0.000162165 -0.000420001 -0.000941074 -0.00129502 0.00399361 
0.0424233 0.032573 0.0263378 0.028894 0.0318873 -0.00298052 -0.00386306 -0.000570206 -0.00111853 
0.000637747 0.000866723 0.000708869 0.000406462 0.000483041 -0.000568306 0.00014598 0.000201503 0.00827345 
0.0270105 0.00807738 -0.00011634 -0.000190342 -0.000229676 0.0453139 0.0422359 0.0458514 0.00847477 
0.00264161 -0.0875615 -0.000118845 -0.0110226 -0.0101971 -0.00470124 0.0516109 0.0512337 0.00201005 
0.0248272 0.0198418 0.00616483 0.0828848 -0.00229885 -0.00289602 0.0302641 0.0296861 0.0229409 
0.0257714 0.0306022 0.00277522 0.045435 0.000480172 0.000399129 -0.00233283 -0.001945 -0.000668998 
0.000234748 -0.00148016 -0.00022003 -0.00110221 -0.00200558 -0.00215132 -0.00243351 0.00133054 -0.00144328 
0.000983739 0.00584183 -0.0182132 -0.00106037 -0.000253193 0.00190321 -0.00299412 -0.00270793 0.047673 
-0.00447399 -0.00439054 -0.000365101 -0.00121264 -0.0158192 -0.00262785 0.021281 -0.000512115 -0.00158973 
-0.00153642 -0.002518 -0.00215816 -0.00200117 -0.00214145 -0.00193619 0.0261896 0.0320128 0.000785776 
0.00572546 0.00249313 0.00718327 0.0216221 -0.0376038 -0.0051619 -0.00515042 0.00121857 0.00131069 
-0.00212161 -0.00122446 -0.00146686 0.0492039 0.0518501 0.0537255 0.00330347 -0.0182398 0.00477204 
-0.000437414 -0.000581281 0.0109996 0.0134486 0.0180388 0.0250951 0.00490858 -0.00195331 -0.00081167 
0.0289826 0.00390382 0.0392873 -0.00331506 0.00661406 0.0205856 -0.000701266 0.0213381 0.000190355 
0.034418 -0.00359162 0.00418496 0.00419289 0.00357745 -0.0229391 0.00389617 0.00441248 -0.0054279 
0.0112378 0.0159289 -0.00299299 -0.00470775 0.00125405 -0.0010493 -0.000628698 0.00200866 -0.00173461 
0.0439003 -0.00120577 -0.00185048 0.0152965 -0.00113016 -0.00126342 -0.000999599 0.0127267 -0.00245818 
-0.00147595 0.00580637 0.0281943 0.0246321 0.0159098 0.0514706 0.0376133 -0.00264809 0.00316922 
0.0136958 0.00112809 0.00244545 -0.00381434 -0.000640673 -0.000418401 -0.0329409 0.0106194 -0.0427171 
-0.0458434 -0.0508303 0.0120192 0.00862788 0.0424572 0.03258 0.0401287 -0.000781673 -0.00235496 
-0.0231381 0.00090415 -0.000442284 -0.00238282 -0.00195869 -0.0052442 0.00133775 0.00103819 -0.00136697 
-0.0236027 -0.0326864 0.00934333 0.000767831 0.00145991 -0.0160598 0.00334395 0.00380648 0.00407821 
0.0259608 0.0298895 0.00518218 0.00773314 0.00445962 0.00968515 0.00149258 -0.00420149 0.00281565 
0.0246222 0.000315966 0.000815029 -0.00118296 -0.00276162 -0.00115043 -0.0011692 0.000824582 -0.000392634 
0.00120809 -0.00379696 -0.00361115 -0.0370479 0.00110327 -0.0158533 -0.00351547 -0.00310942 0.0259396 
-0.00104737 -0.00102617 -0.00181115 0.00221145 0.00422595 -0.00467594 -0.0390078 -0.00123582 0.0125807 
0.0260259 0.010763 -0.000406639 -0.0244308 -0.026564 -0.0430906 -0.0185951 0.0239255 -0.00291062 
0.000526575 0.0332625 -0.00480306 -0.00209545 -0.000586092 -0.00417857 -0.00487164 -0.0783233 -0.075966 
0.00527188 0.00129082 -0.0103297 -0.00339822 -0.00156441 0.00148203 -0.00139703 0.0178019 0.00869414 
-0.00171143 -9.66046e-05 -0.000412979 0.00131178 -0.00704817 -0.00443907 -0.00481207 -0.00285223 -0.0026074 
-0.00295738 0.0125932 -0.00103141 -0.00287651 0.000343841 -0.000425972 -0.00137416 -0.00394919 0.000894964 
0.000552338 0.00206401 0.0030866 0.00727792 0.00113931 0.024064 0.0238923 -0.00149702 0.0487563 
0.00412055 0.000955062 -0.00253311 0.00922712 0.00806866 -0.0468093 0.00169201 0.0271976 0.0183081 
0.0428545 -0.0188864 -0.000939772 0.0569426 0.00100028 -0.0468504 -0.000221491 -0.0297996 0.0461605 
0.0289702 -0.00390522 -0.00128011 0.00344082 0.000514895 -0.00342644 0.0203908 -0.00426649 -0.00159815 
-0.000690579 -0.0053589 0.00475918 -0.00115814 -0.00176952 0.00133485 -0.00271648 -0.00051819 -0.00235902 
-0.000405002 0.0232043 0.00280279 -0.000589039 -0.00157204 -0.00134561 0.00112734 -0.00208699 0.000364322 
-0.00274728 -0.0236697 0.0496326 0.00187946 -0.000274458 -0.027584 0.0448462 0.00201412 -0.00996089 
8.34384e-05 0.00147403 0.0317659 -0.00154245 -0.000346141 0.0073562 0.0133291 0.00242482 0.0143032 
-0.000300163 -0.0042241 -0.0860487 0.000274149 0.0565899 0.0406013 0.00132202 -0.00539561 -0.00268803 
0.0635709 0.0273566 0.000989207 -0.00105873 -0.00467656 -0.0272465 0.027862 0.0035163 0.0565625 
0.0537021 0.00174248 -0.00060372 -0.0253715 -0.0193484 0.0018107 0.00101293 0.000688267 0.00264724 
-0.00158787 -0.048911 0.00843932 -0.0255322 0.00031871 -0.0107967 -0.0110652 0.00496404 -0.0510398 
-0.0268195 0.00492336 -0.00109192 -0.000382462 0.0311608 -0.000479335 -0.00498537 -0.00109057 
Stress%20xz%20component 1 9350 double
0.0248455 -1.56646e-08 -8.00869e-09 0.0270843 4.21054e-06 -7.27625e-06 -2.27937e-06 1.317e-06 0.0148387 
-0.0203672 -0.0178854 0.0154622 -0.0252107 0.0205421 0.0182989 -0.0174464 -0.00128113 0.0043245 
0.000679143 0.000560822 -0.00017668 -0.00113186 -0.000137001 0.000414033 0.000517612 -0.000447228 -0.000940175 
-0.000177142 -0.000400503 -0.00123059 -0.00248817 -0.00119562 -0.000478748 -0.00142372 -0.00201987 0.00115508 
0.00177951 -0.0017657 -0.00152557 0.00496576 0.00128839 0.00270393 0.00153514 -0.0013193 -0.00204795 
-0.00023948 0.000876457 0.00186192 5.99123e-06 -0.00173162 -0.00297583 -0.000127066 0.0017341 -0.000930784 
-0.00304726 -0.00418875 -0.000870518 0.000822517 6.70823e-05 -0.000917332 -0.00176325 -0.00280103 -0.00105292 
0.00180699 -3.24011e-06 1.04696e-06 2.31053e-06 4.35938e-06 3.4169e-06 3.8559e-06 9.72418e-06 6.81532e-06 
6.70054e-06 1.21312e-05 1.01932e-05 1.62241e-05 8.55819e-06 1.15566e-05 1.40932e-05 2.12763e-06 4.15095e-06 
-8.93312e-07 2.43034e-06 -5.9298e-06 -4.49665e-06 -1.05244e-05 -2.25112e-06 -5.09168e-06 -1.82743e-06 1.11305e-05 
-3.54059e-06 -0.015014 -0.000775533 -0.000126679 -0.000161791 -9.61062e-05 -4.1011e-05 -4.66945e-05 -2.32836e-05 
-2.06255e-05 -9.81761e-06 -9.78146e-06 5.68052e-06 -2.15754e-06 -1.11926e-06 1.20901e-06 -3.97819e-07 -1.69026e-07 
4.10302e-06 3.96193e-06 7.57622e-06 5.4523e-06 5.08487e-06 6.76423e-06 7.22701e-06 5.07848e-06 6.27227e-06 
-3.33275e-06 5.24724e-06 4.7994e-06 1.7984e-06 1.69366e-06 -9.97019e-07 -2.44218e-06 -3.41753e-06 1.87954e-06 
-3.92178e-06 -3.7265e-06 -3.59225e-06 -2.19282e-06 -1.54554e-06 1.78928e-07 1.04497e-06 2.3607e-06 9.94323e-08 
3.37782e-06 2.8731e-06 -3.47693e-06 -5.41211e-07 4.23779e-07 1.41003e-05 -2.59039e-06 1.0123e-05 -2.24967e-05 
-2.376e-05 2.38385e-05 4.02816e-05 5.99383e-05 7.28781e-05 -4.72974e-05 -1.11509e-05 -1.57219e-05 -1.75419e-06 
6.63109e-06 1.63689e-05 2.07669e-05 2.17601e-05 0.000336115 -0.000198028 -0.0022423 -0.00746743 -0.0113155 
-0.00980298 -0.00844405 -0.0101297 -0.00915988 -0.0126953 -0.0139574 -0.00635786 -0.0256131 -0.0157672 
0.0122617 0.0031106 0.00618961 0.00814117 0.0129216 0.0143892 0.0172558 0.0184849 0.0159813 
0.00431261 0.0215878 8.20127e-07 3.51021e-06 1.63759e-06 1.9594e-06 1.7079e-07 3.13218e-07 -1.71632e-06 
6.14086e-07 1.23159e-06 -5.41234e-07 -1.43079e-06 3.36851e-06 2.6842e-06 5.93171e-06 1.0549e-05 8.01742e-06 
8.07882e-06 9.52066e-06 1.18326e-05 6.63825e-06 6.09124e-06 -1.4548e-05 0.00319181 -0.000255483 2.41837e-05 
3.36635e-05 -5.84192e-06 1.61707e-05 1.13428e-05 5.24343e-06 1.89835e-06 -1.04224e-05 9.34363e-07 -2.34311e-06 
3.89923e-06 -4.43616e-06 -1.47894e-06 -1.72428e-06 -2.87663e-08 -2.67251e-06 -3.37e-06 -3.64388e-06 -1.15734e-07 
1.86662e-06 -1.3361e-06 1.51564e-08 9.00828e-07 1.07309e-07 1.12612e-06 -1.77698e-06 -1.69168e-07 1.25804e-06 
6.24214e-07 -4.72028e-07 -1.29645e-07 -4.265e-07 -5.54626e-07 -5.57265e-07 6.95481e-06 1.00724e-05 5.33303e-06 
3.44418e-06 5.55419e-06 -4.13178e-06 -4.54103e-06 -3.44686e-05 -5.15411e-05 3.99678e-06 -1.51336e-05 -6.10779e-07 
-7.7598e-05 -1.70782e-05 -0.000131224 -1.22403e-05 7.72635e-06 2.004e-06 -1.31748e-05 -3.61598e-05 -4.05519e-06 
0.000151896 -0.000145025 -0.00121137 -0.00198529 0.0183978 0.00710651 0.0076822 0.00775026 0.0127772 
0.014986 0.00998021 0.0149969 0.0200407 0.0162641 0.0193465 -0.0101327 -0.00971109 -0.0103986 
-0.00848215 -0.00892271 -0.0110052 -0.0138036 -0.0112532 -0.0171595 -0.0240598 -0.0210941 -1.91949e-06 
-3.29969e-07 -4.84385e-07 -6.82027e-07 -1.50085e-06 -3.92938e-07 1.66674e-06 -9.41572e-07 -1.52904e-06 -4.62563e-07 
-3.50227e-08 -2.05941e-06 4.57027e-07 1.70023e-06 8.97977e-07 -2.44559e-06 -4.35992e-06 2.45958e-06 1.0642e-06 
4.87524e-07 -1.86835e-06 5.96585e-07 -2.10583e-06 -4.24576e-06 -4.25441e-06 1.33478e-06 0.00159541 0.000530878 
1.78219e-05 8.98201e-06 3.555e-05 1.47661e-05 -3.81726e-06 -5.66037e-06 -6.08251e-06 -6.20453e-06 -1.47053e-06 
6.20637e-06 -1.37951e-06 -1.27392e-06 -3.27796e-06 -2.76084e-07 1.33722e-06 -1.08015e-06 -2.90153e-06 -2.9056e-06 
-2.19938e-06 -3.95033e-07 -5.63594e-07 -7.19799e-07 -2.60002e-06 2.02997e-07 -2.67691e-06 -7.78218e-07 -3.34611e-07 
-1.59608e-06 -7.12617e-07 -6.47384e-07 2.85546e-07 1.81322e-06 -5.3524e-07 1.52118e-06 3.36313e-07 -1.90726e-07 
7.98639e-07 5.45439e-07 -1.49366e-07 -9.03164e-07 -9.99312e-07 -7.48357e-07 -4.64961e-06 4.93014e-06 3.5908e-06 
-2.08741e-06 1.67777e-05 -4.16547e-06 -2.91289e-05 5.30646e-06 4.39378e-06 -3.22441e-05 -6.035e-05 1.87852e-05 
8.20599e-05 -1.51406e-05 -2.73934e-05 -1.3087e-05 -2.59322e-06 8.93705e-08 -3.18647e-06 -2.34048e-05 3.48815e-05 
0.00276309 -0.00655233 -0.00438497 0.00368794 -0.000175965 7.66646e-05 0.000146616 -0.00318715 -0.000195937 
0.00320342 -0.000108733 -0.000120646 3.70694e-05 -0.0031845 0.00246561 0.00101527 0.000556454 0.000801715 
-0.00270701 -0.000204561 0.00358051 0.00107958 0.0011919 -0.00323087 0.00145707 -0.00037335 -0.00164547 
0.0034681 0.000450044 0.000456979 0.00101572 0.000832019 0.000945729 0.00157621 0.00185569 0.00408744 
0.00239989 0.0028381 0.00307693 -0.000608943 0.000712095 -0.000875115 -0.00142744 -0.00144214 -0.00178888 
-0.00106966 -0.00395811 -0.00563465 -0.00219877 -0.00168146 -0.00413351 -5.1997e-06 -0.00111335 0.00263898 
0.000942883 0.00194006 -0.00125393 -0.00350977 -1.74609e-07 -4.93378e-07 1.55216e-07 -1.43604e-07 1.70454e-06 
-5.41675e-07 1.63231e-06 -7.0496e-08 -1.10796e-06 -5.94022e-07 1.7067e-06 1.89059e-06 2.89754e-06 -2.837e-06 
-1.94433e-08 2.22981e-06 -3.18515e-06 1.82156e-06 3.95567e-06 -2.50145e-07 -3.51911e-07 -1.16077e-06 2.17499e-06 
-4.63085e-06 0.000155424 4.11462e-05 1.55217e-05 -1.5291e-05 -3.47006e-08 -7.62479e-06 -4.82009e-06 4.27391e-07 
4.39056e-06 -3.59594e-06 6.39921e-06 1.78525e-06 -1.15e-06 2.63341e-06 -2.69265e-07 -2.20599e-07 -2.96898e-06 
-1.1539e-06 5.01482e-07 -2.51834e-06 -1.67065e-06 -3.16741e-06 -3.7342e-06 1.56823e-06 -1.19342e-07 -3.13169e-06 
-1.58178e-06 -7.76103e-07 6.91844e-07 5.16043e-08 6.99254e-07 1.89344e-06 -9.9016e-07 -7.5968e-08 1.37397e-06 
6.949e-08 3.51749e-07 -2.79693e-07 7.00974e-08 1.02951e-07 -2.36336e-07 1.14322e-07 0.000583075 0.000254282 
-4.2677e-07 -1.09187e-05 1.01134e-05 3.12898e-05 3.63766e-05 1.25289e-05 -1.31826e-05 -0.000123726 4.06364e-06 
-2.22513e-05 -1.32772e-05 -3.96341e-06 -6.25343e-07 -2.03565e-06 -3.7538e-05 -2.25198e-05 -0.000372124 -0.000319449 
-0.000368816 0.000569518 0.000186176 -0.000145888 -0.000450786 0.000228684 -0.000215334 0.000411014 0.000140632 
-0.000163636 -0.000169155 -0.000146809 0.000413242 0.000280966 -0.000284391 -0.000519073 5.49464e-05 -0.000440811 
0.000727035 0.000405444 0.000439527 -0.000185115 -0.000825285 0.000578963 -0.000143697 5.9887e-05 1.56247e-05 
0.000255481 -3.73018e-05 9.77763e-05 0.00027611 -1.47489e-05 0.000176465 2.2853e-05 6.53898e-05 -0.000462114 
-1.95458e-06 5.18039e-06 0.000134335 -8.45028e-05 0.000140497 -0.000458136 7.2682e-05 -4.22229e-05 -0.000118212 
-0.000549132 9.92053e-05 0.000806839 -8.45166e-06 0.000390577 -0.000710955 -0.000314821 -1.35673e-06 -7.75845e-07 
6.07903e-07 7.81259e-07 -1.89041e-07 1.11261e-06 2.79144e-07 -1.67637e-06 -1.56535e-06 4.36902e-06 -1.04743e-06 
-4.28454e-07 -1.23122e-07 3.08143e-06 4.71053e-07 -3.14005e-06 3.03381e-06 2.10978e-06 1.90624e-06 -2.16151e-06 
1.33409e-05 7.57385e-07 -2.49893e-05 -1.00418e-05 -8.05213e-06 -1.0977e-05 1.23354e-06 9.74799e-06 2.13685e-06 
4.12828e-07 -7.52497e-07 9.27653e-06 -1.3184e-06 9.78838e-07 -2.11188e-06 1.55187e-06 2.72657e-07 -7.26787e-07 
1.34563e-06 1.52078e-07 -1.18021e-06 -2.84618e-06 -2.08937e-06 9.39943e-07 1.37413e-06 2.29372e-08 -3.22012e-06 
-2.437e-07 -3.59219e-07 1.3867e-07 -3.04233e-07 2.45439e-06 -2.04191e-07 -9.02797e-07 -8.09274e-07 1.04202e-06 
-3.74542e-07 -4.69271e-07 -4.00862e-07 -5.40319e-07 -5.36444e-07 -4.52778e-06 5.37991e-05 -1.36107e-05 -2.78845e-05 
0.000242702 -0.000189365 9.12746e-06 6.55086e-06 -1.35163e-06 -7.44687e-06 -5.10302e-06 -5.38316e-05 0.000186726 
-6.4831e-05 -4.71711e-05 1.64782e-05 -2.13497e-05 1.8926e-05 6.14552e-05 -6.42099e-06 -7.42412e-05 -6.42939e-06 
2.4756e-05 4.4831e-05 6.36981e-05 -2.88717e-05 -3.11845e-05 -1.98134e-05 2.97641e-06 4.77551e-05 -3.69721e-06 
3.79824e-05 -1.07186e-06 9.98789e-06 -1.17406e-05 3.21108e-05 -0.000119824 -3.60491e-05 -1.89949e-05 1.68447e-05 
6.98882e-06 1.53076e-05 1.24903e-05 4.45772e-06 2.51236e-06 2.7852e-05 1.58303e-05 5.41693e-07 2.80651e-05 
3.32828e-06 4.20638e-06 5.38785e-06 7.79632e-05 -1.61252e-05 -8.14693e-05 -8.50473e-05 -9.10604e-05 -5.42108e-05 
8.97912e-05 7.45656e-06 -1.23242e-05 -2.31804e-05 -9.4424e-08 1.14871e-06 -1.12805e-06 1.8587e-06 2.7068e-06 
8.85946e-07 -1.52048e-06 2.32315e-06 8.7555e-07 -1.01819e-06 -3.37992e-06 3.25845e-06 6.2006e-06 -5.72866e-06 
-5.04222e-07 8.44572e-07 -1.06865e-07 -2.14059e-06 3.73557e-05 -1.66945e-05 -2.76224e-05 1.86901e-05 -1.87285e-05 
9.38611e-06 3.38619e-05 5.68496e-06 2.00281e-07 -5.91336e-06 7.61698e-07 5.70272e-06 -2.96464e-07 1.68343e-06 
2.53363e-07 1.89397e-06 -1.29983e-06 8.40361e-07 2.14889e-06 3.18616e-07 9.72626e-07 -1.75544e-06 3.77901e-07 
1.4216e-06 2.88106e-07 -4.31387e-07 -1.154e-06 -5.30796e-07 5.39488e-07 5.75992e-07 2.02126e-08 4.82563e-07 
-1.39824e-06 -1.95879e-08 2.69319e-07 -3.06725e-07 -1.26849e-06 -1.11777e-06 -6.67976e-08 1.4695e-05 -7.96713e-06 
4.35916e-06 -4.01895e-06 7.14177e-06 -2.47161e-05 -1.89285e-05 -2.015e-06 6.61833e-06 4.10005e-06 2.51179e-05 
8.82955e-06 7.39293e-06 -1.17058e-05 -8.0128e-06 1.678e-05 8.38099e-06 2.07101e-06 3.76191e-07 -1.07581e-05 
-8.18432e-06 -4.10742e-06 1.18409e-05 3.99388e-06 1.60347e-05 6.97882e-06 -1.01532e-05 -8.51974e-05 -1.72485e-05 
7.03384e-06 -1.94894e-06 9.47976e-06 1.16878e-05 -4.48724e-07 5.72196e-06 -3.28252e-06 4.8741e-07 -5.19618e-05 
2.02683e-05 1.99375e-05 -2.29058e-05 0.000167043 1.81121e-05 5.93182e-06 -5.46243e-06 2.77048e-06 -1.62982e-05 
-1.04976e-07 2.3118e-06 -5.60199e-07 2.46582e-06 2.05581e-06 -1.07379e-06 -2.13943e-06 2.48659e-06 -9.29263e-06 
-9.75556e-07 1.5968e-05 -7.53299e-06 1.49216e-05 1.27034e-06 7.09212e-06 -3.33349e-06 2.27926e-06 1.32872e-05 
8.6235e-07 -1.44856e-06 -6.64159e-06 -9.19053e-07 3.57322e-06 5.43734e-07 -5.56452e-06 1.38042e-06 3.06391e-06 
-4.54345e-07 1.05629e-06 -8.52103e-07 9.43471e-07 1.54514e-06 4.30499e-07 1.09439e-06 -1.99758e-08 6.748e-07 
6.74968e-07 2.19104e-06 3.30277e-07 9.23517e-07 1.1761e-06 1.50174e-06 -6.32674e-07 -3.26613e-07 -1.1342e-06 
-4.17546e-06 -2.26857e-06 -1.17268e-06 3.51529e-07 1.61415e-06 1.61322e-05 -1.2825e-05 6.00554e-06 1.71002e-05 
3.7032e-06 4.64575e-06 4.31065e-06 -1.22091e-05 -7.9442e-06 1.19e-05 1.50953e-05 -2.1486e-06 -7.34735e-06 
2.10193e-06 2.4434e-05 -1.16268e-05 -2.79917e-05 1.35832e-05 -1.30845e-06 1.04958e-05 9.01005e-06 9.34377e-06 
-7.87253e-07 2.19229e-06 -8.28697e-06 1.24325e-06 -6.46847e-06 7.03688e-07 -2.59357e-07 -1.3975e-06 -5.29249e-06 
-3.201e-06 -3.14965e-06 6.75202e-06 3.64715e-06 -6.07793e-06 -1.63402e-05 -9.58961e-06 3.12527e-05 -1.69172e-07 
1.43018e-05 -1.58643e-05 7.98235e-06 1.00272e-05 1.17097e-05 -1.83368e-06 1.0524e-05 -4.60767e-06 -2.1523e-06 
-3.28008e-06 1.86597e-07 4.07429e-06 9.6328e-07 -7.02648e-06 2.19784e-07 9.85228e-08 6.3608e-07 1.30027e-06 
-3.26404e-06 9.23079e-07 1.50759e-06 1.81184e-06 -9.74764e-07 -5.05614e-07 -1.28326e-06 7.74371e-07 -1.63293e-06 
9.38324e-07 -5.41788e-07 4.69085e-06 1.0889e-06 -3.29268e-06 -3.75919e-06 1.87815e-06 1.07742e-06 -6.15393e-06 
3.40537e-05 1.50889e-05 2.52068e-05 9.671e-06 -2.56581e-05 -3.47106e-06 1.45096e-05 1.92187e-05 6.37783e-06 
-1.20805e-06 2.83197e-06 5.34067e-06 -9.94977e-06 4.15902e-06 5.26437e-06 1.18674e-06 -2.94049e-06 -3.92447e-06 
9.09606e-06 -3.64766e-05 1.8103e-05 4.42147e-06 8.75118e-07 -8.40398e-06 -3.234e-06 7.19148e-07 -5.27255e-06 
-3.91149e-06 -9.75906e-06 -2.99481e-06 -2.21147e-06 1.44874e-05 -1.45951e-05 -6.88991e-07 -1.05287e-05 -7.21091e-06 
6.09222e-06 -1.04924e-06 7.03893e-07 1.31961e-06 6.6236e-07 1.11365e-06 -5.25989e-06 -3.84693e-06 6.38993e-06 
-2.74775e-06 1.44334e-06 -2.96834e-06 -2.76381e-06 7.74803e-06 3.73565e-06 -1.27742e-07 -1.78243e-05 -1.30086e-07 
-2.46671e-05 7.11243e-06 1.15476e-05 6.78947e-06 3.49169e-05 -2.26114e-06 8.53405e-06 1.60754e-05 -4.36444e-05 
-1.16674e-05 2.01179e-06 -7.97802e-06 -6.91326e-06 -3.79589e-06 -1.44288e-06 -6.44201e-06 -6.45981e-07 -5.95217e-06 
-2.80723e-06 6.09484e-07 -1.68894e-06 -4.49592e-05 4.46977e-05 1.51662e-06 5.31906e-06 2.16997e-05 3.62589e-06 
1.08825e-06 -5.01251e-06 1.024e-05 5.00214e-07 -8.17134e-06 -1.9317e-06 -6.5437e-06 7.62325e-07 -3.30287e-09 
1.36475e-05 -1.77932e-05 -4.84879e-07 -3.57049e-07 -1.11931e-06 2.21814e-07 -2.34284e-08 -9.39302e-07 -5.02877e-07 
7.57103e-07 2.86652e-06 1.2783e-06 -1.61794e-06 2.14266e-06 3.09866e-06 -1.18511e-06 -1.87835e-06 -2.65659e-06 
-5.37054e-06 -1.99717e-06 1.41003e-06 9.48093e-07 -2.33717e-06 -0.00137142 0.000238549 -5.75482e-06 1.17453e-05 
-1.42108e-05 -3.81863e-06 -2.26844e-06 -1.18288e-06 -1.71552e-06 -9.01233e-06 5.50515e-07 2.35067e-06 -3.02441e-06 
-2.5671e-06 2.22661e-06 1.11011e-06 -1.88897e-06 2.95625e-07 5.39501e-07 1.19718e-06 -1.17496e-06 8.90749e-07 
1.88504e-07 -6.21975e-07 9.38771e-07 -8.251e-08 -1.80792e-06 4.14873e-07 -4.70377e-07 2.21175e-07 -6.34416e-07 
-4.28662e-07 -4.05102e-07 -3.93577e-07 -7.34062e-06 2.88434e-06 -6.90825e-06 -5.72691e-06 3.87215e-07 -5.57009e-06 
-2.00573e-06 9.29041e-06 -1.24472e-05 3.04498e-05 0.000163972 -5.11267e-05 1.37493e-05 1.02103e-05 1.20519e-05 
1.00833e-05 4.02482e-06 3.33121e-05 -1.10133e-05 -2.95231e-05 -0.000123543 0.000512726 -0.00156882 -0.0015546 
0.000493393 0.000106922 0.000811831 0.00017748 0.000215769 -0.000197056 0.000323579 0.000611049 0.000683482 
-0.000452785 0.000211175 0.00122076 0.000974348 0.000267875 0.00119898 0.0006572 0.000963148 -0.00253312 
0.000772518 0.000254901 -0.00123177 -0.00191352 -0.000929697 -0.000983732 -0.00113759 -0.00119716 -0.00143327 
-0.00338168 -0.00396784 -0.0010828 -0.00103668 -0.000386652 0.0014736 0.00110605 0.00117531 0.00120108 
0.00177274 0.00625943 0.00505696 0.000888642 0.00310918 0.00202222 0.00622393 3.70993e-06 -7.92733e-05 
-0.000865774 0.0014906 -0.000540308 -0.000665858 -0.000336475 0.000115524 -5.55633e-07 -1.03346e-07 -1.62664e-06 
7.69866e-07 -2.07655e-06 1.54145e-06 3.03638e-06 2.91135e-07 1.28037e-06 2.79668e-06 3.0123e-07 7.00501e-07 
2.90019e-06 -1.34248e-06 -3.96709e-06 -9.79143e-07 -2.21201e-06 -1.89649e-06 5.56562e-06 -3.31079e-06 1.0086e-05 
3.4262e-05 -0.00039845 -2.60976e-06 3.14058e-06 -7.718e-07 -2.89978e-06 -2.42998e-06 -2.78825e-06 -4.39139e-06 
-2.63579e-06 9.0263e-07 -1.72345e-06 -5.47712e-07 -8.90659e-07 1.19467e-06 -1.09357e-06 2.25847e-06 3.4241e-07 
-2.1093e-07 5.97731e-08 6.87598e-07 -2.27748e-08 -2.59466e-07 -7.72722e-07 -8.27314e-07 -3.89099e-07 -5.05285e-07 
1.06045e-07 -1.09273e-07 -2.60689e-07 -4.52978e-07 -2.26601e-07 4.64464e-07 3.19285e-05 -2.14155e-05 -9.65862e-06 
-2.01645e-06 -9.73219e-06 8.4705e-06 -4.65189e-05 4.89854e-06 3.87891e-06 1.01251e-05 4.27012e-05 -3.09953e-05 
-3.24548e-07 -0.000178104 -4.93908e-05 -0.00138741 -0.000122968 -5.67936e-05 -7.65859e-05 7.10737e-05 -5.51202e-05 
-4.76572e-05 -3.48665e-05 7.76735e-05 4.73459e-05 -4.699e-05 -0.000184349 -1.4093e-05 1.43294e-05 4.27459e-05 
6.54811e-05 -0.000319599 -9.32078e-05 0.000499713 8.2378e-05 -2.76172e-05 9.25846e-05 -0.000130877 0.000230018 
0.000217884 -6.14082e-05 -0.000930736 -0.000301479 2.48112e-05 3.33263e-05 0.0005543 0.000319796 -9.28403e-05 
-0.000269629 -2.45943e-07 1.00892e-05 -4.41782e-05 -0.000600514 3.10298e-05 0.00019045 0.000594695 -8.75642e-05 
-4.42225e-05 4.33884e-05 0.000154155 0.000238139 -0.000141476 -7.6241e-05 0.000283794 1.94478e-05 -0.000175503 
-8.12582e-07 7.36488e-07 -2.2625e-07 2.14411e-06 3.56806e-07 1.73917e-06 4.74146e-06 4.04211e-07 4.29235e-07 
1.23376e-06 -3.46977e-06 -2.00265e-06 -6.45962e-07 -6.03554e-07 4.54832e-06 4.44518e-07 -4.32344e-05 6.6704e-06 
2.25088e-05 -4.7536e-06 -2.82604e-07 1.3006e-06 -1.31823e-07 -5.40024e-06 1.77141e-07 -1.79977e-06 -2.93972e-07 
-1.76182e-06 1.13594e-07 -1.07146e-06 2.20788e-09 4.00828e-07 6.91576e-07 -9.77313e-07 -2.0557e-07 7.4514e-07 
1.51577e-07 -6.18817e-07 -1.59707e-06 -9.76953e-07 7.32175e-08 -1.85133e-07 -1.60406e-07 -5.07313e-07 6.86483e-07 
1.12017e-05 -5.15589e-06 -3.99815e-06 -4.64778e-07 1.83993e-05 7.05549e-07 1.18806e-08 -7.97396e-07 5.10885e-06 
1.55524e-05 5.02955e-06 5.56885e-07 -9.52768e-07 -6.64195e-06 7.86893e-06 1.71917e-05 -7.17357e-06 -4.22347e-06 
-8.69059e-06 1.74381e-05 2.01215e-05 4.0931e-06 -3.42787e-05 -6.10742e-06 4.25115e-06 1.60496e-05 -2.48967e-05 
1.77861e-05 -0.000163482 1.72147e-05 9.46028e-05 4.93833e-05 -1.73781e-05 -2.0877e-05 -8.89569e-06 1.34377e-05 
-1.59268e-05 3.38746e-05 -1.17876e-05 5.01443e-05 5.35624e-08 3.10966e-05 0.000104688 8.27459e-06 -7.73642e-07 
6.96198e-05 -0.000117592 -2.86615e-05 7.09653e-06 -4.38429e-05 9.37855e-06 -3.99614e-07 -2.02272e-07 9.18105e-07 
1.14445e-05 1.92447e-06 8.45511e-06 4.05567e-06 6.49897e-06 6.70331e-06 -8.01091e-06 3.47418e-05 1.47934e-06 
-2.00626e-05 3.90843e-07 -2.42249e-06 6.51099e-07 -1.55962e-06 3.91572e-07 -1.37009e-06 -1.28182e-07 -9.66963e-07 
-5.78765e-08 -7.80904e-07 -1.66093e-07 -2.01023e-07 -2.02583e-08 -9.61844e-07 -3.68297e-07 -9.21608e-07 -1.17583e-06 
-8.45797e-07 2.43687e-07 -1.98267e-07 4.17176e-07 -2.03182e-07 -2.08384e-05 -1.26836e-05 1.26103e-05 1.22397e-05 
1.1609e-05 7.39229e-07 4.32144e-06 2.84502e-05 1.12556e-05 1.06793e-05 3.08715e-06 -4.39225e-06 -1.52314e-06 
1.28416e-05 -2.36023e-06 1.28079e-05 5.77762e-06 -1.10029e-05 1.11519e-06 -5.4129e-05 7.44574e-05 -1.25935e-05 
4.15714e-06 3.57931e-05 8.1137e-06 1.15706e-05 -2.66101e-05 5.06442e-06 2.28905e-05 4.35091e-05 1.26968e-05 
-2.49041e-06 2.61651e-05 -4.70304e-06 7.53047e-08 -4.3666e-06 -1.55866e-06 -2.90001e-06 -2.01232e-06 1.2887e-06 
1.07829e-05 1.67609e-05 -4e-06 2.09083e-05 7.96778e-06 -9.89966e-06 -4.05551e-06 -1.18496e-05 2.62227e-05 
3.69201e-06 -2.4897e-05 -2.01074e-05 1.62646e-05 -1.17893e-05 -4.10073e-07 1.46902e-07 2.24081e-06 2.13445e-06 
-2.83283e-06 -7.22602e-07 1.09382e-06 -2.84652e-07 -1.25013e-06 3.36735e-07 -5.24402e-07 1.0261e-06 -1.16173e-06 
-7.67123e-07 -6.9209e-07 -2.69352e-06 -1.28174e-06 -1.56395e-06 1.88242e-06 4.96239e-07 8.29635e-07 1.66971e-05 
2.70761e-06 2.84633e-05 4.71369e-06 -1.236e-05 7.52744e-06 4.16523e-06 2.08645e-06 -1.36494e-05 2.91154e-05 
2.66748e-05 -6.96632e-06 7.66608e-06 6.08702e-06 7.24352e-06 1.62148e-06 1.0391e-05 -9.17426e-07 -7.87029e-06 
1.09054e-05 -1.92936e-05 -9.0089e-06 -1.21806e-05 -1.01286e-05 -1.33675e-05 1.65913e-05 2.92516e-06 -5.57956e-08 
-1.06059e-05 2.0237e-06 3.11656e-06 -6.03518e-06 -2.18295e-05 -1.28245e-05 8.08568e-06 6.00121e-06 -4.76981e-05 
1.51931e-06 -1.93665e-07 1.5034e-05 -2.52947e-05 1.3349e-05 -4.62833e-06 -1.45262e-05 -6.73923e-06 -4.85457e-06 
-8.31238e-07 -6.02273e-06 -2.19237e-07 1.93911e-06 3.47759e-06 4.27138e-07 -1.13673e-06 5.32216e-07 8.39043e-07 
3.86444e-06 -2.46553e-06 1.2248e-06 -6.44383e-06 -4.71412e-06 -2.59453e-06 -2.49289e-07 2.59004e-06 -2.84984e-05 
-8.74683e-06 -3.60772e-05 8.00175e-06 1.31076e-05 -4.88949e-06 -4.76808e-05 3.76929e-05 -2.92662e-05 1.51706e-05 
-1.05206e-05 7.21376e-07 5.47322e-07 -1.31016e-05 1.06221e-05 7.83276e-06 1.23309e-07 2.74833e-06 1.97272e-05 
1.80887e-05 1.67799e-06 -1.12283e-05 -7.34276e-07 3.13611e-06 -4.38331e-06 3.02007e-07 -1.11418e-06 3.77033e-06 
-1.13986e-05 2.01037e-05 9.66015e-06 2.66105e-05 -1.66174e-06 1.38211e-05 -8.38535e-06 -1.0273e-06 3.39892e-06 
5.52377e-06 4.47115e-06 -1.00096e-06 -2.80233e-06 2.78062e-05 3.01968e-06 -2.19665e-07 8.48679e-06 -5.6115e-06 
-1.30895e-05 6.72287e-06 -3.82777e-06 1.463e-05 2.43117e-06 1.23009e-06 -1.02398e-05 -2.32718e-05 3.58878e-06 
8.93503e-06 2.73174e-07 -1.17237e-06 -3.31078e-06 1.90067e-05 2.87805e-06 -7.53167e-07 3.72525e-06 1.17553e-06 
-4.65676e-07 -7.26688e-06 -3.44542e-06 1.15276e-05 1.03763e-05 -5.95595e-07 9.55183e-07 -1.21419e-06 -1.36845e-05 
2.87267e-06 9.29619e-07 1.85547e-05 7.97139e-08 -1.29103e-05 5.9706e-07 -0.000634606 0.00105605 3.26094e-08 
5.55314e-08 -6.39387e-08 -2.57292e-08 0.00065597 -2.3341e-08 -1.211e-08 2.42037e-12 1.1724e-08 0.000294748 
-1.67383e-08 -6.10637e-09 5.76404e-09 3.60774e-09 -1.64294e-08 -2.2857e-09 8.06168e-09 1.66965e-08 2.04433e-05 
-1.90259e-08 -3.90544e-09 1.37356e-08 -0.00117258 -0.00427941 0.0158932 0.0106062 0.000834983 -2.18898e-08 
3.05073e-08 2.23719e-10 1.913e-09 2.206e-09 -2.83399e-08 2.15011e-09 2.65986e-08 -1.40945e-09 4.01548e-09 
9.02958e-09 -2.2682e-08 2.85993e-08 -1.38763e-09 3.34986e-09 2.55368e-09 -2.90801e-08 1.45477e-09 2.25722e-08 
-4.80648e-09 2.21694e-09 -4.03084e-08 -1.81964e-09 4.21067e-09 -7.15488e-08 -4.01331e-06 -1.2147e-06 2.46247e-07 
3.0047e-06 4.0768e-06 6.8112e-06 7.94369e-06 8.8701e-06 1.1312e-05 1.67424e-05 1.37946e-05 1.4238e-05 
2.26662e-05 2.13489e-05 1.28244e-05 9.07333e-06 5.21503e-06 7.89982e-06 -6.45855e-06 -1.38168e-05 -8.64189e-06 
-9.03148e-06 -1.80521e-05 -1.76736e-05 -5.06004e-06 8.91006e-06 9.55844e-06 2.53003e-07 0.00146887 -0.0129696 
2.79927e-05 -0.000791562 -0.000417768 -0.000225398 -6.90315e-06 -4.00543e-05 -5.82588e-05 -5.66787e-05 -5.53771e-05 
1.06273e-05 2.49367e-05 1.39973e-06 -8.11022e-06 -1.82329e-05 4.10223e-06 2.32016e-05 1.38479e-05 5.7866e-06 
-1.03349e-06 1.80003e-05 2.06124e-05 1.90516e-05 1.55462e-05 8.16145e-06 -2.56985e-06 8.1791e-06 1.45248e-05 
1.26467e-05 7.65328e-06 -5.48187e-06 -7.46879e-06 -7.96359e-06 -2.79344e-06 2.51128e-06 -7.83565e-06 -1.03958e-05 
-8.6211e-06 -4.5969e-06 1.03297e-06 1.79689e-06 3.84935e-06 4.54049e-06 3.14704e-06 -7.85163e-07 1.2213e-05 
-8.06416e-06 -1.92549e-05 -8.66463e-06 1.20455e-05 -9.07177e-06 -3.00014e-05 -7.5552e-05 -0.000147426 -5.95294e-05 
-1.27289e-05 5.77376e-05 0.000601302 9.48393e-05 -0.000309004 -0.000226176 -7.14251e-05 -2.04061e-06 5.28459e-05 
0.000119371 0.000182303 0.00030961 0.000165439 0.00219489 0.00202948 0.0177797 -0.0243932 -0.00997705 
-0.0114403 -0.0105199 -0.0114551 -0.01201 -0.013843 -0.0140305 -0.0150447 -0.0270395 -0.024437 
-0.0310186 -0.00880955 0.0395718 0.00764105 0.00542248 0.00917877 0.0127092 0.0162412 0.0190104 
0.0177097 0.0160468 0.0203264 0.0143796 0.03109 1.66927e-06 4.8117e-06 2.01014e-06 2.37686e-06 
2.20252e-06 2.71887e-07 -1.51535e-06 -2.77982e-06 -7.73496e-06 -8.17478e-06 -4.76133e-06 -1.21524e-06 8.24022e-06 
-5.49134e-06 8.64783e-06 1.35006e-05 2.15002e-05 1.90436e-05 1.55999e-05 1.21851e-05 5.00474e-06 -1.34066e-06 
-1.60291e-05 0.00545137 0.00459404 0.000603371 0.000309957 0.000107281 9.68931e-05 7.48239e-05 3.70764e-05 
4.08639e-06 9.2914e-06 1.22117e-05 -1.36523e-06 -9.98903e-06 8.20398e-07 -2.99211e-06 -1.13027e-05 -1.12629e-05 
-7.67647e-06 -1.41404e-05 -1.64212e-05 -1.16737e-05 -3.81215e-06 -1.02101e-05 -7.25871e-06 -6.94133e-07 -3.22878e-06 
3.22284e-06 6.52828e-06 2.73575e-06 6.30175e-06 5.9128e-06 1.93995e-06 7.46544e-07 -2.3635e-06 -3.23429e-06 
-1.94072e-06 1.80644e-06 4.30618e-06 2.66219e-05 1.62703e-05 1.13811e-05 -3.25456e-06 -2.57265e-05 -2.95972e-05 
-2.28333e-05 4.20874e-05 7.62184e-05 3.69957e-05 1.56341e-05 2.82245e-05 -0.000141499 -0.000156555 2.18655e-05 
9.16437e-05 5.6708e-05 -3.00793e-06 -6.75092e-05 -0.000119092 -5.81817e-05 0.000178381 -5.20103e-05 -0.0051552 
0.00287305 -0.0226538 0.0298744 0.00959505 0.00680695 0.00965255 0.0157425 0.0164314 0.0144183 
0.0185278 0.0176887 0.0153043 0.0155444 0.0237245 -0.00781608 -0.0467103 -0.0104998 -0.0106365 
-0.0134675 -0.00942169 -0.0106194 -0.0104982 -0.0175253 -0.0138986 -0.0173529 -0.0266135 -0.0232174 
-9.53795e-06 -3.41307e-07 0.0232857 -0.0117989 -0.00250645 -0.0168091 -1.56646e-08 -8.00869e-09 -0.00130553 
-2.00136e-08 0.0110708 -1.56418e-08 0.00186164 -0.0103967 0.0113293 -0.0101074 0.0117136 -0.0123948 
0.0103202 -0.011501 0.00951776 7.5344e-10 0.00125769 -0.00913491 0.0115313 -0.0114521 0.0107524 
-0.0114945 0.0100303 -0.0119022 0.00923185 -0.00931748 0.0104131 -0.0125027 0.010159 -0.0128092 
0.00945824 -0.0134044 0.00776397 2.91743e-10 0.00136268 -0.0121845 0.0101274 -0.0128596 0.0100161 
-0.0133356 0.00937859 -0.00249878 -6.87438e-10 5.84938e-09 0.0012098 -0.000921005 -5.5803e-05 -0.00122887 
0.000314039 -4.35528e-07 -1.1288e-06 -2.33564e-06 2.80317e-06 1.5204e-06 -1.27246e-06 1.51351e-06 1.96102e-06 
-7.15694e-07 1.69055e-06 -1.12122e-07 -2.50765e-07 -1.80022e-07 -4.97225e-06 9.89901e-07 3.56763e-06 6.10137e-07 
-2.85399e-08 6.56656e-06 4.82826e-06 -8.72912e-07 3.04975e-06 2.12696e-06 1.68697e-06 1.13278e-06 -4.63644e-06 
3.22468e-06 7.84852e-07 -3.78371e-06 -2.60949e-06 4.81625e-07 1.0698e-06 -3.4298e-06 -4.34772e-06 -5.17627e-09 
-5.09586e-06 7.64939e-07 3.48529e-06 3.33858e-06 5.78979e-06 1.24744e-05 2.16236e-06 -1.16825e-06 6.89591e-06 
-1.28911e-06 -1.09113e-05 6.66603e-06 -2.84483e-06 -1.52119e-05 -4.90734e-06 -3.15541e-06 -1.19339e-06 2.81716e-06 
1.25031e-06 4.13272e-06 1.56835e-05 -5.48109e-06 1.98631e-06 9.47298e-06 4.50309e-06 -4.83461e-07 2.64549e-06 
3.86619e-06 6.53647e-06 2.5024e-06 5.06579e-06 1.81299e-06 -1.49628e-06 -5.92863e-06 -3.46913e-06 -1.22189e-05 
-4.10769e-06 2.78676e-06 -6.16597e-06 -2.57233e-06 -3.78759e-06 5.52251e-06 5.67245e-07 2.12941e-06 -0.0246212 
4.76818e-06 0.0116644 -0.0115323 -0.000282721 -4.85231e-05 0.000150151 0.00301298 -0.000166143 3.08392e-05 
0.000139183 -6.46709e-05 -2.26671e-05 -2.11746e-05 -5.50658e-05 2.68705e-05 -2.69909e-05 2.66965e-05 1.39414e-05 
-1.31305e-05 1.15987e-05 2.70695e-05 5.38039e-05 2.99989e-06 7.12651e-06 4.60748e-06 -1.10266e-05 8.66369e-07 
-2.61613e-05 -2.6125e-05 -1.06796e-05 -4.35609e-05 6.3315e-06 4.34017e-06 -1.7797e-05 1.31184e-05 1.55272e-05 
1.87073e-05 2.63273e-06 6.63879e-06 1.45218e-05 -9.20455e-06 -1.33124e-06 -1.01624e-05 -1.21588e-05 -8.66808e-06 
-1.31194e-05 6.25103e-06 -1.84387e-06 -9.17175e-06 4.08181e-06 9.11745e-06 8.15133e-06 -8.22643e-07 5.60041e-07 
7.97378e-06 -6.19021e-06 -1.36824e-07 -6.76912e-06 -2.58001e-06 -3.32012e-06 -1.25251e-05 -5.56784e-07 5.0234e-06 
5.89908e-07 4.13276e-07 1.41509e-06 6.54904e-06 -1.15194e-06 -8.21436e-08 1.91289e-06 -1.52382e-06 -1.27635e-06 
-1.26318e-06 -1.07615e-06 -3.07271e-06 -2.74963e-06 3.3687e-06 -5.51869e-06 -4.79871e-07 -4.24267e-06 -1.6798e-06 
-3.94475e-06 -1.12464e-06 -5.91389e-07 -3.03002e-06 2.85699e-06 1.56434e-06 2.27037e-06 2.17053e-06 -4.38018e-08 
2.92433e-06 -1.99427e-06 -3.7108e-06 -4.23843e-06 -1.92268e-06 -2.39235e-06 -4.03714e-06 7.5932e-07 4.29954e-07 
-1.68305e-06 1.99015e-06 3.18749e-06 3.28107e-06 2.45547e-06 -1.51295e-06 3.526e-06 6.94173e-07 -7.72143e-07 
-8.30422e-07 -5.0919e-08 4.75315e-07 -3.84638e-07 -5.46652e-07 -1.76763e-07 -5.25193e-07 -1.25118e-06 6.24307e-07 
-1.29257e-06 5.8799e-07 1.27524e-06 1.79973e-06 2.56419e-08 3.15558e-07 1.25572e-06 -3.48325e-07 4.19476e-07 
-3.95192e-07 4.09017e-07 -1.38593e-07 -2.45648e-06 -1.61579e-06 3.30616e-06 -9.4729e-07 -3.23237e-06 -4.42061e-06 
6.0598e-06 -2.49014e-06 1.32474e-05 8.72247e-06 3.11887e-06 7.44236e-06 2.94594e-05 -7.28269e-05 -7.80829e-06 
3.24478e-05 -5.39285e-05 -3.02274e-05 -1.02009e-05 1.30592e-05 -0.000118318 -3.54871e-05 5.4596e-05 -4.65399e-05 
-5.37012e-05 0.000141977 1.38428e-05 -1.42426e-05 3.32994e-05 8.86339e-05 3.00224e-06 -0.000123243 -2.86798e-05 
-6.39713e-05 8.58994e-05 -0.000231841 0.00010586 3.84195e-05 -8.04959e-05 -6.163e-05 1.43222e-05 -0.00021161 
-4.48824e-05 1.06052e-05 -0.000101944 7.84946e-06 2.10014e-05 6.74646e-05 -2.90787e-07 2.05668e-05 6.13726e-05 
2.53362e-06 2.88615e-07 5.83351e-05 2.32362e-06 -2.65859e-05 2.36271e-05 3.43907e-05 -0.000127645 7.80294e-06 
0.000330114 0.000268774 0.000119917 0.000387678 -0.000664197 -6.73638e-05 0.000701355 0.00600641 0.000516037 
-0.0127209 -0.00540185 -0.00371644 -0.00100534 0.00208613 -0.00214329 -0.00120815 -0.000688847 -0.000755312 
0.00305718 7.81884e-05 -0.000333432 0.00115551 -0.00105955 -0.000550772 -0.000204671 -0.00146448 0.000256139 
0.00111635 0.00249615 6.96345e-06 0.000660238 -5.76174e-05 0.000454875 -0.00165006 -0.00111821 -0.000579067 
0.00123284 9.9668e-06 0.000228473 0.000197228 -0.00161434 -0.000454614 -0.00147741 -0.00300718 0.000903026 
-0.000162326 0.00193095 0.000809062 -0.00268454 -0.000922726 0.00041937 0.00141186 0.000367849 -0.000996268 
0.00041007 -0.00218331 0.000598514 -0.000719206 -0.00233305 0.00119104 0.00072944 0.0019218 0.00027412 
0.000183354 -5.51833e-05 0.000295799 -0.00142653 -0.000948643 -0.000565168 0.00167464 0.000870826 -0.000691883 
0.000980486 -0.000245443 0.000548167 0.00397284 0.00184658 -0.000905054 -0.000930839 -0.000884953 0.00162606 
-0.000454434 -0.0064725 8.94216e-05 0.0044353 -0.00784581 -0.00370104 -0.00430705 -0.00386891 -0.00306876 
0.00101246 -0.00310414 -0.00409405 0.000591786 -0.00367403 -0.00247268 0.00118742 -0.00406096 -0.00355957 
0.0010511 -0.00513167 -0.0036826 0.00122489 -0.00499087 -0.00387915 0.00180195 -0.00762018 -0.00465907 
0.00237609 -0.00304197 -0.00174181 0.00309049 -0.00799425 -0.00751073 0.00325494 -0.00670373 -0.00880515 
0.0018869 -0.00729292 -0.000709601 0.00671221 0.00409183 0.00340587 0.00630459 0.00437504 -0.000838026 
0.00479421 0.00461839 0.00517269 0.0051721 -0.00142749 0.00590442 0.00485739 0.00558885 0.00470785 
-0.00205487 0.00528707 0.00842016 -0.00212286 0.00588458 0.00315282 0.00565586 0.00367951 -0.00490495 
0.00711822 0.0090066 -0.00537073 0.00647499 0.00872518 0.00711192 0.00752728 -0.00324746 2.39917e-06 
0.00307715 3.57004e-06 -3.48501e-06 -0.000917121 -0.00355296 0.00967995 0.00229278 8.74064e-05 0.00269294 
-0.0046665 0.00299873 0.0021675 -0.00217618 0.000460355 -0.000271802 -0.00309568 -0.00177029 0.00110582 
-0.0026859 -0.00117396 -0.000810756 -0.00189376 -0.00343982 1.62075e-05 -0.00124018 0.00274223 0.000387876 
2.20068e-06 3.36621e-07 -5.45181e-07 -2.0671e-06 5.12572e-07 -1.40344e-06 -4.8017e-06 -5.5616e-08 -2.77094e-06 
-6.09764e-06 -8.18778e-07 1.01983e-06 -8.91715e-07 6.48568e-07 -4.17521e-06 -7.28466e-06 -9.20831e-07 -4.57823e-06 
-4.50425e-06 2.43404e-06 -3.73815e-06 -4.3302e-06 1.14942e-06 -3.12466e-06 -2.72976e-06 -3.52215e-06 -4.04163e-06 
-3.58569e-06 -4.17874e-06 -4.17454e-06 -7.64227e-07 -2.65874e-06 -2.6071e-06 -2.50847e-07 -4.31382e-07 -4.33467e-06 
4.31751e-06 1.56794e-06 -8.79984e-06 -6.33526e-06 -1.74968e-06 -5.68057e-06 5.52347e-06 3.36956e-07 5.07725e-06 
1.37713e-05 -1.78938e-06 7.77501e-06 5.84211e-06 -3.33784e-06 3.3697e-06 4.92557e-06 2.26307e-06 5.39551e-06 
6.52182e-06 6.25309e-06 2.51399e-06 4.52582e-06 5.52097e-06 3.98587e-06 1.20073e-06 2.31473e-06 -7.64432e-07 
-1.3025e-06 1.2881e-06 2.55772e-06 -1.54635e-06 -3.81287e-06 -3.38965e-06 2.33681e-06 -1.23426e-06 0.000671442 
-9.59433e-05 5.07301e-05 0.000116259 -7.42616e-05 2.50653e-05 5.36366e-05 6.3181e-05 1.47809e-05 1.38602e-05 
-2.32273e-05 8.64078e-05 2.55453e-05 1.91288e-05 7.45794e-06 7.71738e-06 1.79814e-05 -1.07096e-07 -1.65262e-06 
-1.57897e-05 -1.9036e-05 4.17351e-06 -3.50211e-05 -6.83594e-07 -1.45387e-05 -7.48989e-06 1.01814e-05 7.56618e-06 
-1.07363e-05 1.00338e-05 1.24325e-05 1.32296e-05 -5.93499e-06 9.20135e-06 1.26772e-06 -2.53825e-06 -1.02821e-05 
-2.42943e-06 -4.46518e-07 -9.19892e-06 -8.76339e-06 5.53092e-06 3.49558e-06 9.15354e-06 -5.93343e-07 6.89157e-06 
4.0163e-06 -5.4347e-06 -7.99018e-07 -8.34792e-08 -4.15425e-06 -9.4598e-06 -5.55939e-06 2.1841e-06 -2.62178e-07 
-5.19371e-06 -1.91574e-06 4.06131e-06 1.27573e-06 1.2407e-06 2.65914e-06 -5.38762e-07 -1.87299e-06 -3.25319e-07 
8.21351e-07 -2.25658e-06 -5.50556e-06 -5.04551e-06 -1.89791e-06 -1.77928e-06 -2.96197e-06 -2.47501e-06 -2.78991e-06 
7.54609e-07 -2.8506e-06 -1.06642e-06 -2.87345e-06 1.44458e-06 -2.84355e-06 -4.4237e-07 -4.34453e-07 1.17092e-06 
-1.08593e-06 -6.08213e-07 -4.48768e-07 3.05965e-06 -8.79203e-07 -1.02364e-06 -2.62018e-06 2.16178e-06 -1.80645e-06 
8.0691e-07 2.15085e-06 1.50897e-06 6.28512e-07 1.13121e-06 2.05157e-06 2.55932e-06 -3.94561e-07 1.34812e-06 
-1.97859e-06 1.79125e-06 -6.43146e-07 6.14245e-07 3.04513e-07 -2.92596e-07 -7.23182e-07 -3.62418e-07 1.41931e-06 
-3.44355e-07 -8.89498e-07 6.72971e-07 -5.1126e-07 1.85895e-07 2.34486e-07 1.04516e-06 1.7816e-07 -9.77495e-08 
8.41191e-07 -5.61795e-07 -1.51849e-08 3.64431e-08 -3.92468e-07 7.09422e-07 -1.05708e-06 0.00102697 -0.00226465 
-0.000236286 0.00220496 6.30973e-05 5.479e-05 2.88254e-06 3.26527e-06 3.82285e-06 3.32347e-05 -7.04548e-06 
1.99267e-06 1.1822e-05 4.78595e-05 -1.49956e-05 -2.07711e-05 5.14448e-05 1.16522e-06 -1.4873e-05 -5.3987e-05 
-4.14709e-06 4.08957e-05 -3.17986e-05 -3.3574e-05 2.08532e-05 -1.01139e-05 -0.000150941 -5.27989e-05 1.12921e-06 
-4.94938e-05 1.43743e-05 -5.02172e-05 7.90136e-05 -5.76383e-06 -1.53888e-05 1.99065e-08 1.2722e-05 5.3518e-05 
3.7646e-06 2.56421e-05 4.64684e-05 1.49011e-05 1.48294e-06 1.54263e-05 0.000183012 -3.01322e-06 5.89332e-05 
4.2611e-05 3.91946e-05 1.34992e-05 -7.20433e-06 7.82969e-05 0.000974531 0.000555867 0.000303458 -0.000833272 
-0.00199836 0.00134945 0.000607391 0.00109863 0.000148655 0.000296231 0.000383845 -0.000252263 0.000439172 
0.000300254 -0.000454011 2.82926e-05 -0.000108836 -0.00111072 -0.000394727 -0.000930661 0.000529822 -7.85479e-05 
-0.000950234 0.00096484 7.92857e-06 0.00131015 2.55763e-05 7.92978e-05 0.000151646 -0.000163335 0.000312106 
0.0002379 -5.58757e-05 -1.6962e-05 0.000268823 -0.000799644 -0.000317235 -0.000615509 0.000527033 -0.000362942 
0.000522284 0.000194158 -1.69385e-05 0.00121094 7.79746e-05 0.000453951 0.000538878 -0.000512301 0.000192017 
-5.84681e-05 -0.00124307 -0.000359102 -0.00099978 0.000388672 -0.000173655 -0.00116307 0.000408825 -0.00023382 
0.000667776 -2.28656e-05 -4.0693e-05 0.00068236 0.000430772 0.000633894 0.000371293 -0.00281923 0.000335631 
0.00157437 0.000807943 -7.56866e-05 0.000661994 -0.000518361 0.000804406 -0.000593387 0.00209511 -0.000243766 
0.000310786 0.000162429 0.00134506 0.000810671 -8.9287e-05 0.00168474 0.00107613 7.62254e-05 0.00148201 
0.00140191 8.81683e-05 -0.000101992 0.000424633 -8.14852e-06 0.00157745 -0.000372116 3.77428e-05 0.00230966 
0.00204644 0.000207424 -9.72441e-05 -0.00117061 -0.000660758 -0.00210767 -0.00190952 -0.00141405 -0.000481177 
-0.000274807 -0.000536072 -0.00168239 -0.00306189 -0.000283495 8.30751e-07 -2.45327e-06 -0.000774793 -0.000442334 
0.00011295 0.00038347 0.00134737 0.000113384 0.000178649 0.00118151 0.00053183 0.000201609 0.000797223 
0.000947897 0.000133746 -8.37787e-06 -0.0010832 0.000213524 -0.000153507 -0.000975073 -0.000487794 -5.1072e-05 
-0.00127253 -0.000663302 3.00601e-05 -0.000535932 -0.000575666 -9.31867e-05 -0.00250081 -0.00431557 -8.28803e-05 
2.54806e-07 1.02793e-06 -4.92492e-07 2.72728e-05 1.22314e-05 -4.56146e-06 -7.05424e-07 -2.92072e-06 -0.000178146 
0.00119021 0.000236964 5.01352e-05 -0.000576225 0.000998508 2.25395e-05 0.00065294 1.78135e-05 2.62647e-05 
0.000119847 0.000200765 -0.000143482 0.000172969 6.30592e-05 1.27996e-06 -0.000198281 -0.000137524 4.56661e-05 
0.000723323 -3.44798e-05 -0.000285011 -0.00336107 -0.00210585 -0.000524581 3.78911e-05 -0.000134321 -0.000953201 
-0.000486288 0.000520401 -0.000153874 -2.45552e-06 5.77124e-07 -2.01164e-06 -2.10171e-06 -1.26891e-06 -7.89754e-07 
-1.17191e-07 -1.1132e-06 -3.17016e-06 -2.58095e-07 -6.12976e-07 3.85011e-07 4.4389e-07 3.18886e-06 2.05441e-06 
2.31835e-06 1.38329e-06 3.52995e-07 1.49704e-06 1.60074e-06 -5.27586e-07 1.172e-06 -6.75801e-07 5.8772e-06 
2.56729e-06 -1.15244e-06 4.11758e-06 1.3604e-06 -1.74579e-06 -2.40496e-06 2.96985e-06 2.04813e-06 6.01337e-06 
-1.89123e-06 -2.77491e-06 2.45199e-06 -3.16797e-06 3.30911e-06 3.99602e-06 4.57881e-06 1.85842e-06 2.09786e-06 
-3.92479e-06 2.12875e-07 -4.20116e-06 -5.84786e-06 1.96395e-07 3.67768e-06 -2.04796e-06 2.20068e-07 9.36078e-07 
-3.89958e-06 2.30449e-06 -3.861e-06 -1.12383e-06 4.58227e-06 -1.13983e-05 -6.85182e-06 -2.97103e-06 9.82599e-06 
8.9028e-06 2.05758e-07 1.33241e-06 -6.75156e-09 -3.36108e-05 0.000167538 4.04524e-05 8.61806e-05 3.19675e-05 
7.0724e-05 -2.39677e-05 -9.64377e-06 9.80844e-06 4.19625e-07 1.47336e-05 9.54009e-06 1.20275e-06 4.57509e-06 
-9.49708e-06 1.64811e-05 -2.34073e-05 7.66172e-07 8.86013e-06 7.77151e-06 1.55015e-05 -7.08045e-06 -9.59007e-06 
7.37708e-06 5.89981e-06 1.63611e-05 3.36441e-06 1.63685e-05 6.21327e-06 -3.08727e-06 5.05427e-06 4.67389e-06 
4.70429e-06 -6.34656e-06 -3.7474e-06 1.06712e-05 -3.30158e-06 -6.19348e-06 2.22857e-06 4.06711e-06 6.06284e-06 
-3.86123e-06 5.4395e-06 7.32872e-07 -2.45084e-06 -1.29369e-06 -6.05918e-07 -9.57575e-08 -7.69164e-06 -2.90977e-06 
1.97015e-06 -1.28009e-07 -3.10305e-06 6.01812e-07 -1.06753e-06 1.80893e-06 -2.71365e-06 4.19612e-07 -3.41372e-06 
-2.90764e-06 -1.70432e-06 -2.44596e-06 -1.64878e-06 -2.18554e-06 -1.53426e-06 1.22845e-06 -1.96658e-06 1.31698e-06 
1.7374e-07 -1.51164e-06 -1.46181e-08 -9.87659e-07 -2.51695e-06 -2.14211e-06 8.08537e-07 -3.16677e-06 -2.71746e-06 
-1.47671e-06 1.56095e-07 1.62197e-06 -4.22734e-07 1.16106e-06 -3.2471e-06 1.28912e-06 -1.12756e-06 -7.04941e-07 
2.81396e-06 -1.61711e-07 2.34274e-06 1.5185e-06 3.46914e-07 1.44509e-06 -1.91354e-06 1.61381e-06 7.88082e-07 
-7.14249e-07 3.32678e-07 -1.79501e-06 1.343e-06 2.42402e-07 -1.42874e-06 -6.32716e-08 8.89148e-07 4.96662e-07 
3.30156e-08 1.61336e-06 7.09551e-07 -1.34354e-06 1.99341e-07 -1.75639e-06 -4.63169e-07 -6.906e-08 2.59356e-07 
1.69685e-07 -6.90595e-07 -7.05475e-07 -4.42617e-07 2.09538e-07 1.72682e-05 -9.75511e-05 2.90946e-05 -4.88039e-05 
5.34188e-05 -1.55808e-05 -8.11787e-05 -8.0941e-05 -7.43911e-05 0.000595751 -0.000361965 0.000419961 -7.86361e-05 
7.84312e-06 1.78489e-05 3.89385e-06 2.01966e-05 4.24588e-05 0.000110355 -4.58313e-05 4.6048e-05 1.79758e-05 
3.67417e-05 2.74893e-05 1.26967e-05 -0.000121264 -1.73453e-05 0.000118643 -1.7304e-06 0.000350927 0.000163256 
0.000157645 -0.000524872 -9.67792e-05 0.000173936 0.000214806 -3.41818e-05 -2.39454e-05 3.0921e-05 -3.59932e-05 
-9.3464e-05 -9.52684e-05 -5.79159e-05 -0.000147825 0.000177227 5.24153e-05 7.4563e-05 0.000120287 1.67055e-05 
-0.000100823 9.48969e-05 -2.11178e-05 9.90972e-05 0.000136072 -4.56427e-05 -2.14101e-06 7.60804e-05 9.63246e-06 
-9.3411e-05 -5.74911e-06 1.54066e-05 -4.23434e-05 0.000105078 6.00697e-05 -9.56804e-05 -0.0001362 1.2322e-05 
3.70641e-05 0.000185201 -4.25499e-06 0.000128608 -2.5544e-06 -6.24524e-05 -0.000138099 -0.000106044 -1.7478e-05 
-0.000135847 0.000124751 4.94638e-05 -7.89005e-05 -4.94022e-05 -7.51723e-06 -0.000144009 0.000131713 5.34596e-07 
0.000131735 0.000106691 5.89844e-05 0.000160696 -8.89923e-05 -7.18518e-05 5.97839e-06 1.84824e-05 -4.0131e-05 
0.000144737 0.000106963 7.45639e-05 -0.000217551 -7.85343e-06 1.50949e-05 -0.000451709 8.99474e-07 -9.43692e-06 
-3.22079e-05 -6.62765e-05 6.953e-05 4.53361e-05 0.00040177 5.44125e-05 -8.71704e-05 -5.70452e-05 0.000111136 
-7.33618e-05 5.37297e-05 -4.15491e-05 6.82416e-06 -7.55997e-05 -1.90662e-05 6.64565e-06 -0.000117409 3.77062e-05 
-8.36896e-05 -2.33476e-05 -0.000128294 7.4578e-05 2.65857e-05 -0.00060855 4.37717e-05 4.18814e-05 -5.80271e-05 
1.38747e-05 0.000106902 -4.00233e-05 -6.88086e-05 -3.17433e-05 -8.47284e-05 2.53963e-05 1.39785e-05 -0.00020924 
2.36633e-05 8.48067e-06 -7.14364e-06 4.04727e-05 6.43551e-05 -0.000138191 1.53049e-05 0.000197778 -7.65896e-06 
-3.18708e-06 8.21389e-07 3.16417e-05 -5.50193e-06 6.10105e-05 0.000577829 -0.000235953 5.53272e-05 -7.978e-05 
-1.99367e-07 6.29845e-06 -5.8585e-06 5.8876e-05 -0.000148887 -7.80217e-05 3.54248e-05 -4.31753e-06 -1.40172e-05 
4.44544e-05 0.000171447 -9.94381e-06 -9.35172e-05 -2.82997e-05 -1.11512e-06 -0.000257815 -0.000146934 2.27644e-05 
1.14331e-05 -2.82169e-05 -0.000337753 1.75115e-05 6.62008e-05 9.38482e-06 0.000148615 0.000155706 -0.000279238 
8.28856e-06 -1.18563e-05 -1.09499e-06 -0.000146294 0.000148574 -0.000166894 -5.43959e-05 6.46801e-06 0.000353411 
0.000175532 5.96994e-05 -5.62798e-06 -1.65919e-05 -7.76268e-06 2.93901e-05 1.39193e-06 2.96462e-06 -1.34441e-06 
3.98297e-06 1.06641e-07 -2.62844e-07 -5.92762e-07 2.26929e-06 2.05285e-07 4.9482e-06 2.94836e-06 3.66695e-06 
7.58393e-06 4.71985e-06 3.25831e-06 6.16889e-06 3.73219e-06 3.88734e-06 1.26847e-06 -1.96964e-06 9.95285e-06 
5.04778e-06 5.72726e-06 7.36215e-06 5.38833e-06 -4.1113e-06 5.97483e-06 -3.82933e-07 2.40107e-06 1.19313e-06 
-9.74233e-06 -7.08861e-07 5.38803e-06 1.24608e-06 9.68751e-07 3.03637e-06 4.33652e-06 5.03449e-07 -1.59339e-07 
-1.02525e-05 -2.84666e-06 -2.27615e-06 -1.22385e-05 -3.2042e-06 -1.13391e-06 -7.38958e-06 -4.58974e-06 -6.17322e-06 
-3.68504e-06 -7.52857e-07 -5.92572e-06 -8.0948e-06 7.82194e-07 4.79784e-06 -2.13788e-05 2.31091e-06 0.000174634 
-7.94537e-05 7.03674e-05 1.1999e-05 5.07306e-06 6.26498e-05 -2.33238e-05 8.17075e-07 -2.35066e-05 -3.17121e-05 
-1.28633e-06 -1.10854e-05 5.44908e-05 1.66379e-05 2.85157e-05 3.15188e-05 4.68533e-06 2.45664e-05 1.73652e-05 
1.51745e-05 2.55301e-06 -1.63566e-06 6.62978e-06 1.32569e-06 -7.34361e-06 2.10733e-06 5.66252e-06 1.07229e-05 
-1.68655e-06 1.80519e-05 5.80396e-08 4.11666e-06 2.93406e-06 1.75608e-06 6.35729e-06 -5.43995e-06 -2.34907e-06 
6.08664e-06 -2.85013e-07 9.40717e-06 -1.40179e-06 3.40992e-06 2.38067e-06 -6.1803e-06 3.98269e-06 -2.95436e-06 
1.71312e-06 -6.41732e-07 -1.25621e-06 2.93717e-06 -4.90908e-06 -1.74311e-06 1.56832e-06 -1.40179e-06 4.17093e-06 
-1.81226e-06 1.33194e-06 1.11648e-06 -2.69963e-06 -7.53538e-07 -2.0011e-06 -1.1906e-06 -1.10288e-06 -2.10139e-06 
8.0463e-08 -8.30005e-07 3.89863e-07 1.81766e-06 -1.15824e-06 9.88859e-07 1.32127e-06 -2.26362e-06 2.35956e-07 
4.49857e-07 -2.95773e-06 2.36207e-07 -1.12168e-06 -2.50439e-06 -2.05507e-06 1.46587e-06 1.04408e-06 3.1711e-06 
1.05793e-06 5.27056e-07 -1.84683e-06 2.52135e-06 -7.23755e-07 1.66721e-06 1.87281e-06 -1.52966e-06 -1.01566e-06 
-1.80306e-08 2.80001e-07 4.73094e-07 -2.62305e-06 1.46002e-06 -2.97076e-06 1.33965e-06 -4.03727e-07 -2.13596e-06 
6.68669e-07 -1.57941e-06 5.47135e-07 -3.96642e-07 1.04148e-06 -1.3749e-07 -2.36663e-07 1.71822e-06 5.14134e-07 
-1.5292e-06 -5.70577e-07 -2.18424e-06 9.01755e-05 -3.57487e-05 8.21885e-06 0.000121867 -1.72354e-06 1.38606e-06 
-4.14797e-05 9.3219e-06 -2.47436e-07 3.03189e-05 -8.28387e-06 1.86169e-05 -1.80163e-05 -8.25173e-05 1.69138e-05 
-1.61157e-06 3.80685e-05 6.18436e-05 -4.54191e-05 5.38038e-05 0.000148344 -1.27964e-05 -5.85297e-05 3.08196e-06 
6.27147e-06 2.83093e-05 5.47465e-05 1.8302e-05 1.88509e-05 5.41549e-05 4.64433e-05 2.42026e-05 2.12489e-05 
4.47586e-07 -3.12252e-08 -1.01428e-06 3.02828e-07 -2.30192e-05 -1.2027e-05 1.1413e-05 1.20069e-05 6.35174e-06 
1.59497e-05 2.52567e-05 2.48196e-05 5.19737e-06 1.35299e-05 2.18201e-05 3.38193e-06 3.36381e-06 3.62509e-06 
3.87642e-06 -1.56625e-05 -1.57013e-05 -7.12313e-06 -2.24643e-05 -1.77834e-05 -1.1966e-05 5.65042e-06 3.85424e-06 
-2.04273e-05 2.72469e-06 3.22523e-05 -1.27109e-05 -2.28525e-05 2.17712e-05 8.35697e-06 -4.18563e-05 3.64506e-05 
7.78613e-06 -1.44343e-05 2.52939e-05 3.02644e-05 0.000130998 0.000100616 -2.08971e-05 0.000189264 -8.92912e-05 
-0.000110316 -1.69351e-05 -1.76216e-06 3.97225e-05 -8.50589e-06 4.57738e-05 -6.32026e-05 1.0952e-05 -1.06172e-05 
-2.21921e-06 3.47046e-06 -1.13968e-06 9.35514e-05 6.07679e-05 -4.65595e-05 -3.51503e-06 -1.62989e-05 4.39179e-05 
1.24904e-05 -1.03713e-08 3.67802e-07 -1.2591e-06 -1.16589e-06 -6.44627e-06 -7.5655e-06 -1.7286e-05 1.68499e-05 
1.81806e-05 2.06529e-05 -4.05356e-05 -1.75089e-05 -4.06426e-05 -0.000153923 -1.09827e-05 6.24673e-05 5.03468e-06 
7.60104e-05 -3.19334e-05 4.26924e-05 -0.000118611 0.000126539 0.000128176 -2.34159e-05 9.17907e-05 5.13616e-05 
0.000160578 -6.78932e-05 -4.27476e-07 -0.000131424 0.000107217 2.40797e-05 1.91289e-05 -0.0001904 -2.00679e-05 
-1.6709e-05 -3.88695e-05 5.01279e-05 0.000119321 -2.72386e-05 -3.02413e-05 -6.71703e-05 8.0636e-06 2.75871e-06 
-1.90891e-05 3.0579e-05 7.58488e-06 8.09774e-05 -1.69947e-05 9.0382e-06 -9.15655e-05 -8.67291e-05 0.000248795 
-9.80648e-05 -0.00624938 0.0146396 -5.12203e-05 7.94226e-06 7.87261e-05 2.84902e-06 1.5187e-05 9.89176e-07 
-3.58125e-06 -3.43728e-07 4.41325e-06 -9.56946e-06 -2.2825e-05 6.84086e-05 1.02198e-06 1.55828e-06 1.6636e-06 
3.23361e-06 5.75286e-06 2.4111e-06 7.58308e-06 2.43648e-06 7.53819e-06 1.16309e-05 -2.5721e-06 4.19114e-07 
-1.7302e-07 -3.31743e-06 -8.30943e-06 -5.83039e-06 -2.25191e-05 -2.35054e-06 0.00576386 6.03216e-06 -1.13018e-05 
-1.74154e-05 -4.93277e-06 -2.07271e-06 3.00095e-06 7.50096e-06 -1.15465e-05 1.09842e-07 7.00369e-07 1.60536e-07 
-1.58827e-05 7.66243e-06 -9.29201e-06 1.25269e-05 -2.12485e-05 -1.05207e-05 -4.41075e-06 4.05584e-05 -2.96515e-06 
2.22301e-05 3.76371e-05 -2.90249e-05 1.44449e-05 2.87845e-06 -1.245e-05 3.95729e-05 -2.81643e-05 -1.26072e-05 
3.49801e-05 -1.71459e-05 -5.58427e-07 3.76302e-05 1.6572e-05 7.81179e-06 1.69788e-05 1.5685e-05 9.44536e-06 
1.34799e-06 -3.73985e-06 1.96563e-06 -1.05405e-06 -5.10004e-06 1.29696e-06 4.24347e-06 4.71631e-06 -4.25299e-06 
7.77665e-06 -6.8592e-06 1.71866e-06 -8.74776e-07 6.71636e-07 7.37932e-06 -1.34153e-06 -3.2103e-06 1.22297e-06 
2.30163e-07 2.23952e-06 -4.64032e-06 6.53893e-06 -1.77124e-07 -1.13352e-06 1.10712e-06 1.3594e-06 1.69116e-06 
-3.33537e-06 -8.75865e-07 4.73353e-06 -6.03692e-07 -1.82681e-06 4.87994e-07 5.07644e-07 1.72622e-06 -2.99303e-06 
4.2799e-06 -5.48353e-07 1.14628e-07 4.88117e-07 4.56764e-07 3.40701e-07 -3.03197e-07 -4.16577e-07 3.29823e-06 
-3.24901e-08 1.83934e-06 2.46612e-06 -1.21955e-06 1.08729e-06 2.89445e-06 -2.51043e-06 1.75243e-06 6.36032e-07 
-2.96355e-06 2.17691e-06 5.77222e-07 -2.46576e-06 -4.86897e-07 2.58831e-06 1.9636e-06 3.98898e-06 8.68369e-07 
6.12344e-07 -8.51309e-07 -4.99951e-07 -1.38701e-06 3.9708e-06 3.81747e-07 -1.45716e-06 1.06559e-06 -4.71867e-06 
1.59945e-06 -3.09904e-06 2.06093e-07 -2.01793e-06 -3.24207e-06 4.476e-07 -3.78776e-06 5.29455e-07 1.00276e-06 
-3.65266e-06 -3.00641e-06 -4.57341e-07 8.59563e-07 -4.68126e-06 -2.92131e-06 2.08791e-06 -9.58313e-07 2.4865e-05 
2.0459e-05 3.7682e-05 -2.21205e-05 6.30683e-05 -8.1843e-07 1.59421e-05 -1.05356e-05 5.33333e-06 5.47509e-06 
-5.89675e-05 -5.13436e-05 -1.42735e-05 -9.16745e-05 4.29409e-05 -0.00010612 3.58946e-05 -3.51218e-05 6.27437e-05 
-2.91529e-05 1.50363e-05 -1.21672e-05 8.4927e-06 -5.36523e-07 6.27842e-07 -2.22461e-05 1.93837e-05 -1.09347e-05 
-1.66824e-05 8.65397e-06 4.89379e-06 -4.44314e-06 3.77408e-05 1.76326e-06 1.04304e-05 -4.11142e-06 -6.3916e-07 
1.18047e-05 -1.0557e-05 -2.88952e-06 1.70683e-05 2.18277e-05 5.34393e-06 -5.99196e-06 1.38931e-05 -1.55557e-05 
1.73635e-06 2.08612e-05 6.3192e-06 1.12783e-05 -4.31665e-05 2.09295e-05 3.7352e-05 -1.6534e-05 3.4322e-06 
1.79308e-05 -1.20027e-05 -3.33185e-05 1.93333e-05 2.05858e-05 -1.31225e-05 2.97382e-05 1.95918e-05 -4.24975e-05 
-4.43718e-05 -6.12089e-05 2.89778e-05 2.55572e-06 1.37788e-05 -3.16627e-06 1.33757e-06 4.94883e-06 1.49817e-07 
1.50861e-05 -3.73318e-05 5.56754e-06 4.111e-06 5.40604e-06 -2.62002e-05 1.06694e-05 2.09506e-05 4.96844e-05 
1.40969e-05 -1.41806e-05 3.22001e-05 -1.71263e-05 4.0093e-06 4.29694e-05 -2.31231e-06 7.52213e-06 1.01752e-05 
-8.92281e-06 -1.29801e-05 -4.25456e-06 4.62483e-05 -1.15901e-05 -2.07662e-05 4.48756e-05 -3.0521e-05 4.49198e-06 
-2.5688e-05 3.61265e-05 -2.0187e-05 -4.3926e-05 -5.2263e-06 5.59636e-06 -1.10919e-05 5.10388e-05 -4.46017e-06 
-3.34434e-06 3.95873e-05 9.70416e-06 -1.26254e-05 1.32168e-05 -1.36704e-05 -4.78311e-05 -1.27951e-05 6.21283e-06 
3.57648e-06 -1.34377e-05 7.17085e-06 -1.16729e-06 9.08839e-06 2.48208e-05 -0.00363644 -0.0100181 -8.36963e-05 
1.95333e-05 2.58802e-05 4.83648e-06 -0.000110358 2.49877e-05 6.01595e-06 -2.28963e-06 4.00156e-05 4.87399e-05 
-5.03833e-06 1.04168e-05 2.23473e-06 1.48906e-05 -5.75634e-06 -2.82698e-05 -2.33696e-07 2.38912e-06 1.34198e-07 
2.15558e-05 -2.00022e-05 1.68766e-06 -1.75835e-05 7.18587e-05 1.96799e-05 -4.03689e-05 -1.34204e-05 2.47711e-05 
3.88659e-05 -1.32153e-05 6.37212e-06 -1.21344e-05 6.51891e-06 1.96355e-05 3.81775e-06 -1.87929e-06 1.4626e-05 
2.73662e-06 2.81686e-06 2.57449e-06 -4.29814e-06 4.14128e-06 -3.26572e-06 1.51922e-05 -8.78411e-07 1.42519e-06 
5.63957e-06 -2.89744e-06 -7.91387e-08 -6.92689e-06 -8.50092e-07 -8.99882e-06 -1.24987e-07 6.6687e-08 -1.6577e-06 
-7.73109e-07 1.86052e-07 2.09209e-06 -6.63522e-06 -1.4454e-06 4.7241e-06 -2.90863e-06 9.28258e-07 -5.52746e-07 
1.37674e-06 7.75367e-07 -6.50886e-06 1.11776e-06 2.26658e-06 3.02257e-07 -2.71328e-06 4.45901e-07 2.33305e-06 
-1.39863e-06 -1.18643e-06 2.75508e-06 -1.67266e-06 1.00831e-06 8.88013e-07 -1.30983e-06 2.24796e-06 -6.08255e-07 
1.62856e-06 3.42317e-06 1.20759e-06 1.89242e-06 3.08362e-06 -4.34409e-06 7.93148e-07 6.11199e-06 5.79189e-06 
3.92626e-06 5.61547e-06 -3.29852e-06 -1.1351e-05 3.31988e-06 -1.41465e-06 -1.11164e-06 9.76257e-07 4.12992e-07 
2.13998e-06 -2.39744e-06 4.99607e-06 7.72749e-07 -9.37423e-07 -3.65361e-06 4.58598e-06 1.92885e-06 0.00373064 
0.00208116 -6.08317e-06 -3.44992e-06 9.0263e-06 7.49564e-07 -3.11593e-06 7.76999e-06 -7.08303e-06 1.4955e-06 
1.11006e-07 -5.63171e-06 2.97958e-06 1.13847e-07 -3.01188e-06 2.91079e-05 3.37972e-05 6.20085e-06 1.84563e-05 
3.00818e-05 -4.37078e-05 -5.717e-07 1.63616e-05 2.3544e-05 1.01423e-05 3.61622e-05 -2.13425e-05 1.33293e-05 
2.31526e-05 1.78652e-05 -0.00139043 -0.000131449 -2.54649e-05 -7.05255e-06 6.71326e-05 8.05562e-06 -4.46589e-06 
-5.36509e-06 -1.86336e-05 -1.73265e-06 -2.08861e-05 7.26735e-06 0.00689347 0.00260305 -1.33574e-05 1.06934e-05 
8.4158e-05 2.83539e-05 -1.91723e-05 8.08078e-06 -3.70564e-05 -7.81414e-06 2.98853e-05 -4.89963e-07 -4.87955e-05 
1.93008e-08 -2.9701e-05 3.19461e-05 3.04417e-05 -8.7093e-06 -1.95557e-05 9.23671e-06 -2.6753e-05 1.05445e-05 
8.97763e-06 5.47126e-06 4.58287e-06 1.656e-05 -1.14508e-05 5.27369e-06 -8.94628e-06 1.20179e-05 0.00515542 
0.00176851 -1.15526e-05 1.28259e-05 1.18856e-05 -4.11366e-06 4.3256e-05 7.20712e-06 2.18909e-06 6.75655e-06 
3.48501e-07 -5.92364e-06 5.70808e-06 -4.52025e-06 2.5047e-06 6.10397e-06 6.8681e-06 2.31851e-05 1.79905e-05 
2.12938e-05 -3.14717e-05 -1.8379e-05 -4.69287e-05 -5.87963e-06 6.96352e-07 -4.90262e-05 4.52358e-05 8.88282e-06 
-1.72158e-05 2.60489e-07 1.87804e-05 1.36475e-05 1.21508e-05 -8.29187e-06 -1.63054e-05 -5.00279e-05 8.39754e-05 
-4.50968e-05 -3.2923e-05 1.63011e-06 2.32312e-05 4.45821e-06 2.95742e-06 -2.18695e-06 1.17715e-05 2.36335e-05 
1.95553e-06 2.26294e-05 4.09821e-05 2.32664e-05 -2.33473e-05 -7.48626e-05 1.63617e-05 7.09122e-06 -2.17123e-05 
5.03137e-05 2.25994e-06 7.18991e-06 3.86006e-06 2.89726e-05 -1.33446e-05 8.36998e-06 4.59363e-05 7.62924e-06 
-6.42678e-06 -9.80689e-06 2.11993e-05 2.62381e-05 1.03364e-05 -1.34615e-05 -1.53415e-05 1.02312e-05 -4.9238e-06 
4.24971e-06 -1.77791e-05 1.66806e-05 -2.2182e-06 -4.7654e-06 -1.84384e-05 -6.47837e-06 -5.88054e-06 -1.05182e-05 
1.78548e-06 -3.8699e-06 -1.24837e-05 -1.48995e-06 -1.05452e-06 -3.9307e-06 1.20584e-06 0.00160587 -0.00310891 
1.35099e-06 1.33682e-06 8.52092e-07 -1.46822e-06 1.53297e-06 7.88048e-06 -9.86386e-07 -6.04315e-07 1.4408e-06 
6.93893e-07 -1.14593e-05 3.96886e-06 4.63187e-07 -5.55567e-07 -5.02386e-06 -2.13299e-07 3.74824e-07 -7.65063e-06 
8.93756e-07 4.30059e-06 -1.21651e-06 4.6513e-07 -8.74815e-07 -2.77519e-06 6.61166e-06 5.20775e-06 6.0863e-06 
1.35712e-06 -1.94134e-06 5.29733e-06 1.08585e-05 -6.40104e-06 8.09731e-07 1.50407e-05 -5.44196e-06 1.47674e-05 
1.4481e-05 -4.44297e-06 -6.48098e-06 4.87322e-06 5.95427e-06 -7.17351e-06 9.47591e-06 -0.00279896 -0.00392469 
-2.1979e-05 -7.6691e-06 -5.70029e-06 -7.77874e-05 5.4044e-05 9.74023e-06 -6.08765e-06 4.05782e-06 -3.58235e-06 
-9.93274e-06 9.43781e-06 -3.26136e-05 -2.44774e-05 1.80509e-05 -3.5979e-05 -7.81322e-06 3.27055e-06 2.61473e-05 
1.39969e-05 -3.01936e-05 5.37876e-05 2.19735e-05 7.15246e-06 -1.32442e-05 -0.0041011 -0.000682066 4.37988e-05 
1.98044e-05 -5.18551e-07 4.07047e-05 -2.1059e-05 -1.49772e-05 1.90371e-08 2.63976e-05 -9.67857e-06 9.72619e-06 
0.00399017 -0.0179437 3.30629e-08 8.56534e-06 -7.98929e-06 -9.34994e-06 1.60479e-06 -1.11151e-05 -7.59571e-07 
-2.00796e-05 5.81679e-06 -3.10583e-05 3.02623e-05 -5.71396e-06 5.72156e-05 6.9054e-05 -7.10297e-05 0.000273395 
-9.48475e-05 -4.34784e-05 -1.61075e-05 3.89274e-05 1.54601e-05 -1.75508e-05 -5.26497e-06 -6.66431e-06 2.07462e-06 
-3.65328e-05 -5.64221e-05 -7.51962e-07 1.6369e-06 -1.58455e-05 -3.58262e-06 -1.17007e-06 2.09145e-05 -1.29677e-05 
7.64716e-06 1.4061e-06 2.97936e-05 4.81883e-07 -3.3327e-05 2.08482e-05 -3.11788e-05 1.42163e-05 -3.00155e-06 
-1.62131e-06 1.1732e-07 -6.97134e-06 8.93658e-06 1.0181e-06 1.56392e-06 -9.4826e-07 2.68638e-06 -1.43403e-06 
5.85577e-06 1.99457e-06 5.59479e-06 -6.46024e-06 5.78775e-07 4.89033e-06 5.64317e-06 -1.85402e-05 -1.03973e-05 
1.51238e-05 2.64881e-06 -5.1313e-05 -8.26427e-06 3.2536e-05 1.9394e-05 2.85056e-05 2.56546e-05 1.88747e-05 
7.27918e-06 -6.00568e-06 3.00286e-05 8.82028e-06 -2.96917e-05 -2.06265e-05 -7.97257e-06 -8.44659e-05 -4.86869e-07 
2.25253e-05 1.12301e-05 3.02042e-05 1.20566e-05 -7.42467e-06 -1.37381e-05 1.03871e-05 -7.95905e-06 -4.15803e-06 
4.12489e-06 -1.05351e-05 4.45662e-06 2.46882e-05 8.71183e-06 9.30953e-08 -1.95572e-05 -2.33518e-05 -4.4887e-06 
-2.07646e-06 1.41574e-06 -6.88583e-06 -8.04924e-06 -1.20749e-05 1.60042e-05 5.71818e-06 -1.589e-06 -2.93389e-06 
6.74468e-06 1.44196e-05 -3.0978e-06 -1.0802e-05 -9.16936e-06 -3.25335e-06 -1.93725e-05 3.45981e-05 6.51123e-06 
-6.36089e-06 -6.26148e-06 2.32159e-05 1.86201e-06 -1.01422e-05 5.10165e-06 -1.06378e-05 -1.71771e-05 -2.15069e-06 
1.42624e-05 -9.70853e-06 -2.72215e-06 1.81637e-06 -2.3571e-06 -1.79092e-05 8.11002e-06 -7.6344e-06 -5.2212e-06 
-2.82656e-06 -6.94804e-06 3.4026e-05 2.8845e-06 -1.59783e-05 2.81725e-05 -9.78561e-06 -1.03928e-05 2.27427e-06 
-2.57597e-05 9.87581e-06 7.24244e-06 6.66247e-07 -5.18744e-06 -1.53142e-05 4.58483e-05 5.05121e-06 -9.49569e-07 
-2.85393e-06 -1.40455e-05 2.92198e-05 5.66195e-06 -1.7428e-05 2.12695e-06 6.74019e-07 3.67979e-06 2.53276e-06 
7.61606e-07 -1.28669e-06 7.58865e-07 -1.16945e-06 -1.41316e-06 -4.90019e-07 -8.23527e-07 -2.00141e-06 -5.42973e-07 
1.07973e-06 6.0771e-07 1.19752e-06 9.23153e-07 -1.48095e-06 5.65352e-07 1.20052e-06 -6.58459e-07 -4.2964e-06 
3.04793e-07 -2.34952e-06 -4.127e-07 -2.84894e-06 1.16721e-06 1.34454e-06 1.88314e-07 1.48137e-06 -2.21998e-06 
1.43442e-06 -2.6433e-06 -1.48462e-06 -5.76014e-06 1.74409e-06 5.94098e-06 -8.97298e-06 3.35862e-06 1.14592e-06 
3.03118e-06 -2.64268e-06 7.24804e-07 3.08565e-06 -5.35493e-06 9.94387e-06 2.06094e-06 6.90297e-07 4.53538e-06 
7.52695e-06 -3.42125e-06 1.05465e-06 2.52842e-06 -3.75562e-06 2.65641e-06 4.28101e-07 1.44083e-06 -1.15723e-05 
3.508e-06 -2.41376e-07 -3.11076e-06 -1.12213e-05 2.98629e-06 -4.43999e-06 -0.00721214 -0.00071773 0.00393132 
0.000261764 -0.000194597 -0.000676056 4.65003e-05 -0.000115034 -0.000152243 -2.66635e-05 -1.41961e-05 -2.52061e-05 
2.76833e-05 2.5641e-05 -1.88331e-05 5.84374e-06 -1.3176e-06 1.74947e-05 -7.65967e-06 -5.12738e-06 6.91775e-06 
-1.23587e-05 -4.67027e-06 -1.8081e-05 2.88677e-06 2.6969e-06 -5.72362e-06 6.08831e-07 -1.42163e-06 2.17183e-07 
1.68746e-06 1.26156e-06 1.11434e-06 -6.49516e-07 -3.04346e-06 3.30114e-06 -6.18562e-06 -3.36984e-06 -3.14028e-06 
1.70966e-07 2.24092e-06 -1.44937e-06 7.17e-07 -9.08494e-07 3.56199e-06 -1.6017e-06 -3.44906e-06 2.26003e-06 
3.32473e-08 3.12404e-06 1.31863e-06 3.5196e-07 9.6262e-07 6.51005e-06 2.91711e-07 -3.54746e-07 3.79793e-06 
2.40845e-06 -1.5237e-06 2.94379e-06 -5.63595e-06 -7.04773e-06 -1.25955e-06 -4.47183e-07 2.84397e-06 -1.24456e-07 
2.35219e-08 -4.30415e-07 3.43446e-06 -1.20014e-07 1.26229e-06 1.33607e-06 -3.45799e-07 -1.26e-06 -1.78048e-06 
5.82429e-07 7.60053e-07 1.14566e-07 -1.4805e-06 -4.29444e-08 -2.2819e-06 3.61649e-06 2.66395e-06 -1.41148e-08 
7.15481e-07 -1.47497e-06 -6.5957e-07 -2.20279e-07 -3.44419e-07 -2.47725e-06 3.78591e-07 -8.43968e-07 -2.39762e-06 
4.44727e-07 -3.24139e-07 5.53234e-07 -4.91127e-08 -8.56208e-07 6.94959e-07 -1.02692e-06 -1.08893e-06 1.54287e-06 
-0.00147252 5.64228e-06 5.82981e-06 -2.61149e-06 1.60812e-06 -6.08867e-06 -3.36636e-06 -2.82447e-06 -1.13167e-05 
-9.5994e-07 1.02871e-06 1.14368e-05 -2.70579e-05 2.50979e-05 2.46102e-05 -1.61825e-05 -6.50446e-06 2.49532e-06 
-2.53073e-05 2.5837e-05 5.54032e-05 -2.96199e-05 -0.000101948 4.58586e-05 2.31855e-05 -8.3838e-05 1.7266e-05 
2.88231e-06 7.05733e-05 9.87906e-05 -3.71442e-07 1.55488e-05 -0.000216649 6.29911e-05 2.26576e-05 4.06961e-06 
-7.60103e-05 2.36566e-05 -4.48712e-05 -0.000139468 1.24228e-05 -2.43904e-05 -7.51209e-05 5.32512e-06 1.53771e-05 
-1.6282e-05 2.70655e-07 3.9531e-05 1.76032e-05 5.54453e-05 7.01769e-05 4.9429e-05 5.41225e-05 5.69191e-05 
0.000101302 -0.000102194 0.00042472 0.000113506 0.000173001 -0.000399521 0.000305657 -0.0008097 -0.00121895 
0.000447613 0.0044881 0.00201352 0.00191608 0.00467625 -0.000942103 -0.00113583 0.00182671 0.00573065 
-0.0022736 0.000367522 0.00258055 -0.000438636 -0.00136512 0.00114586 -5.56927e-05 -0.00404748 -0.0011049 
0.000699502 0.00373925 -0.00294781 0.000910231 0.00139156 0.00465937 -0.00149007 -0.000262909 0.00180453 
-0.000389765 -0.00154886 1.71755e-05 0.000119736 -0.00109361 -0.00041724 0.000425 0.00134717 0.00297924 
-0.000427512 -0.000710226 0.00147959 -0.000475342 -0.00208903 0.000178769 0.000165834 -0.00475501 -0.00168227 
0.00100143 0.00390064 -0.00374091 0.00157871 0.00154895 0.00513606 -0.00103536 -0.000393505 0.00113173 
0.000158973 -0.00349406 -0.000151106 0.000811246 -0.00109871 -0.00286368 0.00132859 0.00481951 -0.00321872 
0.00677772 0.0044251 0.00548562 0.00328012 -0.00205871 0.00232327 0.00115125 -0.00135258 0.0035233 
0.00338576 -0.00160295 0.00408456 0.0037269 -0.00172213 0.00421515 0.00403396 -0.0014243 0.00521279 
0.00478615 -0.00161855 0.00658794 0.00594941 -0.00190624 0.00389372 0.00281897 -0.00398094 0.00240352 
0.00355013 -0.00328247 0.00949382 0.0136892 -0.00296763 0.00682717 0.00386469 0.00567953 -0.00801589 
-0.00802159 -0.00554473 -0.00391934 0.00188121 -0.00566746 -0.00469286 -0.00639762 -0.00510746 0.00182569 
-0.00714536 -0.00568843 0.00206748 -0.00663408 -0.00607863 0.00245352 -0.00384346 -0.00221435 -0.00325333 
-0.00234945 0.00510972 -0.00921272 -0.00953396 -0.00661764 -0.00975797 0.00193465 -0.00477199 -0.00565634 
0.00270729 0.000184985 -0.00240586 -1.08589e-06 1.21997e-05 -7.77525e-07 1.21688e-05 -3.89783e-05 2.40597e-05 
0.00029655 -2.90448e-05 -0.000126559 -0.00028538 -0.00120784 0.00044585 0.00221906 0.00185611 0.00749635 
0.00154272 0.000118432 -0.00222083 0.00307183 0.00312495 -0.00247831 0.00717731 0.00186439 0.00236545 
-0.00087882 0.00277577 -0.00133444 -0.00173274 0.00398738 0.0053577 0.00369792 5.20937e-05 -5.87924e-05 
9.42974e-07 -0.00314237 2.00868e-06 -2.82785e-06 -6.06456e-07 2.2221e-07 -1.21433e-06 -1.13959e-06 -3.93505e-06 
3.28663e-07 -2.50992e-06 4.34235e-07 8.33042e-07 -3.37083e-06 -4.97054e-07 -3.47648e-07 -2.14554e-06 -3.34092e-06 
-6.52665e-07 -6.85672e-07 4.67553e-07 2.66197e-06 -6.80267e-07 -1.92912e-06 3.53175e-06 -5.02944e-06 -5.5663e-07 
2.28686e-06 2.8017e-06 -1.07739e-06 4.58589e-06 4.3551e-06 -3.31494e-06 1.92655e-07 3.60993e-06 -2.1715e-06 
3.02712e-06 7.31772e-06 8.04656e-06 -2.41005e-06 5.25808e-06 6.29241e-06 5.11475e-07 7.23411e-07 -2.41659e-06 
-3.83984e-06 2.57912e-06 2.20512e-06 -2.11216e-06 3.08497e-06 1.6948e-06 -6.08643e-06 -5.95518e-06 3.44558e-06 
-5.33237e-06 -4.21036e-06 5.19414e-06 3.29106e-06 2.28686e-05 2.683e-05 4.49334e-05 0.000138546 -0.000132886 
0.000194839 -0.000112284 -7.11255e-05 6.31554e-05 -0.000540106 -8.78166e-05 5.45292e-05 6.35447e-05 -4.40188e-05 
6.63156e-06 -7.47765e-06 3.94181e-05 -3.26022e-06 5.79489e-06 3.10561e-06 -6.90109e-06 2.27614e-06 -2.03331e-05 
-3.35182e-06 1.11256e-05 -6.3633e-07 5.04283e-07 -2.29897e-06 -1.45215e-05 2.51647e-06 -7.49343e-07 -1.62691e-06 
1.41268e-06 6.67138e-06 6.25183e-06 2.1541e-06 4.24557e-08 -2.86305e-06 -6.81085e-06 -8.96054e-08 5.31794e-06 
3.29117e-07 -1.96989e-07 -2.90862e-06 -3.47632e-07 1.05016e-06 3.72135e-06 -2.7701e-06 -2.09914e-06 -1.73028e-06 
-8.18869e-07 1.90483e-07 8.26696e-07 -2.54765e-06 -3.73321e-06 3.06032e-06 5.01435e-07 -1.47737e-06 4.5383e-06 
-4.21373e-06 -4.32185e-06 7.81202e-07 -3.66655e-06 6.29095e-07 -1.87106e-07 -1.47589e-06 -8.67967e-08 9.44186e-07 
-1.45424e-06 -1.94977e-06 -2.64288e-07 -1.14225e-06 -1.21023e-07 1.95951e-06 9.13775e-07 1.45709e-06 -1.38685e-06 
-7.8461e-08 1.37494e-06 1.36903e-06 1.0052e-06 1.03161e-06 -1.10977e-06 2.45465e-06 -3.09226e-07 -1.62856e-06 
8.29519e-07 -4.91767e-07 -7.93607e-08 -4.21622e-07 7.38824e-07 -2.29489e-06 7.79598e-07 -1.34983e-07 -1.2661e-06 
-4.55061e-07 -2.16617e-07 1.08826e-06 7.51671e-07 -1.3046e-06 -1.41688e-06 6.58492e-07 1.88977e-05 -1.33298e-06 
2.38398e-05 -9.91325e-05 2.1727e-05 -2.65277e-05 1.63584e-05 1.48357e-05 6.98381e-05 -7.01088e-05 -3.10112e-05 
-7.07265e-06 0.000128032 2.97519e-05 1.04788e-06 -6.55944e-05 4.00621e-05 -5.79813e-05 7.57832e-05 0.000122115 
-7.09104e-05 1.03672e-05 2.74196e-05 2.20543e-06 3.49794e-05 1.67574e-05 4.07679e-05 2.17539e-05 4.60966e-05 
4.69076e-05 -6.47437e-07 6.04787e-05 -4.89761e-05 8.45072e-05 3.05666e-05 5.54365e-06 -1.25386e-05 6.1833e-05 
0.000505711 -0.000718765 2.7263e-06 0.00194523 0.000650154 -0.000572783 -0.000685706 -0.00142826 0.000389472 
-0.000310225 -0.000831591 0.000608602 0.000108448 -0.000451776 0.00109656 -8.08788e-05 -0.000155353 0.000327368 
1.39873e-05 -0.00033059 -9.54987e-05 3.71005e-05 -0.000970292 0.000290985 7.82354e-05 -0.000316256 0.000591076 
-7.0084e-06 -0.000130222 0.00132538 5.36637e-07 -7.98717e-05 0.000297962 -3.72518e-05 -0.000453302 0.000148932 
0.000130141 -0.000570888 0.000623222 -0.000131608 -0.000383856 0.00164158 -4.93971e-05 -0.000176769 0.000543198 
-8.96121e-05 3.6343e-05 0.000157605 3.93599e-05 -0.000369979 0.000246763 8.46504e-05 -0.000736375 0.000446878 
3.42851e-05 -0.000719859 0.000287093 5.06971e-05 -0.000302237 0.000907912 0.000671326 -0.000358209 0.000879839 
0.000158455 -0.000617919 -4.82131e-05 -3.37136e-05 -0.000238846 7.17331e-05 -0.000950638 -0.00091555 -7.32923e-05 
-0.000248928 -0.000371202 0.000107524 -0.000355184 -0.000500624 0.000224925 -0.000309281 -0.000381748 -0.00309694 
-0.000624046 0.000728123 -0.000638961 0.000280517 0.00136016 0.000518656 0.00121651 0.000241807 -6.25431e-05 
0.00250184 0.00023634 6.46575e-05 0.00262525 0.000320605 0.00095045 0.000444328 0.000985698 0.000795123 
-6.81672e-06 -0.000260793 9.73806e-07 1.93899e-07 -1.48545e-06 -1.03374e-06 1.70267e-05 2.09335e-05 -2.71423e-05 
-0.00113772 -0.00150512 0.000174645 -0.000672598 -0.000621497 -0.00228787 0.00167055 0.000465451 -0.000113732 
0.00181318 0.000677647 -1.02019e-05 -0.0010773 6.08732e-07 4.89613e-06 -0.000349913 -1.68938e-05 -3.8287e-05 
-0.000116009 0.00131089 1.2934e-06 4.07226e-05 4.38847e-05 -1.44766e-06 1.26521e-05 -1.30575e-06 -1.45478e-06 
0.000165504 1.8314e-06 -8.93321e-07 -7.68073e-05 -5.21357e-05 -2.15988e-05 0.000274808 0.00079855 0.000112187 
-0.000481985 -8.75596e-05 0.000319467 0.00025655 -0.000201351 0.00169706 0.00037324 7.41045e-05 -0.00037404 
-0.00136581 4.66717e-05 -0.000311621 -0.000635008 -7.10562e-05 -0.000236903 -6.07773e-05 -3.50988e-05 -0.00187737 
-0.00063301 -0.000484049 0.000137347 5.00263e-05 0.000597586 -0.00024846 -0.00107159 -5.49747e-05 0.000206404 
-0.000525775 7.0143e-05 0.000227152 -0.000269532 2.06991e-06 7.695e-07 8.11677e-07 3.65303e-06 1.14586e-06 
2.16555e-06 1.36237e-07 1.07282e-06 3.33901e-06 4.37995e-06 -7.43462e-07 -3.71929e-07 3.34171e-06 9.97582e-07 
-1.13972e-06 6.0415e-06 1.29317e-06 -5.31092e-06 -2.27422e-06 7.30489e-07 -3.30357e-06 9.69498e-06 -1.401e-06 
1.42753e-06 1.9773e-06 2.35264e-06 1.89707e-06 -5.11141e-06 5.59849e-07 -3.18158e-06 -4.04682e-06 1.24076e-06 
-1.06812e-06 -6.9413e-06 6.61047e-07 -1.677e-06 -5.62977e-06 -1.65603e-06 -4.90078e-06 -9.51826e-06 -0.000114673 
-5.29879e-05 -1.03406e-05 8.97893e-05 -2.51319e-06 1.66806e-06 5.6462e-08 0.000492876 -0.000284355 3.22485e-05 
5.56108e-05 0.000143435 -7.99432e-05 0.000103595 -4.04794e-06 1.41666e-05 4.14993e-06 1.06923e-05 1.0323e-05 
8.30415e-06 2.36994e-06 -2.64036e-06 -4.96227e-06 -2.97534e-07 7.82958e-06 2.23278e-06 4.30671e-06 1.27239e-06 
1.50775e-07 1.19262e-07 2.81066e-06 1.93245e-06 -2.4781e-06 -5.24926e-06 -6.26923e-06 -6.69038e-07 3.11051e-06 
-1.27567e-07 2.72954e-06 -2.96254e-06 2.3335e-07 -1.48579e-06 -3.45369e-07 -2.68482e-06 -3.49279e-06 -2.57643e-06 
-2.92397e-06 -1.83723e-06 1.30699e-06 -7.8219e-07 2.14118e-07 -3.01321e-06 4.94674e-07 -2.28423e-06 1.08177e-06 
-3.26275e-06 -2.81469e-06 5.9559e-07 -1.7085e-06 1.34294e-06 -3.3787e-07 -2.96218e-06 1.11487e-06 1.2075e-06 
-1.09778e-06 1.48198e-06 4.54823e-07 -1.42913e-06 5.96606e-07 -2.03339e-06 -3.13592e-07 1.93315e-06 4.58044e-07 
-4.08469e-07 -6.60196e-07 -1.21983e-06 6.20516e-07 1.28355e-06 3.05548e-07 2.97071e-06 -1.12596e-06 -1.43172e-06 
-5.11623e-08 -7.14414e-07 4.55342e-07 1.36229e-06 -2.7231e-07 -2.21665e-06 1.16234e-06 -3.61799e-07 -6.1492e-07 
0.000108211 2.61781e-05 -6.70775e-06 2.10472e-05 -1.8494e-05 1.5728e-06 9.44255e-06 -9.8081e-07 1.39779e-06 
-2.07641e-07 2.41149e-07 -1.93433e-06 2.53538e-05 8.30675e-05 -2.02843e-06 1.34313e-06 2.36245e-05 -5.00764e-06 
3.03913e-05 5.06911e-05 -2.57762e-05 5.31868e-05 -9.81136e-05 5.70015e-05 4.49038e-06 -9.53239e-05 -4.29846e-05 
5.09066e-05 -0.000113909 -2.08657e-06 3.43849e-05 -3.49894e-05 0.000113262 -3.94458e-05 3.44833e-05 -1.65932e-05 
-1.32495e-05 3.19883e-05 1.47285e-05 -0.000131071 0.000135525 5.8263e-06 -0.000117159 9.77526e-05 5.82495e-06 
-2.73233e-05 1.54235e-05 2.33966e-05 -5.32289e-05 3.22237e-05 1.5368e-06 -5.42631e-05 2.20338e-05 4.36581e-06 
-0.000116811 4.13625e-05 -2.26454e-05 -1.12755e-05 3.07639e-05 -2.95313e-05 6.40358e-06 1.69741e-05 3.46161e-06 
1.28842e-05 -3.5744e-05 3.1473e-05 -6.39372e-05 -2.775e-05 2.67439e-05 -0.000123744 -9.08033e-05 -0.00123151 
-0.000478813 -3.59799e-06 2.67557e-05 2.73365e-06 2.43738e-05 -0.000158749 1.27717e-05 -1.60124e-05 -0.000202059 
0.000191422 -7.84159e-06 4.06809e-06 0.000190727 6.71884e-05 -0.000448235 0.000436687 5.54384e-06 -4.56467e-06 
5.75137e-05 -2.04443e-05 0.000112881 -0.00024566 -1.57704e-05 2.00954e-06 -4.37531e-05 2.58678e-05 3.90109e-06 
6.75302e-05 2.52659e-05 -3.81247e-05 -3.9698e-05 -0.00012609 0.000117521 -0.000183651 -8.17259e-07 7.16622e-06 
9.76481e-06 2.64613e-05 -2.9064e-06 7.79683e-06 -4.27055e-05 -4.57596e-05 -0.000106418 -4.8493e-05 1.83672e-07 
-0.000105745 -6.14462e-05 5.60262e-05 5.45285e-05 0.000181188 0.000142802 2.44057e-06 4.00535e-07 -5.0573e-07 
7.26494e-07 0.000297137 -0.000370475 -0.000269582 4.88109e-05 5.45852e-05 8.60355e-06 0.000270525 -4.33348e-05 
7.95075e-06 1.07741e-07 -1.75341e-06 8.95283e-07 -5.15395e-07 0.000117704 6.47118e-05 0.000149847 0.000130726 
1.66728e-05 2.57273e-05 -2.05396e-06 8.63779e-06 -6.03758e-05 3.61208e-05 0.000428604 -0.000298035 2.17293e-05 
0.000149564 -2.41648e-05 -0.000102106 5.07142e-06 0.000166359 -1.67333e-05 9.33041e-06 2.69235e-06 -0.000122125 
0.000236055 2.36454e-05 -3.64537e-05 -0.000105266 -1.59759e-05 -4.47344e-05 2.51309e-05 5.38924e-05 8.28244e-06 
-0.000202313 1.67508e-05 6.70587e-06 6.2037e-05 -2.69048e-05 2.72076e-06 9.7022e-07 -1.15023e-07 6.41656e-07 
5.46906e-06 3.86764e-06 -1.89455e-06 -4.55474e-07 -3.64678e-06 -4.33807e-06 4.26256e-06 -2.88459e-06 7.66883e-06 
1.35344e-06 6.05221e-06 1.3176e-05 -1.05959e-05 -8.41214e-06 2.51674e-06 -6.41639e-06 -4.49881e-07 -1.6656e-05 
-1.11668e-05 -1.89782e-06 7.19335e-06 0.000226264 -0.000144084 -0.00036801 0.000175212 -4.17396e-05 2.4168e-05 
1.56453e-06 4.35971e-06 1.64191e-05 3.03959e-06 6.88974e-06 -5.53208e-06 -1.35118e-06 1.50686e-06 -1.65266e-06 
-5.47392e-07 2.48854e-06 -1.80975e-06 1.5428e-06 -8.46913e-07 6.84219e-07 2.78084e-06 -3.33604e-06 -3.3839e-07 
4.29363e-07 3.5664e-07 1.4804e-06 2.03897e-06 6.55179e-07 -2.66057e-06 -1.22924e-06 -1.35781e-06 -8.37044e-08 
1.93389e-06 -2.23349e-06 -5.11797e-07 -2.47672e-08 -1.50732e-07 7.67759e-07 5.09512e-07 -8.94081e-07 -1.87759e-06 
5.72226e-07 -2.53162e-06 6.86404e-07 -2.2179e-07 -2.98273e-06 1.80069e-06 1.08475e-06 -3.89425e-06 2.39754e-06 
2.35095e-06 -1.93452e-06 1.51636e-06 1.05382e-06 -2.19607e-06 2.32051e-06 -1.51112e-06 -9.16339e-07 1.01e-06 
2.01713e-06 -2.97668e-07 1.40406e-06 9.82149e-07 1.88132e-06 -1.09508e-06 -2.40136e-06 3.13161e-07 -1.27281e-06 
6.0545e-07 1.82012e-07 1.18662e-06 -2.48569e-06 1.86221e-06 -1.02775e-06 -3.04764e-06 -1.07506e-05 1.04573e-05 
-9.72412e-07 -7.38933e-05 1.95732e-05 -1.75928e-05 2.28954e-05 7.32062e-06 -3.00813e-05 3.55742e-05 -0.0131774 
0.000116072 3.28808e-05 -3.31251e-05 -4.67243e-05 6.19756e-05 2.94741e-06 -3.93706e-06 1.02983e-05 1.59725e-05 
-2.06387e-05 -2.53709e-06 2.28554e-05 -1.21301e-05 2.5255e-05 -8.47691e-06 1.90552e-06 2.48048e-05 3.57033e-06 
8.70807e-07 3.79862e-05 5.49286e-06 3.30259e-06 2.76707e-05 -1.53086e-06 -4.40945e-06 -3.79361e-06 -3.03984e-06 
-1.21086e-05 2.69496e-08 -5.51131e-06 1.1984e-05 -1.19523e-05 1.31197e-06 1.17383e-06 -2.47353e-05 3.72712e-06 
-1.13061e-05 3.3851e-05 3.65027e-05 -1.99662e-05 3.06527e-05 -2.57618e-06 -7.00274e-07 4.59445e-06 1.27273e-06 
4.24157e-06 3.41925e-06 -4.26504e-06 3.28486e-05 6.05409e-05 0.000254118 4.61628e-05 -2.49756e-05 8.90347e-06 
-1.06021e-05 1.00809e-05 6.54908e-06 -5.03758e-06 4.47806e-06 0.000117486 -9.34956e-05 5.35922e-05 -1.03906e-05 
-0.000274183 3.8992e-05 -5.81923e-05 -4.8319e-06 -2.18141e-05 2.05537e-05 -2.26516e-05 -0.000708613 -4.80351e-05 
9.85279e-06 -5.43487e-05 -0.000110565 5.5189e-05 2.30273e-05 -2.97689e-05 -9.62488e-05 2.75228e-05 1.64313e-06 
4.43684e-05 5.57415e-05 3.17202e-05 1.85675e-05 3.90044e-06 6.07168e-07 1.97297e-05 1.71413e-05 0.000164666 
0.000205685 4.31552e-05 7.41152e-05 2.74822e-06 5.33933e-05 0.000156556 1.51163e-06 -6.81749e-07 -2.06246e-06 
3.60258e-05 -1.31924e-05 4.23316e-08 -6.01488e-07 -4.78652e-05 3.98485e-05 -4.2766e-05 1.39436e-05 2.75512e-06 
2.68514e-06 -2.4216e-06 -1.73804e-06 -3.46909e-05 -3.66453e-06 -3.34628e-05 2.40247e-06 9.42212e-07 1.85252e-08 
-4.52071e-06 1.43135e-05 3.19478e-05 -1.68582e-05 -1.1697e-05 3.00956e-05 4.22343e-06 2.52388e-05 -1.97219e-05 
5.25192e-06 1.82691e-05 -1.51363e-06 5.10341e-05 6.42068e-06 -4.35389e-05 5.86469e-06 -2.124e-05 3.05887e-05 
5.90341e-05 -1.82777e-06 -1.55869e-07 2.72424e-05 5.91897e-05 -2.91689e-05 -1.65546e-05 1.89395e-05 -1.39534e-05 
3.49878e-05 8.99711e-05 -3.45369e-05 5.72267e-06 -3.5943e-05 4.0303e-05 -1.06696e-05 4.77584e-06 1.63962e-06 
3.07255e-06 -1.01767e-05 2.96137e-06 -2.0813e-05 9.0394e-05 -4.57372e-05 -9.16958e-05 -2.33769e-05 -1.52598e-05 
1.33496e-05 -2.29949e-05 -1.39093e-05 -2.68913e-05 -2.37769e-06 -3.54669e-06 -3.26088e-06 -3.25246e-07 -3.67793e-06 
-1.92651e-06 6.83755e-08 -7.44225e-07 1.68353e-06 -2.35241e-06 -7.69922e-07 -1.44772e-06 6.5076e-07 1.74614e-06 
-7.61716e-07 -9.42606e-07 -1.35853e-06 -6.13326e-07 -3.47401e-07 1.84139e-07 1.21835e-07 -8.71995e-07 3.68725e-08 
-6.51002e-07 1.4443e-06 -9.86972e-07 -1.31526e-06 -8.50687e-08 -2.36848e-06 1.18976e-06 3.30081e-07 -9.03007e-06 
3.50612e-06 3.84553e-06 -3.17187e-06 2.83182e-06 -6.70921e-06 -1.56937e-06 -6.84189e-08 4.53123e-07 -3.56287e-06 
2.7215e-06 1.24216e-06 -6.74903e-07 2.16332e-06 7.51412e-07 2.03619e-06 2.36834e-07 1.10338e-06 1.51435e-06 
-8.29162e-07 -1.34582e-06 -5.41033e-07 2.17273e-06 5.14348e-07 1.33784e-06 1.73267e-06 -4.1283e-06 -1.1925e-05 
2.53724e-05 -3.65324e-06 -7.72795e-06 3.1552e-06 4.03119e-07 -4.05371e-07 4.99377e-07 5.00878e-06 3.92358e-05 
-2.42849e-05 6.85047e-05 -1.90559e-05 -2.55468e-05 -1.39173e-05 3.18139e-05 -1.31468e-06 -2.50561e-05 -2.16996e-06 
-2.81915e-05 7.4646e-06 3.36665e-05 2.19604e-05 -1.06964e-05 -1.77101e-05 -2.07938e-05 7.75507e-07 4.42338e-05 
-1.51983e-05 -5.51689e-06 3.77682e-05 1.2415e-05 7.29929e-06 5.22946e-05 8.68646e-06 -1.69304e-05 1.53923e-05 
1.30662e-05 -4.807e-07 4.13646e-05 -1.14078e-05 2.5978e-05 -1.5342e-05 7.31265e-08 -7.3803e-06 2.81788e-05 
3.86194e-05 -4.70912e-06 4.95201e-06 -1.69142e-05 7.9077e-06 -1.19497e-05 1.22634e-05 2.42587e-05 -1.79699e-06 
1.70025e-05 8.30163e-06 6.4785e-06 -5.53369e-06 8.91025e-06 6.74934e-06 -1.58158e-05 -3.50996e-05 -8.84095e-06 
5.74493e-05 -2.21779e-05 -1.20171e-06 -2.22276e-05 1.70229e-05 -2.42587e-05 6.86894e-06 -4.37267e-05 7.07585e-05 
-1.31621e-05 1.90139e-06 9.24971e-06 1.68918e-05 2.19827e-05 1.99155e-05 1.83681e-05 4.62081e-06 2.8877e-06 
1.71307e-06 -1.57491e-05 1.07726e-05 3.15522e-05 1.69703e-05 1.40389e-05 -1.96532e-07 9.17242e-06 1.52665e-05 
5.63268e-06 4.75038e-06 7.64962e-06 -3.34094e-07 2.67984e-06 -2.98042e-05 2.40012e-06 3.39345e-05 2.64337e-05 
-6.42112e-07 2.90663e-06 -2.69867e-05 4.89776e-05 -9.64222e-06 -7.61984e-06 -1.57789e-05 -4.6518e-06 -1.06296e-06 
-6.27312e-05 -4.02286e-06 -7.98179e-06 2.03885e-05 4.75623e-05 6.05285e-05 -1.64341e-05 -3.19134e-05 0.000157889 
5.9226e-06 5.47065e-06 -4.71449e-06 -3.60893e-07 1.03046e-06 -2.03928e-06 1.14766e-06 -1.79545e-06 1.66109e-06 
4.74717e-05 -6.22684e-05 -8.54584e-06 -1.20116e-05 -4.85781e-05 3.90514e-06 2.65612e-05 -1.9517e-05 2.54076e-05 
3.03697e-05 5.37669e-07 -7.41262e-06 -3.12882e-05 -2.0027e-06 5.24885e-06 3.27624e-05 5.41638e-05 -6.1718e-06 
1.16626e-05 1.84133e-05 -4.72263e-05 2.62996e-05 -3.9564e-05 7.67242e-06 -1.18942e-05 -9.16923e-06 -1.77337e-05 
-7.97582e-06 -3.4157e-05 -4.14526e-05 4.63048e-06 -2.57231e-05 1.22269e-05 -6.76386e-05 4.01221e-05 -7.43308e-06 
8.30493e-07 -1.04153e-07 8.74559e-07 3.69921e-06 3.65755e-06 2.24591e-06 2.07383e-07 -3.37541e-06 -1.1392e-06 
-1.95011e-06 -9.00866e-07 -1.83485e-06 -1.07216e-06 9.91131e-07 -1.80042e-06 -1.7425e-06 1.71778e-06 3.63771e-07 
4.76572e-06 -4.62304e-06 4.91694e-08 -2.60852e-06 -9.60277e-06 1.22578e-05 1.28582e-05 -1.69304e-06 4.56349e-06 
-6.42995e-06 -5.19543e-06 -8.18057e-06 -7.56541e-06 -2.49055e-06 5.7952e-06 8.71723e-06 6.43168e-06 2.36634e-06 
-1.62093e-06 1.01402e-05 -4.34273e-06 -9.73543e-06 1.87679e-06 -8.59976e-06 -1.20436e-05 -3.42565e-06 5.06415e-06 
-3.74886e-05 -1.58489e-05 -1.66133e-06 9.85923e-06 -1.56628e-05 4.66327e-07 -4.57104e-05 -1.32751e-05 -2.06419e-06 
-1.84625e-05 -1.73102e-05 3.90217e-05 -1.94863e-05 -1.55567e-05 -1.30725e-05 3.35719e-06 -1.45397e-05 -2.6116e-05 
-8.19867e-05 -5.06552e-05 2.37102e-05 -3.96094e-05 -3.58935e-05 4.80991e-05 -5.06517e-06 3.04533e-05 -1.71626e-05 
-3.31486e-05 -3.60759e-06 -8.03615e-06 -1.90202e-05 2.35488e-06 -1.863e-05 1.33339e-05 1.37592e-06 -3.79267e-05 
-6.5428e-06 -3.75148e-06 2.79111e-05 1.08944e-05 -2.17279e-05 1.93676e-05 -7.37983e-07 3.47676e-05 -1.14213e-05 
-1.05386e-06 -1.49967e-06 2.77377e-07 -3.46533e-06 1.72524e-06 2.71592e-05 -1.77103e-05 2.27761e-05 5.49669e-06 
-1.66387e-05 3.38918e-05 1.96754e-06 -8.14381e-06 -4.08834e-05 5.95775e-06 -8.59753e-06 8.40927e-06 -2.85305e-05 
5.39068e-05 -1.24077e-05 2.86251e-06 5.80541e-06 -1.39904e-05 1.02971e-05 -6.76544e-05 2.27264e-06 -3.06929e-05 
-2.72989e-05 1.67283e-06 -6.64206e-06 -3.98541e-06 8.67888e-07 -3.93751e-06 5.17466e-06 1.62529e-06 -3.89428e-06 
3.23067e-05 -5.60551e-06 2.80904e-05 -3.81581e-06 -1.15279e-06 8.81565e-06 1.77392e-05 -1.13155e-06 -3.27268e-06 
1.01437e-05 -3.96147e-05 6.30767e-06 6.88871e-06 6.98539e-06 2.45942e-05 -1.03441e-05 3.5779e-06 -3.67604e-06 
-1.24746e-06 1.23751e-06 -1.63155e-05 9.20138e-06 1.31664e-05 9.26395e-06 1.37493e-05 -7.01352e-05 4.02842e-05 
-2.60512e-06 -1.05526e-05 -6.59855e-06 1.27248e-06 1.78456e-05 -2.02057e-05 5.75138e-06 -1.80469e-05 3.01675e-05 
-9.80695e-07 1.25191e-06 1.07932e-06 -7.55925e-07 7.98549e-06 -6.90078e-06 -5.75753e-06 -2.01051e-05 1.09963e-05 
-8.06522e-07 1.69233e-05 -1.72468e-05 2.21475e-05 -1.36716e-06 2.99654e-05 6.19521e-06 -2.87535e-05 2.59789e-06 
-1.62941e-05 -5.59457e-06 3.933e-06 -1.96785e-05 1.47761e-05 2.78336e-06 -7.05051e-05 -2.1709e-06 8.2047e-06 
-1.25004e-05 2.69241e-05 -6.15204e-05 -7.84787e-05 1.30777e-06 1.46463e-05 1.76796e-05 3.16193e-05 9.64537e-06 
-9.97662e-06 -1.60654e-05 2.27731e-05 9.09916e-06 -1.50818e-05 -5.64139e-05 1.90754e-05 -3.21266e-05 -3.12196e-05 
6.55399e-06 -1.50832e-06 -5.74846e-06 -1.30247e-07 6.13171e-05 1.05296e-06 5.0736e-05 -2.87838e-05 8.31696e-07 
-2.51668e-06 -7.02585e-06 6.71443e-06 5.37928e-06 -2.76295e-06 -1.64016e-05 -3.10231e-05 -1.08096e-05 3.55387e-05 
9.23314e-05 -4.91329e-05 -9.81122e-06 -6.9624e-07 1.32328e-05 2.75367e-05 9.59446e-06 1.49059e-05 1.49147e-05 
8.73566e-06 -8.65942e-06 -9.36272e-06 -1.68083e-06 3.73459e-05 9.68121e-07 -3.82485e-06 -1.28492e-05 2.07932e-05 
1.98538e-05 -1.10635e-05 7.15602e-05 2.30368e-06 0.000128252 -5.95898e-05 1.01457e-05 1.62442e-05 1.29185e-05 
8.61491e-06 1.44751e-05 -4.67848e-06 1.15736e-05 -1.2067e-06 -1.11055e-05 -5.33737e-06 1.06037e-06 -2.15205e-06 
4.22879e-05 -7.99081e-05 -6.41461e-06 -9.136e-07 -4.55317e-06 1.8073e-05 5.07789e-06 -7.56799e-06 1.34373e-05 
-4.56289e-07 2.59558e-05 -9.51227e-08 -4.04384e-06 -2.33474e-06 1.4998e-05 -1.69038e-05 1.00979e-05 -3.78794e-05 
-3.97127e-06 4.41206e-06 6.56943e-06 5.49622e-06 -1.14059e-06 8.54967e-06 6.35815e-06 4.36414e-06 -1.66756e-05 
1.92382e-05 6.62851e-06 -1.47475e-07 5.97329e-06 -3.71712e-06 6.52758e-07 2.23568e-06 -2.22112e-06 -6.81798e-06 
-9.82856e-05 -2.70729e-05 1.52658e-05 1.1973e-05 -1.75865e-05 2.74219e-05 -5.19827e-06 -1.10078e-05 3.05657e-06 
5.03635e-05 -1.37802e-05 -1.26414e-06 -1.54703e-05 5.49635e-06 7.48317e-06 -7.21093e-06 -3.75902e-05 6.81349e-06 
2.97445e-06 -1.39737e-05 7.7518e-06 1.67033e-05 3.53252e-07 -6.08781e-05 -9.24397e-06 1.14738e-05 -4.53172e-06 
-6.7384e-06 0.0121009 -4.49722e-06 -4.26477e-06 -1.05726e-05 -4.57691e-06 -2.64435e-06 8.02905e-07 -2.38801e-05 
0.000125653 -1.57891e-05 -1.80694e-05 -6.64083e-06 1.2732e-05 -2.84919e-06 3.86732e-05 -1.95957e-05 1.48118e-05 
-2.25041e-06 -1.06838e-05 -4.96415e-06 -2.77053e-06 -4.14765e-06 3.7875e-06 -2.22349e-05 -9.6453e-06 7.99708e-06 
-4.94554e-06 -3.93882e-06 -9.65819e-07 -8.68462e-07 3.61639e-06 -5.42342e-06 1.54587e-05 -1.74799e-05 1.50465e-06 
2.17432e-06 4.09142e-07 0.00758922 -0.00470485 -3.28759e-06 4.24808e-07 9.03312e-06 -5.12096e-06 1.76906e-05 
-1.22515e-05 2.00905e-05 -1.63798e-05 4.39643e-06 -3.03992e-06 -4.53569e-05 -8.32335e-05 2.83358e-05 4.07559e-05 
1.05693e-05 -6.76269e-05 3.26167e-05 -7.6003e-05 -7.97454e-05 -0.00015454 2.17942e-05 0.000109409 -2.84081e-05 
-0.000122609 0.00290845 -1.90525e-05 -5.29092e-05 -5.3329e-05 -0.000115352 0.000110055 -9.70595e-05 -3.20773e-05 
-2.59177e-05 7.86882e-05 -8.75125e-05 1.34511e-05 -7.01793e-05 -2.58489e-05 6.8483e-05 8.77398e-05 6.01593e-05 
-2.86576e-05 -3.20036e-05 3.83176e-05 -9.03606e-05 6.88839e-05 -3.79828e-05 0.000739997 5.86872e-07 1.91436e-06 
-0.0123315 0.00634057 -0.000908701 -0.000661135 -0.000248438 -0.000122108 -6.06481e-05 -1.6987e-05 -4.93771e-05 
-1.00162e-05 -5.114e-05 4.97193e-06 -3.68048e-05 1.41003e-05 -2.53678e-05 1.85689e-05 -1.17971e-05 -1.62696e-06 
-1.42255e-05 -7.62935e-07 -1.76369e-05 1.15943e-05 -1.3657e-05 1.31947e-05 -2.16414e-06 -3.15301e-06 -4.25795e-06 
5.41057e-06 -7.36047e-06 1.05314e-05 -4.98259e-06 1.13719e-05 -9.5305e-07 3.7193e-06 -2.59952e-06 5.13623e-06 
-1.22016e-06 5.41685e-06 -4.95554e-07 4.28918e-06 1.91393e-06 -3.17764e-06 5.77486e-06 2.91779e-06 5.0779e-06 
-1.34021e-06 2.85094e-07 -5.0404e-07 2.6399e-06 -2.98001e-06 1.72003e-06 -4.36749e-06 -1.33246e-06 1.93798e-06 
-4.46429e-06 -2.31875e-06 -1.26009e-06 -7.37025e-07 2.21289e-08 -2.03139e-07 -6.82746e-07 9.31225e-07 3.9621e-07 
1.43858e-06 7.68297e-07 1.76152e-06 -3.23452e-06 1.42946e-07 2.74848e-06 -4.78179e-06 -1.74891e-06 -1.02063e-06 
-6.58232e-05 -2.44428e-06 4.93685e-06 6.9147e-06 7.56859e-06 3.04887e-06 -2.34106e-06 -1.38039e-06 -1.03059e-05 
-1.69994e-05 -3.57718e-06 2.5375e-06 1.08899e-06 1.15895e-06 3.05515e-06 3.38347e-06 3.62555e-06 4.35057e-06 
4.53035e-06 8.86064e-06 2.23724e-06 2.50846e-06 3.37084e-06 5.06857e-06 1.07828e-05 1.17265e-05 1.43337e-05 
1.43073e-05 5.59522e-06 5.86037e-06 5.89208e-06 6.74324e-06 1.77009e-05 8.10571e-06 1.2309e-05 -1.33315e-06 
7.21828e-06 4.93097e-06 4.73299e-06 3.05236e-06 -3.86947e-06 -7.0673e-06 -7.56319e-06 -9.80715e-06 2.27466e-06 
2.19164e-06 2.34742e-06 3.03805e-06 -3.93792e-06 1.70463e-05 2.2914e-05 9.92844e-06 3.60252e-06 1.33379e-06 
1.3006e-05 5.20386e-06 -7.34531e-06 -0.0328649 0.00344803 0.000871856 -0.0046551 -0.000623971 -0.00309725 
-0.000826161 -0.0014994 -0.00211638 -0.00161579 -0.00297825 0.000438472 0.000596354 0.000735115 -0.00184801 
-0.000568783 1.84626e-05 0.000810128 -0.000380035 -0.00298941 -0.0031904 0.00126353 0.0220908 0.0371726 
0.00390113 0.00571884 0.0020915 0.00361999 0.00142148 0.00155923 0.0024574 0.00161896 -0.000636715 
0.00132613 0.000716925 -0.00467946 0.00214814 -0.00112678 0.000696308 0.0017975 -0.00179863 0.000891813 
-0.00301542 -0.0114929 -0.00131111 -0.0257306 -0.0158633 -0.00266456 -0.00914303 -0.00342919 -0.00566998 
-0.00375441 -0.00431801 -0.00137304 -0.00161326 -8.10394e-05 0.00369868 0.00349255 0.00340655 0.0042404 
0.00139141 0.00708849 0.00499762 0.00199672 0.00594945 0.000535102 0.00227341 -0.00849753 -0.017453 
0.00756523 -0.00984913 -0.00940648 -0.0100595 -1.20429e-06 -8.54278e-07 3.89453e-07 -1.253e-07 -0.0085169 
-0.00872795 -0.00687522 0.00452791 0.00579678 0.0368755 0.00234562 0.00500856 -0.00697727 2.25188e-05 
1.85391e-05 4.95943e-07 0.0236265 0.00590098 0.0140845 0.00544917 0.0157273 -0.0124757 -0.0114976 
0.0177171 0.0241372 6.40958e-05 -7.66554e-05 -6.63627e-06 4.84962e-05 -0.00356833 0.00291159 0.00132275 
0.00647229 -0.00106224 -0.00788373 -0.000388675 -0.00596931 0.00415977 1.8147e-05 -2.02865e-05 3.2846e-05 
2.61445e-05 9.22384e-05 -2.89554e-05 -3.32786e-05 0.000147221 8.71131e-05 -0.000104809 6.8831e-05 0.000102856 
-1.8136e-05 8.02395e-05 -9.06184e-05 -1.1013e-06 3.9759e-06 8.96627e-07 -5.079e-06 -1.71192e-05 3.86814e-06 
1.14222e-05 6.53778e-06 -1.25821e-05 -3.96298e-05 6.9661e-05 2.94785e-05 -3.38098e-05 1.26319e-05 8.62162e-06 
-3.45065e-06 -3.13029e-06 5.1055e-06 9.79194e-06 -1.89569e-05 1.24984e-06 2.15904e-06 3.25501e-07 3.09006e-07 
7.54907e-06 8.10624e-06 -1.39529e-05 -2.32229e-05 -1.71137e-05 -1.43804e-06 1.0555e-06 -1.56344e-07 -5.00279e-05 
-6.14846e-05 -2.70342e-06 2.18935e-06 1.59222e-06 4.83492e-06 -0.000580553 -0.000452757 0.000372376 0.00609009 
-1.14328e-05 4.79641e-06 -1.14143e-05 1.8195e-06 -5.49898e-06 -8.25787e-06 0.000384751 0.000796332 -8.77206e-06 
-0.000602022 0.000493081 -0.00622411 0.00191734 7.80114e-07 1.84728e-06 4.22482e-06 -8.74458e-06 9.11491e-06 
1.2427e-05 -2.05107e-06 -3.0803e-06 4.05344e-06 5.83416e-06 8.33319e-05 -8.28902e-05 2.13253e-05 -7.4298e-05 
-3.23431e-06 -9.84733e-07 -4.62411e-06 4.38218e-06 4.58871e-06 -2.09366e-05 0.000325753 -6.64674e-05 -0.00338028 
2.2348e-06 -2.33993e-06 -2.35331e-05 -2.86899e-05 2.25593e-05 -1.12996e-05 0.000527489 -1.58961e-06 2.10876e-06 
-2.48971e-06 1.73554e-07 1.03355e-06 -9.90975e-07 0.000126006 -4.97788e-05 0.00010843 3.59888e-05 -7.27875e-07 
-1.38766e-06 -7.34996e-07 5.03099e-07 5.07858e-06 5.10839e-07 -1.07669e-06 3.64788e-07 7.65365e-06 9.00149e-05 
-6.98026e-05 -3.54875e-05 2.05899e-06 1.99316e-06 -1.15598e-06 -1.37573e-06 2.63541e-06 -6.71788e-06 4.51149e-06 
-3.29865e-06 2.96147e-06 6.30286e-06 4.33098e-06 -1.67931e-06 -2.37511e-06 -2.27737e-09 -2.368e-06 -1.23267e-07 
-7.69755e-07 4.12657e-07 -4.60604e-07 -9.45564e-05 0.000142236 -0.000196403 -5.61297e-05 0.000220393 0.000687387 
0.00271209 4.05048e-06 -7.45009e-06 3.88554e-06 0.00170873 0.00260873 -0.00238878 0.000402275 5.61558e-07 
-2.62711e-07 -1.17656e-06 3.62607e-06 8.18801e-06 1.63924e-06 -2.66076e-06 -3.37611e-05 -2.45611e-05 -3.14636e-05 
2.41727e-05 -3.98686e-06 -1.26367e-05 2.56712e-06 -1.85608e-06 0.00491068 1.28062e-06 -5.93515e-06 -2.66599e-06 
-5.34705e-07 2.25087e-06 5.49268e-06 -1.57421e-06 1.35555e-06 0.000722882 0.000227595 -0.00228346 -0.00105991 
-1.26356e-06 1.03203e-06 -3.35356e-06 2.12766e-06 -1.69783e-06 9.55689e-07 3.04967e-06 -0.000620299 -2.05535e-06 
8.94182e-06 -3.1462e-05 5.90333e-06 -6.60291e-06 2.62665e-06 -7.20414e-05 3.51612e-05 -0.000116347 2.68367e-06 
2.76674e-06 -1.35363e-06 -0.00411502 -0.00635268 0.00345433 8.287e-07 3.59841e-07 1.87921e-07 4.61337e-07 
-6.02968e-06 2.86321e-06 -0.000623292 3.41604e-05 -0.00517209 0.000420706 9.85893e-05 6.09715e-07 -1.09082e-06 
1.67426e-06 -2.66648e-07 4.45374e-06 4.51553e-06 7.02327e-07 -1.85074e-06 2.92805e-06 6.83197e-06 -4.48208e-06 
3.34622e-09 3.74051e-06 4.14886e-06 -0.00013878 -0.000391677 0.00637938 2.11343e-06 1.21677e-06 1.95346e-06 
1.6858e-07 -3.41443e-06 -3.76485e-06 -2.13352e-06 -6.95439e-07 3.73828e-06 7.93828e-06 6.76256e-06 -8.46078e-06 
-1.29281e-05 -4.14917e-06 1.83489e-05 2.69921e-05 0.000217227 -0.000162964 9.12091e-06 -2.91058e-05 -7.06035e-06 
-9.98653e-06 -4.2619e-06 2.99086e-05 5.85491e-06 -1.72105e-05 -2.45065e-06 1.94333e-05 -0.00182327 -0.00557699 
3.02256e-05 2.20307e-05 0.000103061 0.000255709 -0.000172794 0.000116483 -7.66839e-07 -2.2856e-06 -2.17296e-05 
-3.4404e-06 4.47904e-07 -3.21012e-06 -4.11028e-06 -2.01881e-05 -5.86421e-06 -8.7617e-06 -3.34544e-06 -6.20614e-06 
0.000120485 -4.41592e-05 -4.96516e-05 7.09221e-05 3.57475e-06 -7.32196e-06 -2.83354e-07 -7.09485e-07 -5.80544e-07 
5.61045e-07 -5.01859e-05 -1.54342e-05 3.42829e-05 -8.64745e-06 -1.02164e-05 -0.00322382 0.00070249 -0.000128331 
-0.00120565 -1.77978e-06 -5.97095e-06 -7.11992e-06 -1.09385e-07 3.91684e-07 8.39427e-08 2.34623e-07 6.67554e-07 
8.32609e-07 0.000123169 0.000132805 0.000340302 -2.69742e-08 8.27899e-07 -6.5578e-05 0.000204287 -0.000273066 
0.000924234 -0.000890324 -0.000950023 -3.14356e-06 -1.29763e-06 -1.09663e-05 0.000574424 -0.00375212 -0.00110914 
0.00618959 -0.000359124 -0.00504568 -1.30836e-05 -1.16286e-05 -1.41023e-05 4.29591e-06 -0.000175436 -6.63085e-05 
-5.30171e-07 -4.41317e-05 0.000128899 0.000132546 -6.73289e-07 1.17148e-06 -1.43861e-06 -4.24643e-07 5.17476e-06 
0.000145132 4.38157e-05 1.84518e-06 -1.77058e-07 1.43028e-06 3.48643e-07 -1.33902e-06 -1.28094e-06 1.30056e-06 
-2.08124e-06 -8.7787e-07 -3.6812e-06 4.07253e-06 -1.00118e-05 -4.96672e-06 3.08404e-05 4.6387e-06 -4.70581e-06 
-6.93019e-06 -7.05668e-06 2.45613e-05 0.000115896 -5.88631e-06 3.0612e-06 2.88661e-06 2.87688e-05 0.000173647 
7.91797e-05 1.83914e-05 5.87374e-05 -8.01804e-06 4.52569e-06 0.00114081 7.9784e-06 -2.8436e-06 -1.37216e-05 
1.93389e-05 -1.30594e-05 1.11259e-05 1.0188e-06 -2.0136e-06 7.77295e-08 -1.90748e-06 -2.79314e-05 2.71182e-05 
-6.64054e-05 -5.36918e-07 -2.06665e-07 0.00707552 -0.00680192 -0.00107566 0.00101328 0.000419544 -0.00187686 
-8.49427e-07 4.45138e-07 4.83129e-06 -1.03848e-07 -9.80906e-06 2.35869e-06 0.00325883 -0.000963309 -0.00240499 
0.00498741 0.000209097 -8.16525e-05 -0.000140505 0.000353494 0.000284531 -6.6709e-07 6.49734e-07 1.21222e-06 
1.37822e-06 -5.76164e-06 -1.60707e-06 -2.19441e-07 -0.000743654 -0.000823447 -0.00255719 -1.98128e-07 -1.54839e-07 
-2.58822e-06 -1.80903e-06 -1.03568e-05 3.56868e-06 2.91101e-06 7.61304e-07 -6.34981e-07 -6.27215e-09 7.68578e-06 
-7.5564e-06 -3.29692e-06 -5.50318e-06 1.94562e-06 -3.52022e-05 -7.36485e-05 -9.37421e-05 0.000238259 -0.000146796 
1.18095e-06 -8.50773e-07 2.10192e-06 -2.10984e-07 -0.000854069 0.000383305 0.00381156 1.21621e-06 6.02991e-07 
2.11381e-06 5.16491e-06 9.08486e-07 -5.13843e-06 -5.8003e-06 2.79935e-06 -1.00452e-05 1.06949e-05 0.00506598 
0.000893178 -0.00677522 0.00348031 -0.000579747 3.55473e-06 -3.01003e-05 -1.06403e-06 -8.99612e-06 0.00588207 
-0.00473748 -0.000146161 3.01903e-06 -2.14712e-06 3.19233e-06 2.56352e-06 -9.50981e-06 -1.84562e-06 -1.2281e-05 
-4.52758e-05 9.77026e-06 3.93767e-05 -0.000513163 -0.000151806 -0.000943933 -0.00332506 7.33571e-05 0.00042989 
-0.0001559 -0.00413408 0.00311408 1.45685e-05 0.00321979 0.000545455 2.14588e-05 0.000127819 6.0346e-06 
-9.37308e-06 1.68337e-06 1.48598e-05 -2.08973e-06 -5.75592e-07 0.000137185 9.27445e-06 -7.84159e-07 -3.77321e-05 
0.000117816 -0.000122269 6.31395e-06 -2.60186e-06 5.1666e-06 -2.5977e-06 -4.6345e-06 2.12558e-05 -0.000128624 
2.97913e-07 -1.89711e-07 -7.60537e-07 9.31874e-05 -3.29764e-05 -6.59513e-05 -5.39534e-06 3.17057e-06 -5.42909e-06 
2.05654e-06 -5.07167e-06 -6.13387e-06 -0.000121936 -9.17383e-05 0.000484891 -0.00637089 3.69985e-06 9.15862e-06 
-2.0381e-06 -1.01901e-05 -3.99423e-06 -5.13748e-06 1.26675e-07 1.2918e-06 -6.96322e-07 3.60768e-06 1.31282e-06 
4.32722e-07 -3.88815e-06 6.19955e-06 5.26198e-05 -7.91074e-05 0.00174052 2.82158e-05 7.73298e-06 -2.24257e-06 
4.27235e-07 5.1198e-06 -9.14762e-07 1.68792e-06 8.15581e-07 -6.34403e-07 1.15384e-06 -2.53712e-06 6.4126e-07 
5.03943e-07 4.1638e-06 -6.27221e-06 1.34639e-05 1.18918e-05 3.51231e-05 -3.73111e-06 -3.25419e-06 1.28037e-06 
-9.56448e-06 -1.24405e-07 -6.68812e-06 -5.83749e-07 1.48068e-06 6.90846e-07 1.0368e-06 4.96013e-06 -1.68588e-06 
-0.00854131 -0.00815712 2.89438e-05 -2.48885e-05 9.47424e-05 6.17979e-05 -1.08082e-07 9.73609e-07 1.36848e-07 
-2.09597e-07 -0.00101132 0.000195464 0.000330584 -4.25526e-06 2.38057e-06 -4.37709e-07 0.000186505 -1.23684e-05 
1.26241e-05 8.18034e-06 5.9901e-07 2.5905e-06 7.6847e-06 -5.25031e-05 2.0594e-05 4.75929e-05 -9.50117e-05 
-0.00025055 -2.1062e-05 -2.03544e-05 7.42347e-05 3.14555e-05 -1.15128e-05 -9.9472e-07 -1.68102e-06 4.27311e-05 
-9.88705e-06 -3.98847e-05 0.000133799 0.00484876 -0.00566694 1.2587e-07 1.28927e-06 1.10815e-07 -8.73124e-06 
-8.72307e-06 5.28238e-06 1.03419e-05 -3.30568e-06 1.33156e-06 -5.62006e-06 2.4318e-06 -0.000158269 -5.04775e-05 
-0.000107903 2.82917e-05 3.1847e-05 -3.49659e-06 1.17733e-05 -4.2468e-08 -9.9373e-06 1.39245e-06 -3.62244e-06 
-2.31917e-06 2.70782e-06 1.95446e-06 4.25656e-06 0.000121088 2.52735e-05 1.55146e-06 -4.66306e-06 5.46239e-06 
-1.67795e-06 5.43085e-07 -3.28101e-07 9.80563e-07 -2.51239e-05 -7.07746e-05 0.000157812 0.00034229 -0.000531802 
0.000417714 -1.64749e-06 1.16649e-06 -2.22253e-05 9.18078e-06 -3.31651e-05 -6.41034e-06 -2.88627e-05 -5.99843e-07 
-5.7072e-06 -4.64268e-06 -3.14457e-05 -1.66162e-05 2.39202e-05 2.34564e-05 -8.0454e-05 6.21126e-05 2.08504e-06 
-1.28841e-05 0.000146777 2.09896e-05 0.000108138 0.000135568 2.70589e-05 2.87458e-05 -1.24066e-05 9.80513e-07 
-6.39634e-06 3.08907e-05 -1.73359e-05 -0.000160476 0.00312611 -9.28751e-05 -2.65048e-05 1.19511e-05 7.88234e-06 
-2.81178e-06 -4.69063e-06 -1.62155e-05 -3.23379e-05 4.12513e-06 0.000118867 -0.0072092 -0.00557724 0.00124235 
-0.00109823 -8.01342e-05 0.000187286 -6.63827e-05 -7.13992e-05 -1.5099e-05 5.28299e-05 -4.59951e-06 1.13728e-05 
2.41792e-06 1.63595e-06 2.5145e-06 -2.55626e-06 -2.97807e-06 3.52846e-06 -2.39512e-06 5.89463e-07 -5.70896e-06 
2.13881e-05 0.00566811 -0.00438214 -6.93759e-06 -3.07821e-06 -2.14251e-05 -0.000146791 -5.69699e-05 0.000269125 
-0.00236238 0.00121652 -0.00368639 4.21973e-06 -8.63635e-08 -0.000347353 8.00679e-05 9.81067e-05 0.000124319 
-0.000101322 -8.36596e-05 3.51503e-05 -8.82658e-08 -1.4832e-06 -1.1385e-06 -2.77349e-05 -2.91668e-05 -2.25303e-06 
2.6577e-06 1.28381e-06 -0.000144829 -0.000165568 0.000786309 3.79708e-05 9.30251e-05 -0.000196192 -3.02653e-06 
1.4281e-06 -1.14795e-05 -8.19356e-06 3.53355e-06 2.24191e-06 3.53795e-06 3.01153e-07 -0.00645395 -0.000169903 
-0.00806371 -0.00536721 -0.000224813 0.000296109 7.05436e-06 -6.41268e-06 1.69318e-05 3.97225e-05 -0.00203788 
0.00285367 0.000154567 1.22066e-05 0.000146561 -8.55501e-05 9.95506e-07 4.79126e-06 3.69572e-06 -4.73257e-06 
-1.76274e-07 7.95186e-06 -3.72404e-06 3.50635e-06 5.12811e-06 2.19836e-05 0.000180912 9.96535e-05 -3.918e-07 
2.04826e-06 -1.34571e-06 1.33139e-07 6.63521e-06 1.23162e-06 -3.74687e-07 -2.62744e-06 -6.6198e-05 -4.72512e-05 
8.80697e-05 3.35294e-07 -2.66508e-06 -9.79135e-05 0.000171771 -6.61018e-05 0.00513162 0.00358323 3.58801e-06 
-1.65502e-05 -5.50802e-07 -8.69354e-05 5.67667e-05 6.62303e-05 -0.00528878 -1.03796e-05 4.89113e-06 -7.44984e-06 
1.5704e-07 3.55587e-07 -2.23336e-06 -3.84676e-06 1.81261e-06 5.67115e-07 5.04132e-06 -5.53722e-05 -3.97103e-06 
7.09707e-07 -3.65337e-06 0.000109773 -6.26826e-06 -5.202e-07 4.21313e-06 4.33104e-05 3.27521e-05 -4.34927e-07 
1.4708e-06 1.36374e-06 -3.10776e-05 0.000139003 -4.61756e-05 -2.89838e-05 -0.000498117 6.05339e-05 -1.96803e-06 
-5.36453e-06 9.47572e-07 -4.01271e-08 -2.11846e-05 -0.000155373 -1.39022e-05 -1.56797e-05 9.72366e-06 9.50392e-06 
-4.63017e-06 -4.37626e-06 -1.5058e-05 6.71816e-05 3.24998e-07 5.39234e-07 1.37317e-05 -3.01497e-05 -2.4922e-05 
-0.000897291 1.71286e-05 5.30402e-05 5.79015e-05 -1.18337e-05 6.489e-05 1.60216e-05 -2.01955e-05 1.82204e-05 
-5.62024e-08 -2.55163e-07 1.36046e-05 -2.71963e-06 8.51535e-06 -1.60098e-05 -7.31711e-05 2.80428e-05 -7.56539e-06 
-1.26855e-06 4.06892e-06 -1.06485e-05 1.60675e-05 -5.27769e-05 -2.28673e-07 4.09669e-05 8.53846e-05 3.10618e-05 
8.5416e-07 5.12449e-06 -2.58547e-06 2.67354e-05 2.16e-05 -8.92772e-05 -0.00071198 2.21791e-05 3.288e-05 
-2.37237e-05 2.77348e-06 5.12671e-06 3.4415e-06 -2.29778e-06 -0.000123196 -6.86446e-05 6.18847e-05 0.000295379 
-1.87151e-05 -1.45007e-06 -1.98826e-06 -3.26621e-05 -0.000192808 -6.20826e-06 -3.67876e-05 0.000460677 0.00641397 
-6.97417e-06 6.90742e-05 1.88513e-05 -9.81014e-05 -1.99913e-05 0.00192844 4.85775e-06 -4.29749e-06 -1.45823e-05 
8.55083e-06 0.000103563 -1.31805e-05 1.45655e-06 -1.09214e-05 9.91752e-06 0.00187515 0.000428015 -0.00102151 
0.000287252 0.000470129 7.02015e-05 -4.98471e-05 -4.8066e-05 2.09592e-06 9.96085e-06 -1.54664e-05 1.8699e-05 
-0.00102456 0.00409794 0.00198679 -2.64795e-05 -0.0075116 0.000831756 -3.37484e-05 4.70798e-06 -3.88116e-05 
-2.57551e-05 -0.000100022 -1.06355e-07 -7.23822e-07 3.29654e-06 -5.25031e-06 2.44718e-06 2.18048e-05 -2.76439e-05 
1.41383e-06 -0.00354432 2.03675e-06 -4.23135e-06 -1.01366e-06 5.76206e-06 -4.94148e-06 -4.15813e-06 3.68565e-06 
-9.39633e-07 2.41634e-06 -1.67271e-05 2.58888e-05 2.10934e-06 -4.82682e-06 -4.98584e-06 0.00126015 0.00137611 
-0.00132028 2.56394e-06 -4.90458e-07 7.56538e-06 2.43986e-06 1.48185e-07 -6.69181e-06 -1.68937e-06 -5.77342e-06 
2.80977e-06 4.935e-06 -0.00405049 1.30265e-06 -4.73657e-06 9.5014e-06 -9.02188e-06 5.26425e-06 3.94989e-06 
-1.30841e-06 1.18056e-05 3.69738e-06 -3.57848e-05 -2.74685e-05 7.58398e-06 1.6749e-05 -2.10221e-06 6.49976e-06 
3.29069e-06 -3.90116e-06 -3.76968e-06 -6.39979e-06 -3.16166e-06 3.71716e-05 -6.22485e-07 -5.68087e-06 -1.2054e-05 
-1.39908e-05 1.45738e-05 -2.19173e-06 2.11316e-07 1.18904e-05 -2.92128e-05 -6.51223e-06 -0.00574575 0.00317801 
0.00262504 2.85396e-05 5.6515e-06 1.56219e-05 1.5931e-05 2.34604e-05 -7.1376e-06 9.85367e-07 1.54375e-06 
-6.04643e-07 -1.05991e-05 5.59046e-06 -8.74177e-06 8.24887e-06 -5.67323e-07 -1.34394e-06 2.29858e-08 8.49588e-07 
9.94987e-07 2.23822e-06 -7.31267e-07 -1.09166e-06 2.35273e-06 -1.11361e-05 -8.20446e-06 -8.68297e-06 2.48804e-06 
4.64034e-05 2.62441e-05 -3.52152e-05 3.88078e-06 6.13111e-06 -1.11432e-05 -8.01654e-06 4.66222e-06 -1.36141e-05 
5.53737e-06 1.74125e-06 1.62316e-06 -2.40816e-09 2.64811e-06 -2.82358e-06 1.84324e-05 4.78275e-05 6.80747e-05 
-2.08136e-05 3.34366e-05 1.74586e-05 -5.64494e-05 -6.32877e-07 -2.49065e-06 1.40943e-06 -9.59115e-07 2.38174e-07 
-5.64554e-06 -1.45701e-06 -6.96346e-07 -1.9644e-05 1.7112e-05 5.85174e-06 -2.03975e-07 1.55496e-06 2.67402e-07 
-0.000332802 0.000578786 -0.000148534 -8.15025e-05 3.01149e-06 -1.16685e-05 3.99703e-06 3.18377e-06 -1.17226e-05 
3.68006e-05 -2.0666e-05 1.3304e-05 4.54678e-06 3.34352e-06 -7.56031e-06 7.19523e-06 4.98266e-05 2.88764e-05 
-3.24204e-05 -9.59135e-06 1.72714e-05 7.72423e-06 -5.88934e-05 2.76109e-05 -2.57265e-05 8.56039e-06 -2.41849e-06 
4.18771e-06 -1.49993e-05 1.52092e-05 -1.1882e-06 4.73519e-05 3.9673e-06 8.36409e-06 -3.57284e-05 7.15951e-08 
1.82105e-07 7.12584e-07 -1.25589e-07 -8.47754e-06 2.81938e-05 3.94375e-05 -1.41177e-05 -1.50855e-05 -5.40318e-05 
-7.03415e-06 3.25444e-05 2.76008e-05 -7.61649e-06 0.000264609 -2.93266e-05 -4.26063e-05 -1.51541e-06 -4.02072e-07 
-1.30174e-05 1.15916e-05 1.36713e-05 5.95962e-06 -4.62412e-05 2.36681e-07 1.38963e-05 1.24536e-05 8.39544e-07 
-5.86853e-07 -1.60321e-05 2.08483e-06 -5.07053e-06 -6.57789e-06 2.00235e-05 -1.42658e-05 6.63529e-06 1.41759e-06 
-1.32053e-06 1.13515e-06 0.000164703 2.10413e-05 0.00102696 0.000179212 1.98757e-06 -1.90465e-06 6.11783e-05 
4.83603e-05 -6.2464e-06 1.84488e-07 4.48546e-06 -7.68531e-06 -1.13703e-06 2.81793e-06 2.7044e-07 -5.62542e-06 
-2.29327e-06 5.19028e-06 -2.20092e-06 -3.4784e-08 2.6227e-07 -3.68158e-07 -5.95072e-07 -2.28634e-06 3.71425e-07 
-2.68418e-06 1.75621e-06 -1.27156e-07 0.000322122 -0.000425107 -0.000508561 7.80303e-07 8.91609e-08 2.12817e-05 
3.829e-05 -1.53899e-05 3.90611e-06 6.1261e-05 -0.000231912 3.1563e-05 -1.43429e-05 2.7617e-05 3.91489e-05 
-1.20629e-06 -2.72987e-06 -2.98074e-05 5.35551e-06 0.000909469 3.0954e-05 -3.1884e-05 6.73733e-05 8.61392e-05 
0.000109802 -0.000583529 1.85737e-05 2.04452e-05 5.90076e-05 1.39473e-06 1.21961e-05 1.54814e-05 1.46348e-05 
5.36289e-06 1.5821e-05 2.27226e-05 -7.31315e-07 -5.47541e-07 -1.55565e-06 2.1689e-05 -2.13671e-05 -1.11798e-05 
-2.19477e-05 -1.27483e-05 -6.27614e-06 -7.05154e-06 6.7991e-06 2.94966e-07 -2.15252e-06 4.83298e-05 0.000267816 
-0.00110532 -2.08267e-05 6.4641e-06 -2.69986e-05 4.45556e-05 1.21184e-05 6.33187e-06 -2.61073e-07 7.16483e-07 
-5.47416e-07 2.12113e-05 -2.27182e-05 -7.12944e-07 -1.46254e-06 6.70119e-07 -3.20404e-05 1.10234e-05 -1.40569e-06 
-2.74577e-07 1.04414e-05 -1.06712e-05 5.93504e-06 -2.72497e-06 3.7305e-06 6.01164e-06 -6.50464e-06 -2.05463e-06 
-2.45448e-05 -4.11187e-06 1.55097e-05 -5.69582e-06 1.83927e-06 1.45294e-05 -0.000292517 0.00013086 -0.000690175 
0.000132398 -8.5963e-06 1.04764e-05 1.80178e-05 1.64919e-05 -1.11749e-05 1.46996e-05 -2.2789e-05 -1.05657e-05 
-7.13888e-05 5.52053e-06 -6.77886e-06 1.72793e-05 -1.87524e-05 -2.21779e-05 3.89632e-06 6.04477e-06 6.72092e-05 
-0.000374548 9.16916e-05 -0.000221656 -1.14267e-05 -2.1278e-05 3.77431e-05 3.94507e-05 7.64821e-06 2.2321e-05 
1.19064e-05 -1.27335e-05 -4.05572e-06 4.59225e-06 -2.38233e-05 8.7899e-06 -2.21057e-08 1.8607e-06 1.22091e-08 
-2.06347e-06 1.05968e-06 5.64579e-06 -3.10745e-06 -5.96886e-06 2.9757e-05 -6.01045e-06 2.03149e-05 0.000511401 
6.04941e-06 7.75801e-06 -6.95867e-07 -2.20127e-06 -2.09331e-06 8.50562e-05 -7.43636e-06 2.88558e-06 8.62222e-06 
2.65243e-06 -1.29112e-05 2.81953e-06 -3.90295e-05 -7.50097e-05 2.4194e-05 -3.136e-05 1.73377e-05 -6.21611e-06 
3.61329e-06 4.75759e-06 -4.99537e-06 -0.00186896 0.000916002 -0.000118689 3.69846e-05 -2.06493e-05 -0.00409129 
0.000830452 -0.000655218 2.19987e-05 6.88884e-05 1.8044e-05 1.36209e-05 -1.76752e-05 -1.01738e-05 2.5136e-06 
-1.96295e-05 2.03883e-05 -1.99326e-05 -5.84369e-06 -1.15907e-06 1.9411e-05 -1.46547e-05 -1.08703e-06 2.34291e-05 
-0.000155193 -6.16866e-05 0.000131164 -0.0054461 -3.56897e-06 -1.63385e-05 -2.80368e-06 -3.78343e-06 1.02537e-05 
6.40482e-06 6.11979e-05 -1.03e-05 6.65563e-05 -6.88053e-05 -3.33311e-05 -5.25316e-05 8.16258e-06 5.38719e-05 
-2.69498e-05 -1.87093e-05 -8.95933e-05 2.60347e-05 -3.7474e-06 1.50632e-05 8.56805e-08 -2.85218e-06 -4.06927e-06 
-2.57172e-06 -2.56012e-05 -2.29958e-05 2.16269e-05 6.70285e-06 -8.86718e-06 -8.71903e-06 2.1715e-06 -8.18943e-06 
-1.57438e-05 3.19865e-06 -2.94938e-06 4.03409e-07 2.80339e-07 -3.73506e-05 -6.24591e-05 8.68347e-06 8.49167e-06 
8.91214e-06 -0.000800882 0.000154492 -3.09591e-06 -3.07784e-06 4.51654e-06 5.04726e-07 1.10746e-05 -6.05958e-06 
-3.00967e-05 4.0785e-05 -2.63107e-06 -5.20042e-07 1.30602e-06 7.39335e-07 -6.17199e-07 -6.03811e-08 -3.30359e-06 
-1.34961e-06 -1.1272e-06 -1.58052e-06 8.57437e-05 -3.20996e-05 -8.09059e-05 1.2496e-05 1.32122e-05 -1.86609e-06 
-5.09244e-06 1.38212e-07 1.27148e-06 1.75689e-06 4.36255e-06 1.19239e-06 5.76448e-07 3.06935e-07 -5.62573e-07 
-2.06933e-06 1.79021e-06 -2.38508e-07 -3.27847e-06 -3.23123e-06 -4.76424e-06 -2.78944e-05 1.51918e-05 1.18438e-06 
-7.92977e-06 4.25826e-06 3.36996e-06 -4.77002e-05 0.00023057 0.00115035 0.000642268 -0.0011213 -0.000511949 
0.00201782 2.93658e-07 -1.21037e-05 4.82014e-06 1.31156e-06 6.31318e-07 -1.53528e-05 -2.61752e-05 3.21382e-06 
1.43741e-05 7.91608e-06 -1.29014e-06 -3.6736e-06 -3.6892e-05 -0.000100163 5.65095e-06 -1.06959e-05 -0.000187809 
0.000250253 7.50546e-05 -2.03167e-05 -6.22707e-05 -3.20664e-05 -0.00580581 -0.00136949 -0.00348293 0.00161915 
-4.02139e-06 1.13936e-06 5.198e-05 4.69063e-07 2.00039e-06 1.64482e-06 -7.49967e-07 -1.08293e-06 -1.32073e-06 
2.08819e-06 -4.83248e-06 5.36987e-06 3.77294e-05 -5.107e-06 -3.21212e-05 -1.22288e-06 1.19905e-06 -5.93414e-06 
-1.24273e-05 -3.69418e-05 1.30818e-06 -1.27272e-06 1.17142e-06 1.52456e-07 -1.03914e-06 -1.18893e-06 4.35197e-07 
-1.96972e-07 7.49951e-08 8.38784e-07 -6.98382e-07 -2.35663e-06 -8.38019e-07 1.15911e-07 -1.62652e-05 -3.09908e-05 
-1.53751e-05 -1.58702e-07 8.01402e-07 -9.77842e-07 -2.25763e-06 0.000109154 4.71074e-06 8.37197e-06 6.53316e-07 
0.00590792 0.00717241 -1.33309e-06 1.04185e-06 -0.000300504 2.46618e-05 -0.000151358 -8.92255e-07 5.02285e-07 
-1.80668e-06 -3.31472e-06 -3.24667e-07 2.49689e-06 6.15795e-07 -2.63678e-06 -0.000621818 -0.00134576 -1.18728e-05 
-0.00171528 6.4043e-07 0.000234239 0.000406476 1.64842e-06 2.56318e-06 -7.36136e-05 3.02065e-05 -1.75732e-05 
-0.000812939 -7.59466e-06 -0.000817598 -1.31598e-06 1.17739e-06 -0.000578419 -2.46629e-05 -9.54767e-05 -4.53108e-05 
5.95572e-05 -1.37299e-05 -0.00128298 2.35314e-06 0.000184537 7.7434e-05 -2.99654e-06 -2.12738e-05 1.83783e-05 
-0.000101685 0.000154917 -3.55697e-05 -0.000328455 -6.70418e-06 9.61949e-06 -6.29729e-06 -2.87485e-05 4.19858e-05 
-3.9429e-07 3.32339e-06 2.38823e-07 -8.09517e-05 -2.14666e-06 1.59267e-06 1.7912e-06 3.84922e-06 6.19568e-06 
4.92156e-06 2.36647e-06 0.000104394 7.15404e-05 3.94187e-07 2.73313e-07 -1.8117e-06 0.0074363 2.34733e-05 
-6.03034e-06 3.2398e-06 3.16256e-06 -1.37918e-06 1.84583e-06 -9.21933e-06 -1.30128e-05 3.91481e-05 -4.02573e-06 
6.80664e-06 -3.58436e-06 3.34541e-06 -3.08313e-06 0.00021713 -4.40338e-05 -7.22997e-05 -8.11806e-06 -0.002044 
0.00732669 0.00072581 -7.73382e-08 2.62187e-06 9.96598e-07 -1.34277e-06 0.000512748 3.19205e-06 1.14501e-05 
-1.04701e-05 -1.7441e-05 -1.67249e-06 -6.15626e-08 1.34512e-06 -1.97575e-06 7.2966e-06 -8.04713e-06 8.66826e-06 
0.00356572 -0.000417907 -0.00342815 6.96657e-06 7.74475e-06 1.09652e-06 -9.94575e-07 -0.000605013 0.000593445 
0.000233224 0.000607267 -0.000293045 0.000339352 7.17246e-05 1.29148e-05 -1.54981e-05 -8.09801e-06 0.0116412 
-0.010321 -0.00506509 0.00989696 -0.0051022 -1.34055e-06 1.78149e-06 2.12195e-07 -3.91993e-06 7.9792e-06 
0.000509853 -0.00281354 -2.18242e-05 -9.85289e-05 2.68652e-05 3.83463e-06 4.11155e-06 -9.29985e-06 -3.15708e-06 
-0.00142482 -1.42462e-05 8.65207e-07 -1.2208e-06 3.6399e-06 -1.69266e-06 0.000861109 -0.000153337 0.000282569 
9.5887e-06 -1.31913e-05 -6.85439e-06 0.00452257 0.00121791 -2.46911e-05 6.06012e-05 8.49348e-06 -1.75368e-05 
1.84216e-05 -2.61609e-05 3.41816e-05 -6.54024e-05 2.02859e-05 5.35856e-05 -0.000420977 -0.000131916 0.002109 
0.00248252 -3.29284e-05 0.00730633 0.00647295 7.71253e-05 -5.09298e-05 -1.48051e-05 -0.000438809 -3.4308e-05 
0.0012332 -8.34727e-06 9.82789e-06 1.02058e-05 2.04913e-06 1.25182e-07 -2.02948e-07 8.84604e-06 2.3561e-06 
3.03287e-06 4.0671e-06 -4.53803e-06 -1.10273e-06 -2.51452e-08 -0.000132265 5.81071e-06 -2.3237e-07 -1.196e-05 
0.000807569 0.000758019 -2.85229e-07 -2.86404e-08 2.00895e-06 -2.98295e-06 -1.42799e-06 -4.53314e-07 4.01391e-06 
-5.65055e-07 -3.32817e-06 1.18707e-06 -3.7312e-06 1.46582e-06 -3.23072e-06 -5.9623e-06 -2.39566e-05 6.36626e-06 
1.49305e-05 -4.32813e-06 -2.44059e-06 4.99962e-06 8.75431e-06 5.80561e-06 -5.17852e-06 1.74239e-06 -9.44264e-06 
-3.97536e-07 -2.76538e-07 -7.72322e-06 -1.79277e-07 1.23411e-06 2.33069e-06 -1.56788e-06 1.74378e-06 1.99525e-06 
2.67377e-05 6.14736e-07 3.66439e-06 4.78567e-06 -3.53127e-06 -8.31272e-07 -4.96727e-05 -4.06532e-06 0.0029852 
0.00700406 -1.30213e-06 2.17808e-06 2.12548e-07 2.14523e-06 2.08596e-06 2.85006e-06 0.000345286 -1.75107e-05 
-0.00253117 -5.97468e-05 7.44984e-05 -9.69639e-05 -0.000120194 -1.56777e-05 -5.99781e-06 -1.27785e-05 -7.47132e-06 
-3.55632e-06 8.42309e-05 -0.000368352 3.00553e-08 -4.21442e-07 -8.45148e-06 -1.67751e-06 9.57133e-06 -1.29986e-05 
5.15718e-05 6.77199e-05 0.00013981 -5.6345e-05 8.53636e-06 -9.22357e-07 -5.99691e-06 -7.621e-06 2.30509e-06 
6.05792e-06 3.90917e-06 -0.00499755 -2.61584e-06 -4.39651e-06 -5.4016e-05 -1.35977e-05 4.08113e-06 4.01686e-05 
-0.000100612 1.43881e-05 5.47354e-06 1.86729e-05 -4.89971e-06 -0.000411787 -6.26884e-07 -6.16582e-07 4.73308e-05 
-0.000846735 -0.000657089 7.03433e-06 5.68747e-06 -2.0383e-05 6.908e-06 0.00034632 8.88341e-06 -7.75055e-07 
3.61774e-06 -4.58199e-07 -4.0123e-06 9.36002e-08 1.18845e-06 -2.35051e-06 -1.44824e-05 8.8073e-07 2.92446e-06 
4.20089e-06 -1.50595e-06 0.0056542 -0.000348016 -0.000584918 0.000351437 -1.29926e-05 6.32696e-07 3.52377e-07 
-1.25334e-06 3.08359e-05 3.11954e-05 -5.40582e-05 2.79301e-06 4.91383e-06 3.34292e-07 -1.05532e-06 1.14886e-06 
7.38596e-05 0.000166344 -6.63343e-05 -4.46425e-06 -1.336e-06 2.63256e-05 7.98768e-07 -0.000222417 8.01855e-06 
5.96468e-06 8.94161e-06 3.61332e-05 -8.46442e-06 3.86597e-05 -1.12086e-05 -9.40076e-07 3.50848e-08 2.40395e-05 
-2.16943e-05 -0.000120757 0.000143605 -1.52912e-05 1.14201e-05 -1.67756e-05 -3.43696e-05 0.00749018 5.86145e-05 
-0.000107369 0.000210461 -8.8374e-05 1.05932e-06 2.70345e-05 9.80717e-05 7.32222e-05 1.62336e-05 -5.36929e-05 
-1.93631e-06 -0.000810478 -0.0017841 -0.000296529 0.000212125 -3.63319e-05 -1.96929e-05 -0.000345209 -3.00659e-05 
2.31058e-06 1.19702e-06 2.88089e-05 2.61035e-08 -3.86362e-06 -3.08404e-06 9.7632e-07 4.26929e-07 6.22042e-05 
-2.91325e-05 -2.32533e-05 -3.07786e-05 2.33706e-05 -2.11533e-05 3.70096e-05 -2.60554e-05 2.16595e-06 -3.93854e-06 
-1.88201e-06 -3.74938e-06 4.42445e-06 3.11771e-06 0.0014153 -6.09814e-06 -2.43637e-06 5.98271e-06 -4.11204e-08 
-3.77104e-06 -2.79125e-07 2.92002e-06 7.31955e-06 -2.67574e-07 -4.66628e-06 -4.64191e-05 -2.18302e-05 -6.13472e-07 
-1.05249e-06 3.74728e-07 -8.32425e-07 2.38649e-06 -3.17322e-05 1.19133e-05 -3.00958e-05 -2.53594e-06 -1.93538e-06 
-2.27035e-06 -0.001356 -5.30263e-06 -1.33767e-06 -2.46216e-06 3.73668e-06 0.000643189 4.25582e-05 -0.000972153 
-1.06739e-05 3.57568e-05 -1.62475e-06 -7.57022e-06 2.40057e-05 5.478e-06 1.58113e-05 -5.91986e-06 -3.23333e-06 
0.00016406 -0.000185505 -0.000378392 0.00161192 0.00678958 4.22099e-06 -3.48253e-06 5.18301e-07 -7.05398e-07 
-1.55344e-06 -3.59849e-06 2.09448e-05 -3.45086e-05 6.06702e-06 2.50086e-06 3.06196e-06 3.18868e-07 -1.58364e-06 
8.87565e-05 -2.73057e-05 1.89162e-05 -9.74085e-06 -6.68073e-07 2.97948e-05 4.5516e-05 -1.83272e-05 -2.5297e-06 
1.6193e-05 3.61575e-07 0.000482181 -0.000523601 0.00513351 1.03814e-05 -5.40464e-05 -6.72285e-06 -9.00915e-05 
3.39924e-07 -4.99877e-05 3.86279e-05 4.37826e-06 -7.68623e-05 -1.45466e-06 1.47037e-06 -0.00532443 -0.000104238 
0.00516375 1.06527e-07 -4.37618e-06 2.93969e-05 -2.22747e-07 -1.99305e-06 -2.57295e-07 3.63101e-06 3.14334e-07 
4.05748e-06 -1.03378e-05 -1.79735e-05 -9.63285e-06 9.03999e-06 7.47949e-06 1.47468e-05 1.9413e-06 -8.01292e-06 
-1.92643e-05 4.07705e-07 -1.79401e-06 -1.62258e-05 -9.3655e-06 -7.55705e-06 2.73335e-06 3.26268e-06 1.89038e-06 
3.49157e-06 -5.28725e-06 7.1745e-05 -3.66622e-06 -3.15104e-06 2.23441e-06 -4.59137e-08 -1.23185e-05 1.56723e-06 
-2.22524e-05 -1.24592e-06 -6.45618e-07 -2.46488e-07 -0.000207559 7.33594e-07 -3.60979e-05 4.84124e-06 2.84896e-06 
-2.20203e-06 -0.00541577 6.09204e-05 -7.62383e-06 -1.75918e-05 -4.76775e-07 1.50041e-06 0.000405685 0.00310853 
0.00333671 -0.0014392 -0.00145052 3.59024e-08 -2.61764e-07 -6.50195e-05 0.00010237 1.73541e-06 5.57239e-07 
1.2106e-06 -7.49019e-07 -1.50744e-07 6.75407e-07 -1.84792e-06 -9.28505e-08 4.67614e-05 3.25767e-05 0.000922463 
-0.000953056 2.41406e-05 -0.00230973 -1.4422e-07 1.09498e-06 -0.000657998 -0.000237011 4.76498e-07 9.16423e-07 
-1.31029e-05 -6.18785e-08 2.19647e-05 8.04359e-06 5.00436e-05 1.85866e-07 -6.09408e-05 0.000240718 0.000551421 
0.000247494 8.28059e-06 -1.49991e-06 -1.75465e-06 5.10657e-06 1.6428e-05 6.82275e-06 -1.45472e-05 -5.04583e-06 
0.000117176 1.23824e-05 -5.27552e-07 3.59572e-06 0.0041058 0.000475422 -0.000321638 -0.000157118 0.00462384 
2.15963e-06 7.09685e-06 5.14691e-05 -4.26749e-07 8.74524e-06 -1.69946e-06 2.9535e-06 1.40541e-06 -0.00023066 
-0.00399877 2.80847e-07 4.99332e-05 4.15044e-06 -4.79141e-07 -5.50597e-06 2.87192e-05 -3.95518e-05 -6.16683e-07 
5.44944e-06 -2.32776e-05 -1.21654e-05 4.94155e-06 3.20826e-05 4.58562e-06 2.47845e-06 -3.73679e-06 2.81988e-06 
-2.5163e-06 -7.27427e-06 -2.29513e-06 4.1892e-06 -4.65568e-06 2.41526e-05 9.25818e-06 1.02112e-06 -6.53644e-08 
3.02293e-06 3.39613e-07 2.61101e-05 3.78704e-05 -0.000785837 -2.39483e-06 1.69756e-06 -1.07415e-06 -0.000149073 
3.27099e-06 -5.35678e-05 6.6668e-05 0.000123119 -3.94235e-06 8.22353e-07 8.78546e-06 1.59753e-07 -3.44441e-06 
3.65438e-06 -1.51681e-06 -5.75846e-07 3.59996e-06 1.40562e-07 -5.45837e-08 -6.77798e-07 -2.14214e-07 1.48523e-06 
2.3916e-06 2.38956e-05 -4.63727e-05 -9.08827e-06 -6.98328e-06 -2.68851e-05 -0.000524284 -0.000328224 -0.000119488 
-3.74548e-13 -6.37184e-06 -6.55158e-08 -0.00180213 1.66259e-05 1.21433e-05 1.78827e-05 -7.314e-06 2.47095e-05 
-0.000297136 0.000203575 0.000232551 0.00586117 0.000458891 0.00128861 -5.818e-07 0.000406324 -0.00448942 
4.1152e-05 9.86849e-05 2.78384e-05 -9.41969e-06 -2.48572e-05 -8.78456e-06 -2.76291e-06 -2.56071e-06 -1.49895e-06 
-4.70066e-06 2.20074e-06 -1.37377e-06 -3.94417e-06 8.07736e-06 -1.79772e-06 4.84291e-05 0.000122179 -5.66238e-07 
1.3797e-06 -4.27728e-06 2.20931e-06 0.000107646 0.000126869 -3.91173e-06 -0.00249221 -0.00140947 -2.14031e-06 
-1.24969e-06 -8.12553e-06 -0.00109625 0.00151906 8.42848e-06 1.06374e-06 -7.00642e-06 -1.44636e-06 7.2963e-05 
-4.69422e-05 -8.90596e-06 -3.20256e-05 -0.000229512 -0.000104559 -4.74995e-06 9.91423e-06 -1.86256e-05 -8.11602e-07 
8.78748e-06 -9.21104e-05 1.49636e-05 1.06959e-05 1.23016e-05 -1.18367e-07 2.73838e-06 -0.00010166 -1.45582e-06 
-2.61828e-06 1.43174e-06 9.41737e-05 -6.16538e-06 5.47014e-05 2.09154e-05 -9.27423e-07 1.51173e-06 -4.47992e-06 
3.90528e-06 -1.18457e-05 -2.28868e-05 1.16338e-06 1.27022e-06 1.26192e-07 -1.22956e-05 -2.1084e-06 -6.29717e-07 
-3.13882e-06 3.70584e-06 4.7106e-07 7.94799e-06 -6.69537e-06 -0.000448446 -0.000150444 3.51509e-05 6.20931e-07 
2.82741e-06 6.26387e-05 -2.1086e-06 -3.44158e-06 -4.02514e-05 8.14623e-07 -1.4155e-06 -6.15341e-06 1.66061e-05 
1.22837e-05 -7.46982e-06 -1.08316e-05 -1.53604e-05 1.60994e-06 -9.9986e-05 0.000182063 -2.14759e-06 -1.0349e-06 
-4.34863e-07 2.93661e-07 0.00133471 -0.000150824 -0.000103622 5.14957e-05 3.64979e-05 0.00135368 -2.27532e-05 
0.00016675 7.08006e-06 -8.56892e-07 5.85239e-06 2.46775e-05 2.02648e-06 5.23217e-06 -8.18345e-07 -3.07691e-06 
-1.29944e-07 -3.36324e-05 1.2729e-05 -1.34463e-05 -6.71996e-06 3.06495e-05 1.08747e-05 7.05243e-06 3.7891e-06 
-0.00133788 -0.000465643 -7.20723e-05 -3.41479e-05 -4.774e-06 1.22082e-05 -2.99604e-05 4.93703e-05 7.54689e-07 
-2.22918e-08 -4.49018e-07 -9.47759e-07 -6.57284e-06 -2.79402e-06 -4.29163e-07 1.02947e-06 -6.81937e-06 -2.50582e-06 
3.54598e-06 -5.21138e-07 -1.2753e-08 -0.000152431 -1.15212e-05 3.99639e-05 -8.31743e-06 -0.00014226 2.99807e-05 
2.42155e-06 -1.49076e-05 -1.41546e-06 -1.31982e-06 7.36412e-05 -2.20601e-07 -1.93413e-06 -1.2772e-06 1.00868e-05 
-4.07774e-06 -3.08219e-06 -8.96918e-08 2.03226e-05 2.65399e-05 1.79121e-06 1.14357e-05 6.11327e-06 3.32573e-05 
8.02445e-05 0.000361347 -0.000101987 -6.4481e-06 -5.86239e-06 5.71956e-06 3.22923e-06 -7.37667e-07 -3.42742e-06 
1.86741e-06 -2.15961e-08 5.92265e-07 -1.59778e-06 9.06128e-07 -2.25382e-06 -7.43217e-07 -1.28683e-06 1.79556e-05 
1.54494e-05 -2.73683e-05 1.30366e-07 -7.43913e-07 -4.78797e-07 -0.000278931 0.000416402 -0.00258294 -5.38981e-05 
3.19478e-06 0.000504276 5.37685e-07 5.408e-06 8.53793e-05 -2.97385e-06 -0.000122459 0.000149562 2.09661e-06 
-4.50902e-05 0.000732431 -1.72926e-05 -0.00415775 -3.75361e-06 -2.16538e-06 -1.80991e-05 4.62725e-05 -7.79539e-05 
0.00624052 0.000498328 -6.35712e-05 0.000595863 2.07364e-06 -3.29475e-07 -3.3293e-06 -2.31327e-06 3.26627e-06 
-1.52215e-06 -2.27102e-06 -1.64238e-05 3.67041e-06 6.0222e-06 -5.58234e-06 -8.19189e-06 -2.5732e-05 -2.75578e-06 
6.54101e-07 3.36922e-06 4.11548e-05 -3.09595e-06 1.5008e-07 -3.86645e-05 3.04615e-06 -4.10416e-06 0.00359749 
2.39356e-07 -2.06515e-06 6.67363e-05 0.000105666 7.39045e-06 -1.00899e-05 0.00173946 -5.81659e-06 -1.47721e-06 
7.20309e-06 -4.82074e-06 -3.27259e-06 -2.40776e-06 2.51733e-06 -4.92787e-07 2.35617e-05 -1.3836e-05 -2.58691e-06 
5.51613e-05 -2.61418e-05 -1.72692e-05 -8.8065e-06 0.00177739 2.73405e-06 -3.27984e-06 1.13133e-06 -4.55428e-08 
1.0311e-05 -1.31769e-06 2.80219e-05 0.00633317 0.000349562 -0.00448171 5.95043e-06 2.02068e-05 1.86168e-06 
-1.92804e-06 -3.79948e-07 -5.09458e-06 -2.30261e-05 3.08445e-05 -1.40983e-05 5.38616e-05 -6.59027e-06 -2.15883e-05 
0.000959958 9.97272e-06 -3.70638e-05 3.6883e-07 3.23935e-05 7.6449e-05 -5.73179e-07 2.85315e-05 -4.95275e-05 
0.000320725 9.48647e-08 -3.44976e-06 -1.96368e-05 7.54809e-08 -0.0010207 -1.30132e-05 1.41013e-05 -0.00128752 
-2.97878e-07 4.05508e-05 0.00102515 0.000612725 2.24399e-05 1.89833e-05 7.959e-05 -7.43416e-07 6.79312e-06 
0.000718708 -9.30668e-06 1.83734e-06 -0.000190075 -2.73091e-08 5.71775e-07 -4.19042e-07 -0.000154084 9.82141e-06 
3.26929e-06 -3.42744e-05 -4.0186e-05 2.32651e-05 9.38826e-06 0.00341561 -0.000461628 -2.50221e-06 3.9944e-05 
-0.000111834 0.000110865 2.00106e-05 -6.80664e-06 -1.59455e-07 -1.55634e-06 -0.000130537 -2.77749e-05 6.10609e-05 
-4.00682e-05 -0.00552705 2.62512e-05 -6.7067e-06 -0.000908539 3.40552e-05 0.000969103 -3.58692e-06 1.36126e-06 
1.14928e-05 4.41757e-06 -1.4803e-06 -3.50314e-07 2.37429e-06 4.30336e-06 -7.99889e-07 7.39079e-07 2.55744e-07 
-5.68057e-06 -0.000264599 -1.14049e-05 -1.72172e-05 -6.77898e-06 2.3154e-05 5.96246e-06 5.72054e-06 -7.21751e-06 
-0.000288249 0.00112019 1.62428e-06 -1.11108e-05 -2.1967e-05 1.92976e-05 -3.27143e-05 8.96906e-07 5.90132e-06 
0.000218677 6.84113e-08 -4.54485e-07 -5.78776e-06 2.35112e-06 3.5487e-06 4.44797e-06 1.02398e-05 -8.02836e-07 
7.81062e-07 1.28627e-05 -8.99665e-06 4.10356e-05 -2.17561e-05 -0.000292958 2.382e-06 -3.17927e-06 -6.17131e-05 
-1.2686e-05 6.40579e-06 -3.35532e-06 -5.90099e-06 1.20122e-05 1.24514e-07 -2.97723e-05 -3.079e-06 0.000149634 
0.000250398 -0.000147935 -3.88311e-07 7.21832e-05 -3.73406e-06 8.68443e-05 0.00064274 -5.19019e-05 5.05022e-06 
-1.46629e-06 -0.00508216 4.93789e-05 0.000104884 -2.21518e-06 -4.59882e-07 7.99408e-06 -0.000813083 0.00132142 
8.89537e-06 1.1317e-06 4.6167e-05 -4.48309e-06 3.44651e-06 -3.94839e-05 4.23839e-06 0.0012687 0.00186217 
2.91349e-06 -2.39332e-06 4.12625e-05 -2.5139e-05 2.26542e-05 -3.29531e-06 -1.9145e-06 -6.4938e-06 1.56109e-06 
1.47375e-06 -3.4862e-05 5.20709e-06 3.2666e-06 1.31665e-06 -2.68873e-06 -1.62047e-06 1.12599e-06 -2.9512e-05 
-1.45044e-06 -0.000721957 0.000978553 -6.29073e-05 -3.01746e-07 3.08713e-05 -5.91744e-06 -1.46466e-06 0.00339248 
4.44725e-05 -3.4965e-06 3.38912e-06 4.31848e-06 -4.05984e-06 -0.000159539 7.32554e-07 7.39168e-05 4.80703e-05 
-0.00124576 -0.000448515 -1.53599e-05 -8.75967e-05 -8.50888e-05 -0.000332771 0.000102095 -1.65408e-05 6.25063e-05 
7.0365e-06 -2.14339e-06 -2.18731e-06 -9.34044e-06 3.08538e-06 3.49448e-06 -2.12616e-05 3.60978e-06 -1.02592e-06 
5.98221e-06 -6.9202e-06 1.47723e-05 2.05783e-05 5.836e-06 -6.88524e-07 -1.30143e-06 8.59255e-05 -2.45464e-06 
-2.38152e-06 -3.08864e-06 3.75878e-06 1.04794e-05 -3.88699e-06 1.1786e-05 7.43235e-07 1.32005e-06 -6.53428e-06 
1.68601e-06 2.37109e-05 -0.0011642 -1.65909e-06 -1.29735e-06 -6.58847e-05 -0.00486753 -4.74201e-05 1.61052e-05 
4.46093e-05 -4.40138e-05 -0.00022921 -1.2903e-08 -9.56759e-07 -0.000104864 2.8565e-05 -7.06762e-06 5.42308e-06 
5.05845e-07 1.62483e-07 -0.00886147 -2.10149e-06 -0.0007196 -0.000188822 1.32977e-05 1.3144e-06 -1.17759e-06 
7.44115e-05 -0.000796338 -1.94896e-06 1.3862e-06 2.399e-06 4.61656e-06 0.00518095 -8.94233e-06 -0.00605545 
-0.00687741 -6.77783e-06 2.32155e-05 -7.92556e-05 -0.000170542 3.01704e-06 -2.77834e-05 1.28792e-06 -1.4892e-05 
1.55752e-06 -4.10791e-05 5.84936e-05 4.71741e-05 -2.09093e-05 4.18009e-06 1.79476e-05 -1.08263e-05 0.00181074 
9.80814e-06 6.65766e-05 -4.50963e-06 1.64004e-07 -0.000672983 1.37027e-06 4.5691e-07 2.49039e-05 
Stress%20yy%20component 1 9350 double
0.909836 0.706875 0.713742 0.912174 0.333371 0.333349 0.333332 0.333334 0.505416 
0.505551 0.274122 0.286019 0.588852 0.66234 0.439634 0.39851 0.37133 0.345008 
0.32554 0.314652 0.306824 0.306285 0.306386 0.306722 0.302358 0.302966 0.301356 
0.297567 0.300417 0.301106 0.302627 0.306199 0.309703 0.310295 0.31497 0.323142 
0.349084 0.420601 0.389986 0.35711 0.325855 0.325426 0.318138 0.313827 0.311505 
0.317244 0.301554 0.307756 0.308236 0.307847 0.307752 0.318416 0.308704 0.309952 
0.31071 0.310803 0.315678 0.304087 0.311573 0.314914 0.318461 0.31786 0.341079 
0.354623 0.333328 0.333338 0.333338 0.333338 0.333342 0.333344 0.333335 0.333344 
0.333343 0.333334 0.333334 0.333327 0.333316 0.333305 0.333322 0.333279 0.333323 
0.333283 0.333296 0.333324 0.333312 0.333331 0.333342 0.333356 0.333339 0.333377 
0.333335 0.450921 0.343017 0.322061 0.309665 0.302929 0.300139 0.299662 0.300693 
0.302346 0.304748 0.307344 0.31001 0.3128 0.315594 0.318331 0.320943 0.323664 
0.325997 0.32819 0.330275 0.332103 0.333599 0.33497 0.33594 0.336628 0.337056 
0.337145 0.336875 0.336447 0.335804 0.335063 0.334205 0.333476 0.332842 0.33233 
0.331986 0.331868 0.331893 0.332069 0.332332 0.332635 0.332963 0.333224 0.333382 
0.333363 0.333518 0.332719 0.33049 0.327006 0.323204 0.3219 0.325744 0.330264 
0.329005 0.319539 0.304193 0.287251 0.277645 0.284466 0.298383 0.307583 0.309719 
0.306431 0.302205 0.300491 0.304882 0.315559 0.340689 0.403455 0.53414 0.681583 
0.588799 0.699481 0.664976 0.621888 0.533377 0.525332 0.484922 0.42854 0.367452 
0.447206 0.580981 0.625158 0.644377 0.55005 0.550959 0.592445 0.495803 0.505967 
0.536685 0.539166 0.333329 0.333342 0.333344 0.333344 0.333348 0.33335 0.33335 
0.333341 0.333334 0.333323 0.333303 0.333288 0.333269 0.333279 0.333277 0.3333 
0.33331 0.333331 0.333357 0.333372 0.333386 0.333334 0.409135 0.344863 0.316932 
0.305399 0.300871 0.300236 0.301542 0.303901 0.307375 0.310555 0.313981 0.317474 
0.320879 0.324142 0.327099 0.329726 0.332179 0.33413 0.335563 0.336514 0.337044 
0.337098 0.336735 0.335992 0.335015 0.33401 0.333161 0.332451 0.332009 0.331894 
0.332057 0.332406 0.332814 0.333161 0.333367 0.333384 0.33341 0.333123 0.331546 
0.32875 0.325273 0.322377 0.322527 0.327389 0.330616 0.326786 0.316317 0.301389 
0.286498 0.277113 0.286218 0.301844 0.309291 0.308851 0.304674 0.300957 0.30021 
0.302876 0.314548 0.340735 0.475206 0.81349 0.682387 0.736284 0.658676 0.553764 
0.526877 0.549508 0.435317 0.431891 0.397292 0.346682 0.412689 0.476103 0.52226 
0.607607 0.651138 0.640947 0.521592 0.589923 0.620284 0.524477 0.485716 0.333289 
0.333288 0.333286 0.333277 0.333269 0.333267 0.333259 0.333261 0.333276 0.333297 
0.333324 0.333366 0.333415 0.333466 0.333501 0.333526 0.333533 0.333506 0.33346 
0.333413 0.333359 0.333303 0.333248 0.333193 0.333124 0.333027 0.429335 0.362403 
0.340819 0.326313 0.318712 0.314495 0.312647 0.312394 0.312351 0.313279 0.314923 
0.316517 0.318291 0.32021 0.322087 0.324019 0.325927 0.327676 0.329384 0.330875 
0.332166 0.333314 0.33419 0.334855 0.335321 0.33551 0.33552 0.335264 0.334932 
0.334452 0.333924 0.333356 0.332865 0.332445 0.332161 0.331974 0.331958 0.332035 
0.332205 0.332429 0.332689 0.332936 0.333119 0.333252 0.331105 0.329021 0.326232 
0.323459 0.321672 0.320838 0.31798 0.312135 0.303223 0.296734 0.293691 0.297937 
0.307918 0.314126 0.317255 0.317624 0.317538 0.319205 0.325071 0.339674 0.357254 
0.402586 0.354094 0.357678 0.334993 0.320453 0.315803 0.313681 0.313734 0.315364 
0.31149 0.308358 0.30823 0.308127 0.303033 0.307012 0.306771 0.307689 0.30822 
0.313249 0.317646 0.318292 0.316174 0.321798 0.323718 0.343212 0.373425 0.447089 
0.326957 0.293144 0.270976 0.267305 0.26831 0.269178 0.271246 0.27468 0.275566 
0.278164 0.266703 0.366228 0.297328 0.237328 0.23801 0.256097 0.275913 0.295664 
0.314636 0.331358 0.339853 0.352031 0.361571 0.364771 0.332448 0.342685 0.357594 
0.291997 0.302519 0.306844 0.372426 0.333178 0.333133 0.333098 0.333065 0.333039 
0.333046 0.333086 0.333147 0.333265 0.333411 0.333583 0.333784 0.333962 0.334104 
0.33415 0.334119 0.333998 0.333824 0.333564 0.333301 0.333087 0.332907 0.332753 
0.330759 0.357291 0.344581 0.334909 0.328917 0.324537 0.322143 0.320928 0.320459 
0.320605 0.321035 0.321902 0.322945 0.324098 0.325369 0.326707 0.327969 0.329187 
0.330334 0.331347 0.332236 0.333021 0.33358 0.334015 0.334266 0.334322 0.334224 
0.334009 0.33368 0.333331 0.332963 0.332588 0.332257 0.332009 0.331845 0.331804 
0.33188 0.332012 0.332227 0.332465 0.332719 0.332949 0.333158 0.367541 0.373141 
0.328528 0.325681 0.321062 0.316844 0.312776 0.306606 0.29864 0.321781 0.326534 
0.327178 0.326986 0.327439 0.329477 0.333614 0.339524 0.34537 0.321898 0.384473 
0.347526 0.338882 0.330583 0.326225 0.323932 0.31919 0.317612 0.319196 0.317823 
0.317216 0.317143 0.316645 0.316893 0.317972 0.318981 0.320375 0.320297 0.323033 
0.328384 0.332938 0.3397 0.353443 0.342271 0.311962 0.289708 0.287918 0.285906 
0.284333 0.288158 0.287498 0.290955 0.284244 0.350988 0.309238 0.281454 0.343319 
0.332224 0.321815 0.378406 0.300401 0.289651 0.295633 0.277816 0.296012 0.333014 
0.354787 0.342108 0.36278 0.33864 0.305051 0.357951 0.318874 0.33287 0.332787 
0.332722 0.332674 0.332705 0.332843 0.33305 0.333331 0.33368 0.334121 0.33458 
0.334962 0.335147 0.335163 0.335059 0.334713 0.33417 0.333537 0.332993 0.332633 
0.328982 0.332961 0.343956 0.33844 0.334473 0.33102 0.328812 0.327387 0.326599 
0.326209 0.326097 0.326352 0.32677 0.327385 0.328081 0.328885 0.329661 0.330412 
0.331115 0.331708 0.332257 0.332734 0.333067 0.33327 0.333346 0.333299 0.333153 
0.332915 0.332604 0.332319 0.332028 0.331756 0.331559 0.33146 0.33144 0.331533 
0.331705 0.331939 0.332211 0.332502 0.332764 0.330736 0.311047 0.325232 0.342051 
0.354957 0.354205 0.335636 0.337487 0.339616 0.341067 0.301152 0.306454 0.308512 
0.352345 0.345313 0.337195 0.333521 0.329385 0.325305 0.32362 0.323009 0.322532 
0.321768 0.321238 0.320918 0.321103 0.321805 0.322811 0.324013 0.325185 0.327577 
0.331111 0.336384 0.342898 0.335401 0.349598 0.31312 0.296927 0.303239 0.297537 
0.337905 0.332591 0.317576 0.307986 0.339118 0.365194 0.299535 0.325212 0.344003 
0.334752 0.316472 0.33214 0.355972 0.29476 0.31197 0.322507 0.335277 0.347065 
0.313996 0.353085 0.32189 0.332504 0.332346 0.332202 0.332165 0.33229 0.332586 
0.333063 0.333604 0.334253 0.335139 0.335942 0.336415 0.336602 0.336572 0.336227 
0.335297 0.334052 0.333054 0.33199 0.332285 0.34838 0.339868 0.339788 0.337362 
0.335185 0.333407 0.332152 0.331192 0.330552 0.330154 0.330031 0.33006 0.330207 
0.330409 0.330658 0.330998 0.331332 0.331645 0.331933 0.332203 0.332418 0.332537 
0.33256 0.332489 0.332323 0.332071 0.331763 0.33149 0.331225 0.331017 0.330907 
0.330826 0.330799 0.330958 0.331222 0.331527 0.331905 0.332287 0.330233 0.350798 
0.327576 0.31072 0.322329 0.340471 0.339847 0.338916 0.341287 0.33961 0.336512 
0.331682 0.329289 0.329287 0.328357 0.32724 0.326511 0.326389 0.326438 0.326629 
0.327374 0.328703 0.330085 0.331934 0.334508 0.33818 0.343432 0.302575 0.314467 
0.316847 0.332495 0.312426 0.332608 0.33265 0.339797 0.337124 0.310139 0.350677 
0.342443 0.34844 0.317751 0.341392 0.332947 0.342461 0.340655 0.332692 0.337074 
0.3315 0.331445 0.331766 0.33246 0.333298 0.334599 0.337126 0.337734 0.33847 
0.338276 0.338583 0.334938 0.347374 0.320219 0.340001 0.338801 0.337574 0.336392 
0.335366 0.334486 0.33378 0.333253 0.332861 0.332473 0.332186 0.332026 0.331987 
0.331943 0.331922 0.331933 0.331967 0.332012 0.331999 0.331942 0.331805 0.331579 
0.331271 0.330862 0.330522 0.3303 0.330079 0.329957 0.330098 0.329903 0.330107 
0.330544 0.330997 0.331503 0.332028 0.336382 0.341204 0.345329 0.326619 0.327864 
0.340134 0.338001 0.341882 0.341458 0.334646 0.333801 0.332865 0.331195 0.331421 
0.331688 0.331994 0.331361 0.33293 0.333958 0.335299 0.336865 0.338978 0.323205 
0.331728 0.330072 0.319889 0.333671 0.319227 0.3414 0.337391 0.318277 0.332117 
0.318336 0.343019 0.341545 0.322057 0.337077 0.32368 0.320405 0.342915 0.330474 
0.332748 0.340626 0.327554 0.34202 0.339252 0.338863 0.338197 0.337456 0.336717 
0.336088 0.335457 0.334926 0.334219 0.333394 0.333279 0.332866 0.332439 0.332123 
0.331907 0.331719 0.331512 0.331357 0.331157 0.33088 0.330452 0.329781 0.329297 
0.329066 0.329096 0.328711 0.329021 0.328767 0.329706 0.330328 0.331032 0.339315 
0.34101 0.329466 0.336117 0.335446 0.336512 0.336175 0.336855 0.337576 0.338369 
0.32347 0.332989 0.330752 0.331353 0.340894 0.328239 0.325467 0.330565 0.324206 
0.339487 0.33738 0.341731 0.339221 0.324307 0.327496 0.326185 0.324349 0.340477 
0.326203 0.324693 0.339256 0.339498 0.339267 0.338843 0.338317 0.337626 0.336884 
0.336025 0.334819 0.333952 0.333069 0.332335 0.331825 0.331466 0.330893 0.330491 
0.33044 0.329961 0.329733 0.328725 0.32735 0.327526 0.327249 0.327388 0.329288 
0.338528 0.336088 0.32337 0.340871 0.341114 0.328565 0.339074 0.339109 0.340095 
0.339108 0.330323 0.335203 0.329148 0.332635 0.340288 0.336558 0.334935 0.33355 
0.33045 0.32827 0.326914 0.340841 0.338831 0.327669 0.339864 0.339825 0.339828 
0.339419 0.338458 0.337855 0.332502 0.331396 0.329398 0.335963 0.333473 0.331825 
0.340487 0.339645 0.333259 0.333272 0.333271 0.333245 0.33323 0.333223 0.333235 
0.333267 0.333332 0.333422 0.333513 0.333594 0.333651 0.333648 0.333586 0.333507 
0.333362 0.333232 0.333109 0.333006 0.333063 0.38327 0.360189 0.334845 0.321918 
0.315757 0.3135 0.313237 0.314436 0.316071 0.3177 0.319844 0.322218 0.324541 
0.326647 0.328853 0.3307 0.332287 0.333591 0.334533 0.335147 0.335373 0.335272 
0.334893 0.334358 0.333727 0.333076 0.332545 0.332159 0.331998 0.332025 0.332214 
0.332506 0.33282 0.333075 0.332672 0.331805 0.330343 0.328104 0.325529 0.320369 
0.318912 0.315096 0.309179 0.301547 0.293755 0.300318 0.312127 0.316734 0.317671 
0.317491 0.317283 0.318893 0.323644 0.336607 0.358581 0.38622 0.395179 0.342869 
0.336482 0.326836 0.321663 0.317594 0.302457 0.314684 0.313073 0.312272 0.314081 
0.314438 0.315075 0.315616 0.314942 0.303712 0.319612 0.32445 0.335123 0.338398 
0.479102 0.346938 0.291341 0.276551 0.26848 0.266985 0.269466 0.271672 0.273481 
0.276926 0.278179 0.2676 0.388581 0.283756 0.235257 0.239574 0.258198 0.277811 
0.296659 0.311989 0.325773 0.345519 0.354333 0.36327 0.36407 0.323444 0.294529 
0.349417 0.36029 0.37453 0.288549 0.299374 0.294514 0.333131 0.333085 0.332954 
0.332898 0.332902 0.333015 0.333219 0.333529 0.333858 0.334247 0.334541 0.334641 
0.334533 0.334185 0.333733 0.333222 0.332754 0.332276 0.332054 0.302134 0.338605 
0.35057 0.36104 0.330201 0.324819 0.322821 0.32233 0.32205 0.322583 0.323572 
0.324678 0.325883 0.327343 0.32879 0.330188 0.331339 0.332363 0.333161 0.333716 
0.334034 0.33406 0.333872 0.333562 0.333085 0.332604 0.332235 0.331933 0.331796 
0.331832 0.331982 0.33223 0.332545 0.332833 0.330413 0.319331 0.327634 0.310284 
0.314494 0.29588 0.329756 0.329597 0.327121 0.327935 0.330047 0.333083 0.339896 
0.348202 0.352702 0.309632 0.382861 0.338314 0.331399 0.325845 0.321784 0.319764 
0.319424 0.319523 0.318687 0.318426 0.319165 0.320547 0.320909 0.321954 0.3245 
0.328349 0.334678 0.345223 0.393535 0.278612 0.30525 0.295248 0.286774 0.288812 
0.288284 0.290305 0.323946 0.294188 0.286038 0.277776 0.334346 0.322611 0.348937 
0.343661 0.333045 0.327838 0.314468 0.339301 0.297439 0.351988 0.336292 0.357054 
0.327238 0.310425 0.305858 0.355505 0.35631 0.286737 0.284776 0.326284 0.314067 
0.332482 0.332443 0.332803 0.333365 0.334077 0.334933 0.335691 0.336158 0.33611 
0.33565 0.334721 0.333596 0.332724 0.33168 0.30813 0.332886 0.369642 0.339236 
0.348788 0.329422 0.328346 0.327757 0.327625 0.327857 0.328338 0.328915 0.32965 
0.330411 0.331126 0.331778 0.332325 0.332762 0.333022 0.333103 0.333003 0.332742 
0.332362 0.331971 0.331626 0.331386 0.331312 0.3314 0.331606 0.331882 0.33222 
0.33069 0.330877 0.330361 0.332377 0.337645 0.336325 0.335404 0.339495 0.342091 
0.339832 0.327887 0.325958 0.324113 0.32301 0.322643 0.322696 0.32315 0.323943 
0.325046 0.326533 0.329057 0.332213 0.3362 0.298478 0.335512 0.30047 0.332083 
0.342126 0.350243 0.33776 0.359127 0.344323 0.344507 0.305315 0.308274 0.334213 
0.316749 0.300897 0.297549 0.32549 0.332627 0.3376 0.311689 0.333391 0.332574 
0.354057 0.313244 0.345843 0.33289 0.341176 0.338489 0.332008 0.33531 0.336804 
0.33803 0.33851 0.3377 0.336981 0.334459 0.332444 0.32222 0.342166 0.332885 
0.334012 0.331545 0.331408 0.331241 0.331216 0.33132 0.331509 0.331752 0.331965 
0.332167 0.332292 0.332306 0.332177 0.331928 0.331579 0.331168 0.330844 0.330593 
0.330531 0.330705 0.331015 0.331408 0.331816 0.316225 0.339924 0.313498 0.337739 
0.339554 0.328577 0.330419 0.332116 0.327938 0.328162 0.328318 0.328988 0.330083 
0.331394 0.333089 0.335503 0.338626 0.333834 0.332679 0.35435 0.342264 0.335403 
0.331985 0.354481 0.344291 0.32177 0.311796 0.342581 0.329614 0.317254 0.340096 
0.336022 0.31547 0.349135 0.332245 0.339824 0.331723 0.309927 0.331709 0.331896 
0.340907 0.339541 0.339486 0.336317 0.333563 0.327513 0.341237 0.339012 0.308929 
0.337731 0.341307 0.318684 0.343989 0.336905 0.34767 0.334056 0.334602 0.332679 
0.332323 0.332146 0.331981 0.331854 0.331749 0.331673 0.331494 0.331179 0.330764 
0.330288 0.329867 0.329548 0.3295 0.329746 0.330233 0.330811 0.331378 0.341631 
0.333321 0.333524 0.337013 0.333218 0.332413 0.332392 0.336496 0.341387 0.333267 
0.333611 0.334362 0.335247 0.336363 0.337895 0.339427 0.334934 0.337901 0.339641 
0.341811 0.342305 0.321879 0.319089 0.323289 0.331364 0.32171 0.335804 0.335835 
0.332243 0.335052 0.341203 0.330797 0.339229 0.342996 0.319355 0.319546 0.346208 
0.330813 0.331077 0.339672 0.332038 0.332711 0.325571 0.317289 0.322751 0.333178 
0.339219 0.327185 0.332822 0.333324 0.33168 0.331287 0.330996 0.330691 0.330298 
0.329823 0.329163 0.32871 0.328296 0.328102 0.328464 0.329294 0.330217 0.337177 
0.336864 0.336793 0.329132 0.321063 0.340037 0.341231 0.337831 0.338363 0.338705 
0.33911 0.339421 0.323461 0.324219 0.339125 0.329999 0.3322 0.336733 0.317294 
0.325027 0.33865 0.333419 0.337497 0.334286 0.341561 0.32944 0.323168 0.326329 
0.325972 0.337493 0.325194 0.340048 0.335524 0.337019 0.324739 0.329856 0.33057 
0.328728 0.327386 0.326998 0.325915 0.326862 0.328268 0.329676 0.337647 0.340314 
0.33977 0.324418 0.331447 0.340121 0.329731 0.334019 0.327428 0.34001 0.323705 
0.338941 0.32945 0.328719 0.327081 0.341127 0.327322 0.321966 0.339151 0.3376 
0.332619 0.328622 0.33954 0.327633 0.329563 0.33574 0.335798 0.330792 0.337354 
0.33231 0.333116 0.340355 0.334959 0.339547 0.327186 0.346502 0.280452 0.840208 
0.842047 0.521012 0.385811 0.342357 0.40648 0.396425 0.393041 0.391082 0.315637 
0.387617 0.388245 0.386285 0.393675 0.380657 0.384672 0.384017 0.387177 0.317083 
0.3951 0.400441 0.406782 0.346209 0.405894 0.64562 0.642393 0.386545 0.373468 
0.384657 0.404177 0.401011 0.393179 0.363116 0.309103 0.36018 0.389212 0.38847 
0.387831 0.363484 0.364266 0.389739 0.391396 0.391885 0.35919 0.309452 0.365404 
0.394796 0.397859 0.375263 0.32911 0.351444 0.481129 0.333325 0.33334 0.333343 
0.333348 0.333354 0.333357 0.33335 0.333353 0.333362 0.333358 0.333341 0.333329 
0.333306 0.33329 0.333269 0.333268 0.333263 0.333237 0.333246 0.333276 0.333297 
0.333321 0.333344 0.333367 0.333385 0.333424 0.333473 0.33329 0.583072 0.349733 
0.328969 0.312756 0.304826 0.300797 0.299674 0.29992 0.301278 0.303348 0.305939 
0.308647 0.311446 0.3142 0.316959 0.319626 0.322332 0.324895 0.327151 0.329279 
0.331215 0.332916 0.334375 0.335541 0.336365 0.336908 0.337159 0.33706 0.336723 
0.336174 0.335455 0.334627 0.333815 0.333124 0.332565 0.332124 0.33189 0.331833 
0.331946 0.332186 0.33248 0.332806 0.333116 0.333321 0.333396 0.333349 0.333442 
0.333282 0.331784 0.328835 0.324939 0.322021 0.323549 0.328414 0.331035 0.325632 
0.312135 0.295454 0.280419 0.278179 0.292003 0.304429 0.309704 0.308437 0.304007 
0.300311 0.299933 0.306967 0.321381 0.369321 0.585853 0.616823 0.610097 0.68587 
0.685933 0.674003 0.764823 0.718217 0.565495 0.605553 0.481874 0.447484 0.416847 
0.324023 0.411376 0.587925 0.651473 0.689691 0.715377 0.625525 0.624874 0.60596 
0.511549 0.50439 0.561814 0.568732 0.590542 0.333319 0.33336 0.333353 0.333353 
0.333363 0.333377 0.333374 0.333366 0.333346 0.333341 0.333295 0.333253 0.333192 
0.333191 0.333193 0.333229 0.333269 0.333294 0.333364 0.333418 0.333448 0.333438 
0.333321 0.589571 0.365704 0.322814 0.308948 0.301955 0.299841 0.300566 0.302508 
0.305519 0.308904 0.312229 0.315735 0.319206 0.322559 0.325685 0.328478 0.331048 
0.333244 0.334935 0.33613 0.336883 0.337174 0.337011 0.336418 0.335531 0.334505 
0.33356 0.332755 0.332167 0.3319 0.331932 0.332208 0.33261 0.333005 0.333305 
0.333399 0.333361 0.3334 0.333375 0.332485 0.330247 0.326991 0.323465 0.321877 
0.324495 0.330037 0.330432 0.322753 0.308913 0.293095 0.279063 0.280117 0.294671 
0.306941 0.309834 0.306934 0.302286 0.299391 0.300261 0.304656 0.320787 0.351422 
0.562658 0.623578 0.850454 0.851123 0.689264 0.814951 0.654619 0.618931 0.582368 
0.542799 0.426217 0.436757 0.43627 0.377618 0.418992 0.534376 0.521683 0.581938 
0.615474 0.725522 0.712668 0.598126 0.511399 0.624205 0.60511 0.548122 0.535339 
0.333354 0.333332 0.437283 0.488879 0.264008 0.612184 0.535272 0.532584 0.374464 
0.383187 0.367458 0.3282 0.32903 0.336672 0.338471 0.323432 0.32596 0.323991 
0.319083 0.321844 0.320021 0.29912 0.303674 0.314642 0.320961 0.316175 0.317373 
0.318238 0.312881 0.321397 0.318229 0.314777 0.31854 0.318845 0.317099 0.320561 
0.315982 0.325252 0.316945 0.301453 0.308735 0.319477 0.326825 0.321487 0.325268 
0.329436 0.323922 0.312309 0.32241 0.356541 0.398031 0.309036 0.310094 0.308312 
0.341188 0.333335 0.33331 0.333307 0.333314 0.333306 0.333301 0.333309 0.333302 
0.333301 0.333306 0.333298 0.333303 0.333299 0.333298 0.333294 0.333301 0.333294 
0.333288 0.333298 0.333288 0.333286 0.333298 0.33329 0.333292 0.3333 0.333291 
0.333294 0.333313 0.333316 0.333303 0.333328 0.333327 0.333311 0.333358 0.333352 
0.333342 0.333373 0.333377 0.333363 0.333404 0.333402 0.33339 0.333426 0.33342 
0.333422 0.33342 0.333439 0.333449 0.333447 0.333441 0.33345 0.333426 0.333421 
0.333428 0.333405 0.333405 0.333409 0.333378 0.333362 0.333392 0.333348 0.333346 
0.333374 0.333306 0.333315 0.333322 0.333289 0.333287 0.333299 0.333259 0.333247 
0.333268 0.333228 0.333213 0.333213 0.333178 0.333216 0.333144 0.333324 0.554951 
0.333228 0.400966 0.436732 0.382154 0.359102 0.344486 0.376997 0.334075 0.326267 
0.34659 0.319232 0.315103 0.331628 0.311485 0.309635 0.321384 0.307574 0.307245 
0.315978 0.306497 0.306858 0.312984 0.306747 0.30748 0.312145 0.307453 0.308579 
0.312071 0.309095 0.310336 0.312654 0.311191 0.312471 0.314008 0.313281 0.314664 
0.315662 0.315569 0.316937 0.317376 0.317909 0.319248 0.319227 0.320203 0.321502 
0.32115 0.322481 0.323819 0.323065 0.324762 0.325921 0.325007 0.326813 0.3279 
0.326847 0.328759 0.329784 0.328572 0.330556 0.331466 0.330193 0.332106 0.332836 
0.331569 0.333421 0.334102 0.332805 0.334539 0.335017 0.33383 0.33535 0.335686 
0.334602 0.335921 0.336153 0.335154 0.336241 0.336293 0.335485 0.336282 0.336155 
0.335584 0.336028 0.335829 0.335448 0.33566 0.335357 0.335143 0.335114 0.334755 
0.334716 0.334487 0.334069 0.334194 0.333782 0.333433 0.333632 0.333183 0.332877 
0.333087 0.332666 0.332417 0.332626 0.332262 0.332098 0.332266 0.332 0.331949 
0.332028 0.33194 0.331946 0.331928 0.331985 0.332064 0.331961 0.332149 0.332274 
0.3321 0.332385 0.332532 0.332307 0.332664 0.332818 0.332556 0.332943 0.333066 
0.332822 0.33316 0.333235 0.333046 0.333313 0.333314 0.333199 0.331809 0.33077 
0.329658 0.328074 0.330141 0.326555 0.324851 0.327647 0.323474 0.322862 0.324715 
0.322161 0.323651 0.322452 0.323636 0.325089 0.32135 0.324055 0.322954 0.320135 
0.319931 0.315523 0.315848 0.310791 0.303788 0.308081 0.300343 0.292659 0.299432 
0.29104 0.286724 0.294159 0.288869 0.29196 0.293372 0.297197 0.302702 0.303356 
0.306081 0.310303 0.31186 0.312029 0.313277 0.316318 0.313257 0.312143 0.317685 
0.311735 0.31031 0.317428 0.310676 0.310671 0.317716 0.313091 0.31653 0.320679 
0.32328 0.330964 0.330105 0.33988 0.353149 0.34556 0.374811 0.417651 0.367765 
0.375554 0.360485 0.324882 0.351924 0.327019 0.369279 0.304664 0.306526 0.351889 
0.302703 0.298287 0.334049 0.296045 0.295064 0.324592 0.29104 0.293041 0.321963 
0.294058 0.291044 0.318922 0.305535 0.304004 0.316657 0.281063 0.289597 0.318938 
0.288829 0.288344 0.315875 0.286934 0.28903 0.315379 0.286932 0.29011 0.315166 
0.289911 0.287816 0.316996 0.284015 0.291453 0.314816 0.288467 0.289077 0.317824 
0.28608 0.288827 0.316871 0.28614 0.292081 0.315939 0.28992 0.289681 0.317234 
0.305642 0.305199 0.3183 0.282314 0.295857 0.323268 0.292715 0.298569 0.325767 
0.296781 0.303145 0.325427 0.302009 0.302582 0.32685 0.328726 0.332152 0.338802 
0.339152 0.353661 0.354343 0.516502 0.456657 0.309347 0.335868 0.267214 0.274168 
0.308298 0.25618 0.252082 0.278312 0.257754 0.25053 0.269763 0.26059 0.255265 
0.269772 0.264475 0.259402 0.272127 0.267123 0.261595 0.273528 0.271543 0.268195 
0.276459 0.272041 0.265268 0.280651 0.274442 0.281359 0.277727 0.273142 0.264199 
0.275851 0.260753 0.399529 0.324952 0.254959 0.219293 0.205029 0.222142 0.24651 
0.215834 0.233678 0.241282 0.258312 0.247178 0.269626 0.280097 0.290552 0.302275 
0.288361 0.314981 0.325875 0.308001 0.33534 0.338697 0.346864 0.347573 0.333604 
0.359053 0.362911 0.345897 0.370787 0.369479 0.382212 0.386423 0.363701 0.333321 
0.403278 0.332956 0.332518 0.397156 0.36125 0.417354 0.40112 0.392651 0.34369 
0.281405 0.281594 0.335918 0.290551 0.293287 0.311163 0.312308 0.410691 0.37117 
0.366714 0.323074 0.232977 0.268362 0.361134 0.331873 0.395548 0.291883 0.402504 
0.333231 0.333226 0.333209 0.333191 0.333161 0.33319 0.33317 0.333126 0.333168 
0.33315 0.333096 0.333151 0.333134 0.333067 0.333148 0.333145 0.333065 0.333165 
0.333173 0.333085 0.333205 0.333223 0.333131 0.333275 0.333299 0.33321 0.333355 
0.333405 0.333341 0.333465 0.333524 0.333484 0.33359 0.333663 0.33366 0.333719 
0.333771 0.333827 0.33382 0.333851 0.333979 0.333866 0.33387 0.334064 0.333861 
0.333818 0.334062 0.333794 0.333737 0.334002 0.333677 0.333608 0.333864 0.333514 
0.333454 0.333669 0.333362 0.333283 0.333418 0.333212 0.333148 0.333197 0.333086 
0.333016 0.333013 0.332978 0.332891 0.332866 0.330904 0.329928 0.333257 0.362645 
0.350067 0.344357 0.335992 0.349434 0.331525 0.327648 0.338602 0.324415 0.322063 
0.330871 0.31986 0.318919 0.326013 0.317716 0.317477 0.322803 0.31683 0.316809 
0.321146 0.316567 0.317005 0.320421 0.317031 0.317825 0.320352 0.318048 0.31882 
0.320681 0.319217 0.320135 0.321388 0.320661 0.321621 0.32236 0.322164 0.32309 
0.323481 0.323728 0.3247 0.324707 0.32537 0.326317 0.326043 0.326912 0.327799 
0.327363 0.328412 0.32927 0.328606 0.329836 0.330571 0.329783 0.331081 0.331736 
0.330884 0.332158 0.332743 0.331839 0.33313 0.333573 0.332683 0.333848 0.334181 
0.333353 0.334394 0.334635 0.333855 0.334764 0.334862 0.334201 0.33489 0.33489 
0.334357 0.334835 0.334718 0.334316 0.334605 0.334453 0.334157 0.334289 0.33406 
0.333871 0.333877 0.333629 0.333522 0.333438 0.333166 0.333147 0.33298 0.332743 
0.332762 0.332573 0.332366 0.332398 0.332242 0.332104 0.332104 0.332019 0.33193 
0.331891 0.331915 0.331899 0.331794 0.331942 0.331972 0.331811 0.332041 0.332114 
0.331925 0.332227 0.332329 0.332105 0.332454 0.332574 0.332339 0.332706 0.332818 
0.332594 0.332943 0.333026 0.332841 0.333131 0.333205 0.333063 0.392393 0.364195 
0.345744 0.383451 0.366294 0.363785 0.328688 0.327466 0.325845 0.324605 0.327232 
0.322248 0.321221 0.319344 0.31837 0.319161 0.317035 0.315018 0.315441 0.312181 
0.309406 0.310211 0.305179 0.301449 0.294985 0.294828 0.309885 0.31348 0.317227 
0.319815 0.320545 0.32233 0.327014 0.3219 0.322562 0.322344 0.322917 0.326893 
0.323453 0.325007 0.327973 0.326574 0.330438 0.330766 0.332668 0.340215 0.335658 
0.349073 0.343032 0.348972 0.342304 0.364978 0.322482 0.338562 0.386628 0.416872 
0.335842 0.333081 0.358465 0.339027 0.326072 0.344312 0.324299 0.320069 0.334567 
0.320094 0.316357 0.328062 0.316577 0.31967 0.324562 0.308544 0.301889 0.322023 
0.301737 0.307683 0.319413 0.317191 0.311471 0.318683 0.31275 0.31011 0.317803 
0.311455 0.310398 0.316922 0.311485 0.307637 0.316635 0.302387 0.306709 0.317362 
0.313117 0.307778 0.317956 0.313233 0.309508 0.319127 0.312594 0.311525 0.318311 
0.313805 0.315925 0.319386 0.308289 0.30334 0.320464 0.304312 0.313688 0.322904 
0.325585 0.317441 0.326937 0.327009 0.322034 0.332152 0.331596 0.326148 0.336598 
0.327752 0.337396 0.348781 0.347375 0.352865 0.324462 0.304126 0.313782 0.317259 
0.279582 0.27994 0.278841 0.278542 0.288554 0.277949 0.27794 0.286718 0.277566 
0.277667 0.285313 0.284056 0.28161 0.286579 0.279515 0.284687 0.288022 0.281327 
0.282774 0.289288 0.371154 0.271231 0.282496 0.351085 0.361041 0.302268 0.314414 
0.264827 0.262728 0.34386 0.349045 0.347531 0.332346 0.331665 0.317857 0.327081 
0.315183 0.288508 0.405401 0.37097 0.379507 0.289042 0.297679 0.306924 0.279581 
0.280989 0.293626 0.28921 0.289977 0.263043 0.286049 0.260934 0.269987 0.275837 
0.286015 0.298135 0.301561 0.332053 0.337875 0.327036 0.358314 0.356857 0.354463 
0.333235 0.33322 0.333175 0.329723 0.331474 0.332692 0.332639 0.332739 0.332962 
0.344207 0.363728 0.288493 0.376689 0.372133 0.352302 0.29694 0.323687 0.302638 
0.297088 0.294568 0.325563 0.30117 0.32688 0.362004 0.359089 0.339426 0.278511 
0.299993 0.300408 0.30108 0.360515 0.360288 0.358186 0.294333 0.32876 0.326541 
0.317088 0.315669 0.337793 0.333004 0.332971 0.332951 0.332912 0.332835 0.332901 
0.332859 0.332759 0.332858 0.332845 0.332708 0.332871 0.332883 0.33271 0.332955 
0.333001 0.332791 0.333089 0.333177 0.332966 0.333275 0.333389 0.333191 0.333513 
0.333657 0.333512 0.333819 0.334008 0.333888 0.334165 0.334326 0.334323 0.334455 
0.334592 0.334733 0.334631 0.334675 0.335012 0.334681 0.334658 0.335091 0.334629 
0.334536 0.335046 0.334402 0.334235 0.334844 0.334043 0.333821 0.334409 0.333605 
0.333385 0.333853 0.333177 0.333007 0.333273 0.332881 0.332745 0.332822 0.328599 
0.327354 0.333059 0.333074 0.332958 0.3452 0.339902 0.337282 0.333977 0.340596 
0.332156 0.329787 0.335911 0.328236 0.32677 0.332239 0.325766 0.32503 0.329515 
0.324377 0.324092 0.327746 0.323689 0.323721 0.326761 0.323498 0.323706 0.326192 
0.323666 0.32407 0.32601 0.324202 0.324704 0.326135 0.324893 0.32546 0.326497 
0.32574 0.326379 0.327008 0.326728 0.327406 0.327698 0.327798 0.328431 0.328478 
0.328808 0.329411 0.329279 0.329785 0.330347 0.330045 0.330697 0.331209 0.33077 
0.331505 0.331953 0.33144 0.33222 0.33262 0.332024 0.332845 0.333121 0.332532 
0.333302 0.333504 0.332935 0.333608 0.333746 0.333208 0.333775 0.333817 0.333353 
0.333779 0.333745 0.333365 0.333656 0.333568 0.333254 0.333439 0.333295 0.333053 
0.333129 0.332972 0.332774 0.332814 0.332648 0.332466 0.332492 0.332321 0.332163 
0.332178 0.332029 0.331876 0.331922 0.331804 0.331635 0.331754 0.331666 0.33148 
0.331662 0.331637 0.331416 0.331689 0.331715 0.331461 0.331811 0.331862 0.331597 
0.33199 0.332082 0.331813 0.332229 0.332333 0.332069 0.33249 0.332605 0.332356 
0.332745 0.33285 0.332859 0.332637 0.330642 0.329642 0.314285 0.311459 0.325325 
0.322997 0.327569 0.331548 0.333509 0.358061 0.357501 0.352662 0.363951 0.355762 
0.331459 0.333099 0.333438 0.336148 0.336169 0.336535 0.340031 0.338193 0.340237 
0.343165 0.340231 0.293478 0.298981 0.302214 0.292633 0.303761 0.310133 0.361796 
0.348307 0.34465 0.341911 0.336938 0.333363 0.341555 0.33179 0.329177 0.335448 
0.327443 0.325953 0.33189 0.324047 0.321252 0.327421 0.320359 0.319104 0.324467 
0.319402 0.32033 0.323463 0.320423 0.319603 0.322824 0.319443 0.318954 0.322288 
0.318839 0.318726 0.321638 0.318833 0.317632 0.321146 0.317747 0.31865 0.321025 
0.318941 0.3195 0.321479 0.32022 0.320441 0.322441 0.321098 0.321828 0.323529 
0.322107 0.322065 0.324643 0.322915 0.324358 0.326493 0.326038 0.328615 0.329549 
0.331651 0.334259 0.333945 0.337698 0.340809 0.340102 0.346391 0.331127 0.331638 
0.354584 0.347433 0.346463 0.351649 0.312727 0.316406 0.311418 0.333041 0.291888 
0.29254 0.296325 0.296694 0.299926 0.351128 0.289027 0.29125 0.297815 0.332256 
0.332882 0.336089 0.339731 0.332667 0.338003 0.319093 0.316629 0.314511 0.302523 
0.308775 0.303422 0.340399 0.345128 0.335841 0.332339 0.343011 0.375674 0.373977 
0.358012 0.291993 0.288433 0.296962 0.323279 0.329425 0.32867 0.346211 0.349135 
0.341893 0.330762 0.331571 0.334745 0.31307 0.319347 0.320361 0.350389 0.332546 
0.332437 0.332375 0.329982 0.31153 0.36038 0.358697 0.357541 0.307662 0.308182 
0.332189 0.331515 0.300694 0.297108 0.30446 0.309398 0.308776 0.322189 0.304834 
0.334526 0.317731 0.321946 0.331619 0.302148 0.332923 0.344157 0.335315 0.349382 
0.346136 0.349614 0.35123 0.291231 0.293553 0.292669 0.309732 0.31206 0.315043 
0.346135 0.331377 0.332012 0.351243 0.365482 0.32928 0.318814 0.328858 0.358618 
0.352283 0.289638 0.290471 0.295592 0.331537 0.330626 0.332581 0.332516 0.33248 
0.332423 0.332265 0.332426 0.332423 0.332189 0.332489 0.33257 0.332244 0.3327 
0.332837 0.332466 0.333023 0.333223 0.332844 0.333431 0.333689 0.333338 0.333907 
0.334226 0.333922 0.334579 0.334936 0.334728 0.335217 0.335515 0.335521 0.335675 
0.335832 0.33615 0.335887 0.335905 0.33645 0.335901 0.335821 0.336528 0.33569 
0.335416 0.336326 0.335079 0.334652 0.335721 0.334175 0.333718 0.334715 0.333329 
0.332971 0.333562 0.332563 0.332347 0.332494 0.330406 0.328286 0.33252 0.354143 
0.344074 0.354304 0.337672 0.339122 0.33957 0.337242 0.336281 0.334306 0.338124 
0.333422 0.332141 0.335939 0.331396 0.33058 0.333966 0.329983 0.329512 0.332556 
0.329056 0.328786 0.331442 0.328533 0.328394 0.33069 0.328246 0.328323 0.33022 
0.328278 0.328458 0.329998 0.328452 0.328752 0.329972 0.328822 0.32917 0.330064 
0.329281 0.329674 0.330269 0.329792 0.330167 0.330528 0.330326 0.330699 0.330821 
0.330856 0.331208 0.331159 0.331369 0.331668 0.33149 0.331815 0.33209 0.331802 
0.33222 0.332454 0.332094 0.332546 0.332719 0.332331 0.332778 0.332881 0.332502 
0.332894 0.332939 0.332578 0.332897 0.332883 0.332555 0.332785 0.332733 0.33243 
0.33258 0.332497 0.332209 0.33232 0.332194 0.331923 0.332035 0.331919 0.331625 
0.331765 0.331642 0.331346 0.331523 0.331411 0.331102 0.331341 0.331254 0.330943 
0.331205 0.331165 0.330834 0.33114 0.331132 0.330781 0.33122 0.331254 0.330852 
0.331396 0.331461 0.331073 0.331631 0.331725 0.331369 0.331932 0.332049 0.331719 
0.332254 0.332384 0.332104 0.333936 0.34154 0.327674 0.357282 0.352957 0.326426 
0.33033 0.305863 0.303959 0.31965 0.324007 0.324628 0.340947 0.342814 0.33853 
0.340131 0.339624 0.339092 0.340198 0.339313 0.345187 0.339169 0.345896 0.337158 
0.338037 0.339463 0.334924 0.332973 0.330429 0.328517 0.334079 0.327314 0.326301 
0.330671 0.326496 0.326131 0.329227 0.325741 0.325335 0.328901 0.324839 0.324436 
0.327934 0.324137 0.323832 0.32698 0.323805 0.323689 0.326553 0.323695 0.323773 
0.326551 0.323859 0.324226 0.326654 0.324613 0.325085 0.327135 0.325686 0.32635 
0.328204 0.326877 0.327655 0.329556 0.32843 0.329768 0.331187 0.330836 0.332799 
0.333466 0.334486 0.337167 0.336657 0.3397 0.343264 0.341044 0.296624 0.301613 
0.302833 0.29648 0.310943 0.306712 0.312148 0.312947 0.316892 0.319131 0.305446 
0.332697 0.332634 0.332412 0.342408 0.307431 0.310388 0.313992 0.332513 0.336095 
0.329929 0.332815 0.332746 0.332567 0.332707 0.337612 0.33777 0.337684 0.340589 
0.334901 0.304603 0.305711 0.310404 0.309581 0.353797 0.357508 0.350434 0.343574 
0.340317 0.340625 0.331893 0.327111 0.332289 0.32387 0.346841 0.346057 0.301834 
0.310276 0.311224 0.332576 0.352409 0.352024 0.348219 0.339278 0.315105 0.31235 
0.316089 0.337865 0.345514 0.346299 0.338777 0.338574 0.337102 0.333416 0.340346 
0.339584 0.340362 0.343576 0.341829 0.343643 0.339148 0.339318 0.336852 0.3126 
0.318462 0.430154 0.464826 0.315684 0.331444 0.307348 0.337831 0.318988 0.332477 
0.332258 0.331685 0.332593 0.332888 0.33494 0.335085 0.331875 0.331815 0.331815 
0.331856 0.331467 0.332019 0.33219 0.331637 0.332477 0.332788 0.332143 0.333131 
0.333471 0.332872 0.333998 0.334412 0.333876 0.334926 0.465327 0.336014 0.336614 
0.33591 0.336857 0.337143 0.337549 0.337415 0.337568 0.338034 0.337476 0.337452 
0.338366 0.337578 0.337393 0.338495 0.335215 0.33438 0.333425 0.351112 0.347467 
0.348415 0.316802 0.318691 0.34034 0.338765 0.338379 0.337011 0.339074 0.336643 
0.335556 0.337873 0.335205 0.334415 0.336739 0.333951 0.333381 0.335718 0.332993 
0.332599 0.334755 0.332307 0.332033 0.334 0.331822 0.331699 0.333411 0.331532 
0.331509 0.332963 0.331309 0.331369 0.332581 0.331247 0.331316 0.332266 0.331258 
0.331371 0.332059 0.33135 0.331511 0.331983 0.33148 0.331635 0.33194 0.331629 
0.331781 0.331894 0.331794 0.331936 0.331908 0.331955 0.332086 0.331944 0.332105 
0.332208 0.331989 0.332201 0.332257 0.33201 0.332223 0.332247 0.331973 0.332169 
0.332149 0.331884 0.33202 0.331956 0.331703 0.331779 0.331684 0.331429 0.331443 
0.331337 0.331067 0.331129 0.331029 0.330683 0.330893 0.330787 0.330391 0.33065 
0.330569 0.330155 0.3305 0.330453 0.329994 0.330517 0.330491 0.330014 0.330366 
0.330369 0.329967 0.330477 0.330542 0.32998 0.330767 0.330873 0.330315 0.331119 
0.331248 0.33077 0.331517 0.331684 0.331255 0.331969 0.332147 0.331782 0.338271 
0.335057 0.342153 0.340688 0.340218 0.332386 0.348359 0.348277 0.324677 0.327197 
0.33075 0.331646 0.325469 0.339925 0.340231 0.338797 0.338659 0.339002 0.345676 
0.342328 0.343453 0.340695 0.340829 0.332275 0.332182 0.332065 0.331941 0.331617 
0.330951 0.334293 0.330572 0.329983 0.333562 0.32915 0.32877 0.3321 0.32893 
0.328831 0.331391 0.328989 0.32901 0.331723 0.329159 0.329285 0.332058 0.328908 
0.329297 0.331764 0.33011 0.330738 0.332251 0.331239 0.331919 0.333688 0.332532 
0.333517 0.334833 0.334265 0.335547 0.336367 0.336643 0.338313 0.33825 0.339765 
0.341888 0.344772 0.320401 0.32296 0.324645 0.321372 0.332071 0.331954 0.331595 
0.32894 0.331401 0.328107 0.317358 0.315182 0.333039 0.335493 0.331763 0.316669 
0.316137 0.340489 0.34093 0.340717 0.341321 0.343907 0.343217 0.337597 0.333854 
0.336916 0.336228 0.336211 0.338617 0.315453 0.318789 0.314683 0.336591 0.335557 
0.334355 0.332224 0.333838 0.339046 0.318813 0.314959 0.314185 0.344706 0.34556 
0.342057 0.318509 0.336421 0.342075 0.341074 0.341189 0.319985 0.318366 0.320946 
0.336917 0.338861 0.335275 0.331863 0.340556 0.333176 0.346237 0.393265 0.325408 
0.322471 0.317126 0.319798 0.320973 0.335697 0.337898 0.345075 0.345344 0.343164 
0.330981 0.331137 0.332536 0.333092 0.339105 0.339642 0.339453 0.339867 0.337542 
0.335294 0.333604 0.330089 0.330131 0.340155 0.339363 0.339747 0.341794 0.339333 
0.338424 0.338405 0.337663 0.338867 0.337537 0.336849 0.338381 0.336579 0.33603 
0.337715 0.335727 0.335314 0.336969 0.335062 0.334723 0.33631 0.334467 0.334203 
0.335693 0.333981 0.333741 0.335109 0.333408 0.333235 0.33449 0.332872 0.332731 
0.333748 0.332708 0.332647 0.333343 0.332467 0.332421 0.333042 0.332217 0.33219 
0.332597 0.332041 0.332039 0.332217 0.331945 0.331945 0.331982 0.33186 0.33187 
0.33179 0.33177 0.331764 0.331598 0.331679 0.331654 0.331415 0.331548 0.331493 
0.33124 0.331344 0.331247 0.331014 0.331016 0.330892 0.330664 0.33052 0.330378 
0.330086 0.33008 0.329954 0.329518 0.329797 0.329714 0.329138 0.329713 0.329627 
0.329056 0.329393 0.329344 0.328859 0.329501 0.329566 0.328848 0.329484 0.489031 
0.464903 0.329335 0.329458 0.328865 0.329904 0.330098 0.329282 0.330436 0.330641 
0.330027 0.331015 0.331249 0.33071 0.331607 0.33951 0.338841 0.340087 0.335828 
0.343207 0.34176 0.341313 0.341317 0.342871 0.341438 0.330864 0.328581 0.334333 
0.333597 0.333731 0.531063 0.556027 0.333435 0.333433 0.335925 0.334067 0.334222 
0.336085 0.333977 0.333696 0.33662 0.334475 0.575098 0.52986 0.334894 0.335269 
0.336803 0.335704 0.336243 0.337446 0.336734 0.337447 0.338226 0.338018 0.34256 
0.345537 0.3214 0.320863 0.322782 0.331682 0.333373 0.328852 0.330451 0.331773 
0.331419 0.33125 0.331527 0.331947 0.331978 0.330982 0.33703 0.339708 0.612309 
0.5584 0.317825 0.32601 0.327534 0.329234 0.339132 0.323775 0.322735 0.331071 
0.330968 0.33078 0.339093 0.343626 0.322192 0.321245 0.324773 0.339919 0.341265 
0.338462 0.335072 0.337128 0.335569 0.331612 0.330483 0.341569 0.341671 0.340566 
0.340079 0.322066 0.322489 0.32196 0.323899 0.341442 0.328272 0.327279 0.344807 
0.338645 0.337938 0.339146 0.323612 0.324805 0.326938 0.330473 0.340967 0.322426 
0.325032 0.321683 0.340485 0.338802 0.339069 0.340882 0.333802 0.338753 0.341289 
0.327144 0.330438 0.324244 0.325822 0.326305 0.325752 0.339493 0.339058 0.329953 
0.339376 0.338833 0.339262 0.338937 0.338392 0.339297 0.338275 0.33782 0.33896 
0.337679 0.337231 0.338522 0.336976 0.33657 0.337899 0.336272 0.335934 0.337209 
0.335569 0.335159 0.336412 0.334603 0.334154 0.335319 0.334034 0.703627 0.57911 
0.333631 0.333424 0.334328 0.333011 0.332775 0.333422 0.332423 0.332261 0.332603 
0.332002 0.331879 0.332006 0.331741 0.33161 0.3316 0.331359 0.331215 0.331181 
0.331036 0.330954 0.330628 0.330927 0.330831 0.330438 0.330581 0.330443 0.330187 
0.330319 0.33012 0.329832 0.329616 0.329294 0.329232 0.328576 0.328391 0.328009 
0.328435 0.328358 0.327396 0.328149 0.328215 0.327309 0.328011 0.668547 0.678726 
0.32805 0.328188 0.327205 0.3262 0.324051 0.327383 0.326062 0.329793 0.329291 
0.328519 0.330001 0.33243 0.338809 0.339657 0.322752 0.324286 0.329805 0.334492 
0.33487 0.336448 0.338786 0.32107 0.320891 0.323602 0.673636 0.586823 0.338326 
0.338665 0.340883 0.341184 0.324821 0.341398 0.340725 0.341381 0.339065 0.340678 
0.652824 0.72927 0.328937 0.328097 0.328169 0.329463 0.327069 0.326495 0.323549 
0.33989 0.338219 0.339387 0.337915 0.337414 0.33773 0.338302 0.338146 0.327522 
0.337515 0.337902 0.339288 0.341238 0.325478 0.325873 0.328463 0.329332 0.333164 
0.3341 0.338344 0.342939 0.327027 0.327806 0.329537 0.33064 0.331679 0.333762 
0.339915 0.340363 0.339719 0.331351 0.340244 0.339856 0.325978 0.339204 0.336388 
0.335723 0.334964 0.334492 0.335667 0.333853 0.333346 0.334133 0.331217 0.33102 
0.328494 0.329058 0.326937 0.328334 0.325626 0.325188 0.327762 0.3378 0.337961 
0.337071 0.337035 0.339569 0.340834 0.340699 0.33867 0.339779 0.325762 0.326108 
0.328225 0.327138 0.339451 0.339838 0.339518 0.339431 0.33739 0.340327 0.340624 
0.340854 0.339632 0.339338 0.339814 0.339476 0.339062 0.339791 0.338967 0.338543 
0.339561 0.338108 0.33768 0.338892 0.337437 0.336957 0.337172 0.338138 0.33293 
0.332863 0.332453 0.331941 0.331643 0.331925 0.326807 0.327523 0.330176 0.329966 
0.329576 0.329568 0.32928 0.329129 0.330835 0.327234 0.335513 0.339876 0.340049 
0.335533 0.337094 0.337406 0.33205 0.333089 0.334295 0.333561 0.328854 0.330663 
0.329829 0.331077 0.332545 0.332805 0.330551 0.335451 0.334586 0.326015 0.325857 
0.334421 0.336292 0.340636 0.340105 0.34004 0.340249 0.339905 0.339595 0.339057 
0.338735 0.340048 0.332184 0.331571 0.328229 0.34029 0.338375 0.337646 0.328621 
0.329157 0.329811 0.339255 0.330366 0.340067 0.333339 0.333295 0.333304 0.333302 
0.333302 0.333275 0.333297 0.333305 0.333288 0.333282 0.333296 0.333275 0.333273 
0.333289 0.333259 0.333274 0.333282 0.333254 0.33328 0.33329 0.333252 0.333301 
0.333301 0.33327 0.333334 0.333323 0.333305 0.333378 0.333375 0.333365 0.33342 
0.333411 0.333436 0.333474 0.333461 0.333483 0.333494 0.333482 0.333539 0.333487 
0.333487 0.333552 0.333454 0.333454 0.333543 0.333403 0.333426 0.333487 0.33334 
0.333367 0.333405 0.333279 0.333283 0.333302 0.333218 0.333234 0.333204 0.333172 
0.333183 0.333122 0.333201 0.333187 0.333094 0.333305 0.398713 0.382154 0.413642 
0.340356 0.358642 0.371988 0.320864 0.327809 0.344309 0.311801 0.314691 0.326706 
0.308156 0.308795 0.317669 0.307582 0.307129 0.31417 0.308628 0.307573 0.313043 
0.31089 0.309283 0.313594 0.313332 0.311782 0.315127 0.315818 0.314193 0.316782 
0.31862 0.316921 0.318716 0.321498 0.319854 0.321006 0.324314 0.322692 0.323388 
0.326833 0.325398 0.325615 0.32924 0.32796 0.327804 0.331384 0.330179 0.329825 
0.333158 0.332196 0.331574 0.334526 0.333824 0.333022 0.335474 0.335008 0.334142 
0.33604 0.335788 0.334926 0.336183 0.336144 0.335345 0.335978 0.336144 0.335392 
0.335427 0.335779 0.335146 0.334686 0.335142 0.334661 0.333886 0.334359 0.334051 
0.333139 0.333546 0.333385 0.332528 0.332864 0.332777 0.332119 0.332333 0.332311 
0.331967 0.332034 0.332033 0.332054 0.331982 0.331969 0.332314 0.332157 0.332091 
0.332652 0.332466 0.332346 0.332976 0.332816 0.332668 0.333206 0.333103 0.33296 
0.364651 0.332869 0.333073 0.331641 0.332396 0.332301 0.329561 0.33087 0.331093 
0.326805 0.328377 0.329255 0.324123 0.325417 0.326755 0.32336 0.321912 0.323876 
0.323081 0.319986 0.320158 0.322209 0.318087 0.312589 0.317075 0.312809 0.302611 
0.308662 0.30557 0.293296 0.298172 0.297116 0.292936 0.28955 0.306372 0.299555 
0.3074 0.312589 0.309013 0.315237 0.313208 0.313033 0.317635 0.311443 0.312937 
0.317633 0.309771 0.310915 0.316986 0.310794 0.310243 0.317134 0.315209 0.313081 
0.319912 0.330944 0.321768 0.32745 0.35964 0.340444 0.34311 0.408362 0.371593 
0.367119 0.441809 0.359964 0.371624 0.303128 0.303754 0.374207 0.301905 0.318012 
0.343033 0.293738 0.297391 0.338205 0.291913 0.290438 0.332759 0.299019 0.288948 
0.326289 0.284313 0.283759 0.312224 0.285215 0.297817 0.310078 0.285129 0.284237 
0.322412 0.284736 0.282928 0.320221 0.2909 0.281786 0.32097 0.284009 0.288432 
0.319575 0.284683 0.282178 0.32419 0.287297 0.284414 0.323512 0.299954 0.284948 
0.324466 0.284401 0.282961 0.310643 0.293688 0.300248 0.313609 0.298014 0.291013 
0.331629 0.318678 0.298815 0.335635 0.33106 0.316306 0.336767 0.439529 0.543078 
0.332182 0.3306 0.268789 0.2755 0.299145 0.253663 0.257306 0.279347 0.253749 
0.258236 0.272254 0.253265 0.258625 0.269239 0.257375 0.262758 0.270738 0.261128 
0.268084 0.273104 0.267251 0.272552 0.275229 0.272768 0.276401 0.275436 0.272224 
0.274388 0.277943 0.282178 0.270745 0.274085 0.258168 0.315956 0.447534 0.218567 
0.23877 0.213898 0.192277 0.248572 0.236196 0.216467 0.259806 0.246444 0.249475 
0.284566 0.271975 0.270233 0.307851 0.295309 0.289658 0.321501 0.310492 0.328085 
0.32813 0.319513 0.355285 0.348572 0.362977 0.356651 0.352201 0.378632 0.36767 
0.364331 0.376575 0.374582 0.333313 0.333247 0.333288 0.321742 0.323169 0.323298 
0.297585 0.287299 0.291003 0.294354 0.458329 0.38193 0.399799 0.416899 0.376817 
0.434516 0.334235 0.381811 0.391373 0.367492 0.283586 0.279686 0.234998 0.265749 
0.36265 0.29261 0.296788 0.305161 0.306996 0.337926 0.36336 0.286828 0.330075 
0.333184 0.356475 0.333192 0.333199 0.33318 0.333169 0.333082 0.333117 0.33308 
0.333108 0.333042 0.33307 0.33294 0.333065 0.333059 0.332923 0.33315 0.333114 
0.332979 0.333295 0.333228 0.33313 0.333505 0.333401 0.333372 0.333731 0.33361 
0.333679 0.333969 0.333867 0.334014 0.334146 0.334063 0.334328 0.334175 0.334156 
0.334518 0.33405 0.334124 0.334511 0.333818 0.333937 0.3343 0.333509 0.333673 
0.333923 0.333193 0.333342 0.333464 0.332884 0.333032 0.33301 0.332594 0.3327 
0.33255 0.33257 0.33253 0.332193 0.305481 0.308593 0.33075 0.337948 0.343213 
0.356128 0.343522 0.358957 0.371124 0.351698 0.356146 0.323265 0.32701 0.333767 
0.319352 0.32084 0.326869 0.31817 0.31841 0.32341 0.318478 0.317921 0.322255 
0.319137 0.318329 0.321933 0.320222 0.319421 0.322166 0.321702 0.320704 0.322966 
0.323427 0.322271 0.324061 0.325202 0.324052 0.325237 0.326999 0.325941 0.326606 
0.328786 0.327715 0.328076 0.330403 0.329489 0.329521 0.331792 0.330987 0.330795 
0.332948 0.332296 0.331906 0.333814 0.333343 0.332824 0.334388 0.334083 0.333501 
0.334659 0.334543 0.333938 0.334643 0.334665 0.334098 0.334371 0.334538 0.334016 
0.33396 0.334204 0.333752 0.333413 0.3337 0.333335 0.332852 0.333153 0.332837 
0.332413 0.33266 0.332403 0.332074 0.33226 0.332054 0.33191 0.332002 0.331831 
0.331935 0.331936 0.331778 0.332105 0.332021 0.331878 0.332364 0.332241 0.332088 
0.332676 0.332534 0.332382 0.332943 0.332829 0.332691 0.332963 0.329336 0.330345 
0.31971 0.321607 0.326675 0.327768 0.329121 0.312411 0.314672 0.306633 0.316205 
0.317553 0.317052 0.298791 0.302327 0.298897 0.323235 0.320877 0.320242 0.314833 
0.330086 0.322637 0.32223 0.323179 0.32263 0.327102 0.325383 0.323857 0.32834 
0.329611 0.326557 0.330729 0.339949 0.332379 0.335265 0.354714 0.343485 0.343102 
0.369349 0.355609 0.350939 0.315615 0.303381 0.399846 0.392754 0.326613 0.334971 
0.368535 0.322618 0.32507 0.333535 0.318284 0.320184 0.327715 0.313092 0.312286 
0.32302 0.309019 0.311076 0.321629 0.312765 0.313826 0.3191 0.312531 0.313603 
0.31859 0.313303 0.312696 0.318108 0.308747 0.310055 0.318223 0.311677 0.312224 
0.319956 0.31461 0.315283 0.319384 0.315736 0.31429 0.319482 0.314447 0.311846 
0.320998 0.315096 0.31387 0.324068 0.320299 0.316899 0.32708 0.328996 0.326599 
0.331612 0.341334 0.330773 0.340265 0.354688 0.392402 0.412719 0.379269 0.262022 
0.261747 0.30194 0.294574 0.288758 0.284667 0.29869 0.279285 0.277996 0.290224 
0.279445 0.28031 0.287646 0.280299 0.280744 0.288394 0.284843 0.284831 0.328543 
0.332576 0.267691 0.294431 0.283016 0.28462 0.273521 0.270676 0.260964 0.279965 
0.339016 0.334578 0.327575 0.31911 0.328268 0.355526 0.349887 0.348803 0.343481 
0.338826 0.346727 0.333132 0.333168 0.33309 0.333003 0.32296 0.322071 0.327176 
0.31986 0.306503 0.307906 0.320667 0.326482 0.348728 0.299978 0.288407 0.290705 
0.35627 0.353831 0.351317 0.351824 0.331203 0.331227 0.344874 0.334818 0.312825 
0.365698 0.358687 0.355075 0.324275 0.325291 0.332812 0.33194 0.332358 0.303075 
0.299651 0.324568 0.295692 0.29322 0.328562 0.291397 0.294378 0.299751 0.300797 
0.321452 0.302795 0.315964 0.360348 0.337998 0.353171 0.379911 0.275215 0.287295 
0.361136 0.373422 0.346114 0.281699 0.289965 0.282911 0.289017 0.290944 0.281535 
0.279567 0.279339 0.285619 0.325655 0.334987 0.33795 0.320535 0.32726 0.286466 
0.293442 0.295401 0.323372 0.316072 0.332759 0.332684 0.332653 0.332711 0.333041 
0.332889 0.332662 0.333482 0.333257 0.3331 0.33403 0.333751 0.333715 0.334672 
0.334345 0.334482 0.335177 0.334949 0.335276 0.335439 0.335334 0.335862 0.335328 
0.335401 0.336066 0.334854 0.335152 0.33583 0.334155 0.334532 0.335145 0.33334 
0.333735 0.334144 0.332695 0.333027 0.333173 0.331909 0.332263 0.332235 0.313921 
0.316795 0.309049 0.311462 0.333013 0.332979 0.332862 0.379962 0.380616 0.334871 
0.339586 0.349449 0.353553 0.348221 0.325998 0.326315 0.325266 0.325473 0.328593 
0.325227 0.325067 0.32785 0.325633 0.325231 0.327547 0.326287 0.325771 0.327638 
0.327117 0.326547 0.328026 0.328133 0.327426 0.328568 0.329212 0.328514 0.329263 
0.330279 0.329609 0.330034 0.3312 0.330637 0.330785 0.332042 0.331535 0.331467 
0.332714 0.332326 0.33208 0.33321 0.332941 0.332584 0.333495 0.333343 0.332937 
0.333558 0.333529 0.333098 0.33343 0.3335 0.333085 0.333158 0.333283 0.332901 
0.332737 0.332934 0.332568 0.332306 0.332512 0.332162 0.331949 0.332111 0.331782 
0.331684 0.331817 0.33148 0.331572 0.331639 0.33132 0.331616 0.331617 0.331331 
0.331797 0.331736 0.331478 0.332052 0.33195 0.331728 0.332377 0.332245 0.332045 
0.324629 0.328296 0.326992 0.328169 0.329812 0.329038 0.330229 0.332625 0.332645 
0.332422 0.332445 0.333263 0.333554 0.307194 0.302675 0.333777 0.332149 0.332184 
0.331265 0.335377 0.340117 0.336392 0.344953 0.340579 0.340432 0.345049 0.343824 
0.341628 0.344691 0.32438 0.325972 0.334526 0.338273 0.322494 0.32359 0.327052 
0.320962 0.321555 0.325135 0.320172 0.320516 0.323607 0.319831 0.320152 0.322812 
0.320111 0.320035 0.322735 0.320482 0.320484 0.32303 0.321314 0.320983 0.323644 
0.322266 0.321709 0.324563 0.3239 0.32281 0.325937 0.326516 0.325 0.327961 
0.33 0.327686 0.330914 0.334722 0.331633 0.334491 0.28849 0.290416 0.303857 
0.328519 0.331803 0.33165 0.335949 0.334945 0.293594 0.294757 0.329114 0.328001 
0.33052 0.335924 0.330036 0.346499 0.344615 0.360932 0.347033 0.336025 0.334011 
0.336526 0.338083 0.36063 0.371865 0.362797 0.337445 0.337736 0.340051 0.341581 
0.347532 0.3471 0.341931 0.292175 0.301779 0.300636 0.309346 0.30293 0.329668 
0.332786 0.336394 0.332136 0.319916 0.313117 0.311738 0.299415 0.294155 0.303735 
0.292064 0.288846 0.296488 0.29812 0.329909 0.323704 0.320774 0.332542 0.332777 
0.332848 0.323295 0.310593 0.334813 0.344238 0.308488 0.302404 0.308342 0.332533 
0.330143 0.332697 0.332572 0.332397 0.332733 0.363414 0.357071 0.356096 0.358483 
0.292389 0.295476 0.332964 0.301076 0.30536 0.310639 0.306789 0.31778 0.350823 
0.348201 0.344303 0.310996 0.331595 0.347914 0.295736 0.331415 0.331038 0.304218 
0.333035 0.329049 0.338275 0.342036 0.337282 0.339043 0.344965 0.332059 0.331081 
0.344062 0.290422 0.340671 0.343458 0.340325 0.332424 0.332224 0.335248 0.3346 
0.336338 0.33577 0.336027 0.337169 0.336814 0.337375 0.337311 0.337325 0.338191 
0.336657 0.336992 0.338098 0.33572 0.336408 0.337392 0.333888 0.33463 0.335705 
0.332594 0.333107 0.333449 0.322163 0.328755 0.319837 0.348556 0.337108 0.337559 
0.330427 0.330833 0.331277 0.3319 0.333201 0.329746 0.329719 0.329906 0.329712 
0.33139 0.330095 0.329855 0.331262 0.330442 0.330118 0.331173 0.330858 0.330511 
0.331228 0.331303 0.330966 0.331388 0.331746 0.331434 0.331626 0.332126 0.331864 
0.331864 0.332445 0.332232 0.332073 0.332636 0.33251 0.332245 0.33269 0.332636 
0.332318 0.332584 0.332611 0.332262 0.332338 0.332438 0.332071 0.331992 0.332137 
0.331764 0.331594 0.33174 0.331374 0.331262 0.331396 0.330982 0.331013 0.331111 
0.330685 0.330937 0.330971 0.330531 0.331051 0.331027 0.330593 0.331307 0.331224 
0.330841 0.331642 0.331522 0.331203 0.33201 0.331869 0.331609 0.332786 0.331372 
0.332748 0.316707 0.312529 0.338553 0.337654 0.30603 0.310156 0.298606 0.273361 
0.338314 0.339643 0.33509 0.340897 0.339375 0.338792 0.325757 0.326304 0.32719 
0.328153 0.329667 0.328957 0.330032 0.331489 0.325218 0.325511 0.32832 0.325366 
0.325416 0.328177 0.325679 0.325463 0.328391 0.326384 0.326037 0.328832 0.327508 
0.326953 0.329701 0.328911 0.32816 0.330955 0.331027 0.329715 0.332492 0.333801 
0.332098 0.334591 0.337369 0.335261 0.337444 0.334013 0.333533 0.334583 0.333069 
0.332707 0.332373 0.3333 0.360307 0.354071 0.341535 0.349081 0.332549 0.333415 
0.334353 0.329869 0.330053 0.332255 0.331646 0.357849 0.362288 0.353469 0.33225 
0.341218 0.34574 0.341817 0.344567 0.323791 0.319258 0.318458 0.314652 0.310283 
0.307065 0.313233 0.351095 0.343484 0.345634 0.341997 0.32698 0.332829 0.335134 
0.311258 0.314391 0.315283 0.338176 0.339752 0.339428 0.338908 0.33682 0.313825 
0.310553 0.313756 0.351896 0.352603 0.347773 0.347719 0.332247 0.332035 0.332406 
0.339506 0.338045 0.332029 0.332101 0.305197 0.311106 0.303831 0.337695 0.332088 
0.332052 0.331722 0.331875 0.339207 0.335144 0.335873 0.33215 0.332281 0.33181 
0.33877 0.33933 0.339802 0.339856 0.33875 0.339668 0.342512 0.340469 0.337999 
0.347766 0.33558 0.333745 0.335546 0.332012 0.330713 0.332543 0.33574 0.332968 
0.326247 0.324339 0.330495 0.34178 0.339121 0.340337 0.343032 0.341839 0.336573 
0.33933 0.340203 0.337486 0.305164 0.304185 0.308626 0.309588 0.341001 0.332603 
0.337461 0.336362 0.339312 0.34001 0.315533 0.320546 0.317428 0.344333 0.348439 
0.334967 0.33568 0.351467 0.351295 0.332703 0.332831 0.333055 0.333203 0.334252 
0.332022 0.332014 0.331926 0.331852 0.332453 0.33195 0.331847 0.332215 0.33197 
0.33188 0.33204 0.332007 0.331925 0.3319 0.332015 0.331967 0.331792 0.331987 
0.331978 0.331702 0.331839 0.331887 0.331581 0.331567 0.331661 0.331337 0.331191 
0.33132 0.330962 0.330766 0.330908 0.330511 0.330392 0.3305 0.330053 0.330103 
0.33019 0.329658 0.330034 0.330061 0.329472 0.330219 0.330149 0.329594 0.330613 
0.33049 0.32999 0.331095 0.330926 0.330546 0.331583 0.331401 0.331126 0.341022 
0.340803 0.33405 0.339887 0.332301 0.332366 0.333609 0.332923 0.331008 0.331806 
0.337205 0.338175 0.335485 0.33062 0.330648 0.335422 0.332306 0.329983 0.334474 
0.330051 0.330445 0.333138 0.333551 0.334381 0.334997 0.340952 0.341255 0.341298 
0.330696 0.330689 0.333392 0.331207 0.330922 0.333602 0.33209 0.331623 0.334191 
0.333161 0.332609 0.335033 0.334605 0.333852 0.33608 0.336568 0.33538 0.337418 
0.338881 0.337386 0.339008 0.348519 0.335287 0.334225 0.336314 0.336025 0.336984 
0.337176 0.338983 0.338118 0.338515 0.340158 0.339755 0.340953 0.341323 0.342196 
0.343465 0.32196 0.319249 0.317762 0.315843 0.319988 0.340617 0.344973 0.322254 
0.32589 0.33206 0.331663 0.321688 0.317642 0.319492 0.345528 0.33454 0.336173 
0.333969 0.337576 0.335697 0.341365 0.342211 0.344233 0.334232 0.333973 0.332079 
0.334751 0.333364 0.333668 0.331865 0.331632 0.340579 0.341324 0.340883 0.332812 
0.331229 0.331299 0.338278 0.337309 0.337916 0.345901 0.344209 0.341384 0.332072 
0.339165 0.314698 0.316788 0.320421 0.318478 0.315753 0.317337 0.345646 0.350113 
0.331396 0.331281 0.330799 0.331096 0.331371 0.331502 0.331219 0.330922 0.332431 
0.339757 0.339788 0.340418 0.331459 0.336881 0.33332 0.33258 0.332103 0.333875 
0.323748 0.323382 0.326734 0.317652 0.314653 0.313756 0.339356 0.335067 0.338581 
0.343639 0.336755 0.338025 0.338201 0.320578 0.322961 0.339268 0.334218 0.332676 
0.343314 0.34454 0.334484 0.339174 0.337662 0.341081 0.325801 0.327914 0.329261 
0.332491 0.332606 0.332839 0.333069 0.333051 0.331782 0.331861 0.331535 0.331608 
0.331425 0.331351 0.331395 0.331102 0.331114 0.331192 0.330807 0.330759 0.330907 
0.330484 0.330334 0.330493 0.330024 0.329776 0.329946 0.329468 0.329339 0.329493 
0.328899 0.328984 0.329082 0.328423 0.32883 0.328832 0.328142 0.329095 0.328998 
0.328215 0.329735 0.329533 0.328923 0.330484 0.33023 0.329806 0.330928 0.335106 
0.335214 0.335016 0.334666 0.337085 0.33498 0.334987 0.337188 0.330743 0.328109 
0.327241 0.330886 0.318345 0.319877 0.320343 0.340831 0.341109 0.3415 0.34141 
0.335998 0.335804 0.33728 0.336596 0.336271 0.338325 0.33731 0.336947 0.338853 
0.338303 0.337718 0.33924 0.33917 0.338611 0.339604 0.322632 0.320464 0.321462 
0.3231 0.321904 0.338036 0.338873 0.331571 0.330771 0.331389 0.339852 0.339285 
0.332108 0.332203 0.331888 0.335436 0.335792 0.313178 0.314221 0.317986 0.316801 
0.339675 0.341616 0.322077 0.339451 0.340922 0.338693 0.335293 0.32383 0.325924 
0.324096 0.340416 0.332464 0.337281 0.337961 0.338775 0.347646 0.336688 0.338119 
0.334491 0.332614 0.336094 0.336417 0.337039 0.333697 0.333513 0.33388 0.330686 
0.3415 0.341578 0.341485 0.344542 0.330335 0.330194 0.329665 0.323293 0.321178 
0.320551 0.342624 0.340591 0.324073 0.324863 0.324147 0.324851 0.325882 0.33903 
0.337919 0.335949 0.335521 0.323478 0.325719 0.322321 0.340019 0.34048 0.338477 
0.334892 0.336045 0.33447 0.330472 0.336231 0.335323 0.338124 0.322924 0.323768 
0.330461 0.33066 0.33097 0.331166 0.330113 0.329572 0.329771 0.328343 0.328619 
0.32777 0.327877 0.327061 0.327124 0.326362 0.327618 0.327551 0.326397 0.3287 
0.328341 0.327671 0.329911 0.329456 0.329059 0.330297 0.338451 0.336405 0.336874 
0.338079 0.337516 0.339179 0.339193 0.330208 0.326907 0.32553 0.339108 0.340809 
0.329499 0.339705 0.339323 0.339205 0.329028 0.330731 0.322132 0.322728 0.324543 
0.323948 0.331596 0.331882 0.330872 0.339243 0.339141 0.340461 0.33513 0.330259 
0.330422 0.329687 0.329205 0.333392 0.333699 0.32711 0.328558 0.328633 0.326517 
0.338429 0.338691 0.338564 0.321719 0.324353 0.320537 0.327037 0.327537 0.337813 
0.338319 0.33162 0.330642 0.334246 0.332743 0.32933 0.329538 0.327968 0.328135 
0.328788 0.340888 0.341398 0.341184 0.34015 0.339353 0.325761 0.32551 0.319624 
0.319973 0.322745 0.322265 0.339194 0.340084 0.339587 0.337279 0.338255 0.336574 
0.338718 0.340373 0.33199 0.332443 0.332761 0.327219 0.326715 0.32778 0.328668 
0.33481 0.340263 0.338025 0.333272 0.326994 0.327166 0.340188 0.3396 0.339829 
0.339219 0.32641 0.328155 0.328735 0.325655 0.339162 0.33853 0.324238 0.325398 
0.325361 0.330164 0.330574 0.327996 0.335038 0.335725 0.336598 0.334755 0.327708 
0.340571 0.340819 0.329252 0.327649 0.336534 0.334498 0.331167 0.331826 0.330031 
0.337475 0.338229 0.336596 0.327555 0.334011 0.332771 0.33081 0.325913 0.332869 
0.33364 0.331995 0.325847 0.327007 0.340186 0.340246 0.325839 0.340111 0.333935 
0.334511 0.390391 0.3361 0.335387 0.330564 0.32888 0.328866 0.327752 0.340879 
0.340524 0.338531 0.339361 0.325905 0.331378 0.329662 0.340006 0.340305 0.339552 
0.33271 0.325861 0.328607 0.329042 0.328415 0.327236 0.339396 0.3385 0.326996 
0.325204 0.33371 0.328413 0.325506 0.337537 0.336572 0.324783 0.338659 0.329255 
0.33542 0.333443 0.659511 0.44354 0.333459 0.333409 0.332995 0.332213 0.331072 
0.329658 0.327896 0.326118 0.324103 0.322651 0.32387 0.317932 0.293476 0.286642 
0.279671 0.276711 0.299998 0.299831 0.3002 0.304109 0.306917 0.312878 0.322595 
0.34035 0.3706 0.302698 0.292639 0.285196 0.305419 0.300406 0.301332 0.310436 
0.321815 0.322224 0.32921 0.330833 0.330745 0.328349 0.27916 0.326586 0.308814 
0.309975 0.309446 0.30778 0.305532 0.303192 0.323807 0.658113 0.33336 0.333377 
0.430056 0.381921 0.345043 0.326764 0.317753 0.31178 0.306527 0.303519 0.301088 
0.29971 0.299776 0.300223 0.300985 0.301801 0.303006 0.30425 0.305947 0.308684 
0.310281 0.311673 0.313386 0.314782 0.31654 0.317907 0.319605 0.322323 0.323901 
0.325131 0.326577 0.327671 0.328997 0.330028 0.331288 0.332965 0.333904 0.334599 
0.335313 0.335793 0.336285 0.336606 0.336919 0.337174 0.337122 0.337055 0.336838 
0.33591 0.335434 0.3346 0.334102 0.333727 0.333305 0.332981 0.332615 0.332122 
0.332389 0.331898 0.331861 0.332051 0.332218 0.332518 0.332727 0.332893 0.333074 
0.333204 0.333327 0.333375 0.3334 0.336619 0.336253 0.331991 0.331869 0.331953 
0.300424 0.307351 0.320914 0.332147 0.33706 0.335044 0.332366 0.333321 0.333313 
0.333333 0.333326 0.333339 0.33335 0.333347 0.333347 0.333347 0.333352 0.33336 
0.333347 0.333336 0.333365 0.333355 0.333359 0.333361 0.333339 0.333344 0.333326 
0.333321 0.333302 0.333298 0.333288 0.333267 0.333322 0.333281 0.333272 0.333316 
0.333219 0.333251 0.333258 0.333254 0.333315 0.333301 0.333327 0.33334 0.333355 
0.333361 0.333375 0.333396 0.333339 0.333372 0.333406 0.333386 0.33334 0.333345 
0.333333 0.333283 0.333315 0.792929 0.83134 0.97059 0.995261 1.02627 1.02236 
1.02754 0.988598 0.992246 0.970692 0.943901 0.909519 0.878158 0.839035 0.824236 
0.784032 0.747007 0.699897 0.653699 0.634952 0.633931 0.552568 0.584736 0.858047 
0.925548 1.01441 0.989033 1.03037 1.03532 1.01754 1.02857 0.968362 1.00081 
0.912576 0.944013 0.84866 0.89159 0.780316 0.819634 0.694423 0.755134 0.642473 
0.65197 0.537367 0.591897 0.545748 0.454237 0.415983 0.529339 0.49673 0.528322 
0.432899 0.576434 0.492734 0.645433 0.526813 0.602546 0.54033 0.597761 0.54512 
0.547502 0.590605 0.612452 0.555069 0.561208 0.501571 0.540483 0.481343 0.532336 
0.823094 0.852662 0.883905 0.913431 0.332019 0.332038 0.331926 0.331981 0.776123 
0.737377 0.938066 1.00676 1.00496 0.715443 0.980437 1.01083 0.967371 0.331399 
0.328581 0.330813 0.818853 0.96548 0.567348 0.626873 0.544045 0.70146 0.6632 
0.459119 0.429968 0.314417 0.310632 0.309441 0.306476 0.982282 0.988133 0.380602 
0.439465 0.444072 0.443758 0.415741 0.629665 0.263081 0.330448 0.33166 0.329762 
0.33112 0.32114 0.318906 0.314176 0.322856 0.31568 0.319613 0.309508 0.312947 
0.348717 0.350217 0.34717 0.333295 0.333275 0.333255 0.329443 0.328926 0.329795 
0.32928 0.327603 0.330669 0.32982 0.341507 0.341602 0.341653 0.332248 0.332471 
0.333019 0.33336 0.336817 0.335601 0.336827 0.33307 0.332917 0.332772 0.332662 
0.312729 0.318079 0.31778 0.322307 0.31048 0.332364 0.332297 0.332579 0.31277 
0.317216 0.317566 0.33349 0.333407 0.333425 0.325209 0.317463 0.321503 0.340562 
0.330674 0.328403 0.329473 0.33381 0.33354 0.333516 0.386099 0.384846 0.421698 
0.301296 0.290788 0.294404 0.291724 0.333426 0.333615 0.333526 0.325854 0.325798 
0.327158 0.333156 0.333187 0.333047 0.333078 0.332885 0.32942 0.331003 0.328261 
0.333207 0.335658 0.335662 0.334882 0.334924 0.337933 0.350896 0.345918 0.259351 
0.307119 0.30791 0.312685 0.317445 0.315773 0.319581 0.272941 0.330998 0.331584 
0.331427 0.332256 0.332267 0.332428 0.304746 0.326447 0.32436 0.326506 0.333133 
0.333155 0.333219 0.3335 0.333573 0.333815 0.333846 0.334347 0.333892 0.295937 
0.292775 0.29877 0.330979 0.330609 0.330784 0.330386 0.333246 0.333273 0.333163 
0.333134 0.33724 0.337839 0.336037 0.336704 0.332137 0.334149 0.333869 0.333855 
0.332507 0.332375 0.33253 0.318864 0.328263 0.328056 0.294824 0.298393 0.290677 
0.29423 0.331189 0.330095 0.32969 0.350907 0.322197 0.354609 0.349324 0.332275 
0.332094 0.332163 0.333775 0.334271 0.333338 0.333868 0.338758 0.338606 0.341251 
0.341144 0.320957 0.32272 0.317952 0.319834 0.280744 0.334097 0.334425 0.334707 
0.335847 0.333335 0.333793 0.332789 0.333357 0.300675 0.307665 0.304149 0.314343 
0.335637 0.33181 0.332306 0.331513 0.332028 0.335193 0.334725 0.281207 0.331768 
0.327077 0.327561 0.333935 0.333656 0.333662 0.287686 0.294029 0.290172 0.332875 
0.332364 0.33217 0.310185 0.335157 0.338489 0.332061 0.33198 0.332016 0.332805 
0.33293 0.332691 0.280057 0.290035 0.329372 0.322198 0.315076 0.333313 0.33328 
0.3333 0.333304 0.333257 0.333277 0.333308 0.333276 0.334796 0.334484 0.335054 
0.33286 0.333125 0.332852 0.31288 0.316778 0.330214 0.329499 0.330158 0.330031 
0.333038 0.332831 0.332647 0.332441 0.332169 0.332191 0.331466 0.338982 0.337685 
0.338909 0.339645 0.340058 0.340901 0.318263 0.319203 0.335724 0.333693 0.335313 
0.324546 0.324739 0.321732 0.322012 0.330741 0.332326 0.328235 0.303592 0.269923 
0.313373 0.317728 0.299069 0.302753 0.310873 0.317099 0.332188 0.332459 0.331116 
0.334946 0.332215 0.332485 0.332612 0.334371 0.33279 0.33663 0.328708 0.328012 
0.335919 0.34069 0.333848 0.349253 0.321498 0.321811 0.324402 0.332229 0.332228 
0.33234 0.33298 0.335274 0.316041 0.314947 0.312212 0.395929 0.421706 0.51266 
0.471219 0.327483 0.327066 0.324374 0.332798 0.332664 0.332827 0.33243 0.332827 
0.33279 0.339663 0.342943 0.358659 0.332413 0.332047 0.34782 0.353547 0.351392 
0.275693 0.279826 0.280013 0.331646 0.331991 0.302446 0.315706 0.331492 0.280666 
0.328423 0.31805 0.335175 0.332561 0.332413 0.333626 0.339815 0.339885 0.340824 
0.332324 0.318129 0.319305 0.317284 0.334157 0.334458 0.334408 0.33474 0.33187 
0.325523 0.316331 0.331865 0.332268 0.334053 0.334537 0.334722 0.335306 0.332293 
0.334407 0.333639 0.334019 0.333391 0.317572 0.317717 0.313806 0.327185 0.326295 
0.326296 0.31845 0.316211 0.315866 0.330117 0.330367 0.330807 0.323158 0.321852 
0.32265 0.316235 0.318607 0.314568 0.333722 0.323472 0.330916 0.328519 0.329442 
0.333248 0.33283 0.335208 0.332726 0.330929 0.3308 0.331326 0.322878 0.322394 
0.331555 0.331864 0.331827 0.34808 0.352645 0.308664 0.331761 0.349924 0.339913 
0.333309 0.333302 0.328611 0.330079 0.329268 0.330485 0.280287 0.282401 0.275803 
0.272883 0.284317 0.302925 0.305295 0.30684 0.308355 0.331431 0.331827 0.331936 
0.331974 0.331621 0.331692 0.331253 0.285783 0.288637 0.282053 0.332137 0.332001 
0.332317 0.332 0.33347 0.333365 0.333369 0.331951 0.331951 0.331975 0.333346 
0.331877 0.331549 0.33224 0.331947 0.352708 0.355498 0.311897 0.30957 0.312906 
0.332322 0.332281 0.332642 0.332554 0.271831 0.271099 0.25932 0.333253 0.333294 
0.333243 0.333465 0.333572 0.333595 0.328202 0.328658 0.330164 0.330735 0.302614 
0.309476 0.31806 0.317189 0.32832 0.327795 0.339703 0.339314 0.339857 0.338346 
0.337811 0.297234 0.332151 0.333477 0.333685 0.329803 0.329275 0.329683 0.307865 
0.301178 0.30384 0.297386 0.322524 0.332164 0.305514 0.314664 0.289085 0.249139 
0.283303 0.195735 0.210835 0.312664 0.302399 0.352154 0.327272 0.328761 0.330354 
0.333949 0.335273 0.335037 0.333486 0.333563 0.310605 0.337618 0.334854 0.337932 
0.311407 0.313675 0.333714 0.333504 0.333238 0.333262 0.333139 0.324817 0.327112 
0.332595 0.332749 0.332569 0.355065 0.346645 0.345934 0.334423 0.334199 0.333478 
0.332627 0.332253 0.332133 0.306699 0.305483 0.322049 0.336152 0.321347 0.324958 
0.324506 0.327741 0.335133 0.336242 0.331708 0.331842 0.331739 0.336606 0.334172 
0.330545 0.330273 0.330263 0.317744 0.318735 0.327029 0.339912 0.329127 0.329011 
0.32962 0.330271 0.330502 0.333634 0.334063 0.333496 0.333876 0.331115 0.331018 
0.330688 0.333666 0.334006 0.333816 0.333366 0.332726 0.334256 0.334355 0.333822 
0.323717 0.322596 0.324693 0.333954 0.333796 0.333392 0.33324 0.333428 0.333542 
0.286025 0.280154 0.329773 0.307386 0.315685 0.311593 0.332896 0.33302 0.332886 
0.333021 0.28002 0.286017 0.284676 0.330917 0.331054 0.330737 0.343169 0.31327 
0.309656 0.313839 0.327227 0.32454 0.324469 0.347328 0.344196 0.321864 0.328358 
0.318047 0.319055 0.319047 0.318837 0.321929 0.33592 0.335451 0.334178 0.335712 
0.336493 0.332887 0.313393 0.333416 0.328525 0.3312 0.331311 0.330902 0.336066 
0.33598 0.334928 0.334706 0.332388 0.332128 0.332328 0.332037 0.313536 0.340095 
0.34096 0.339156 0.339995 0.331549 0.335275 0.337544 0.338456 0.338388 0.333139 
0.333044 0.332932 0.333167 0.340609 0.340734 0.341115 0.33442 0.335286 0.334557 
0.332281 0.332552 0.332697 0.33293 0.339012 0.34665 0.342911 0.318588 0.318322 
0.311908 0.33338 0.333138 0.339615 0.338654 0.340318 0.340357 0.3402 0.323316 
0.325504 0.322768 0.34063 0.334159 0.334783 0.289581 0.294298 0.290337 0.331598 
0.331304 0.357126 0.352185 0.359565 0.351451 0.334088 0.333279 0.33262 0.331907 
0.326235 0.326814 0.324794 0.283283 0.359566 0.349 0.327773 0.327651 0.328422 
0.329705 0.3303 0.336654 0.340982 0.335006 0.340245 0.388834 0.397358 0.304948 
0.297996 0.303049 0.341885 0.342607 0.339206 0.321837 0.327447 0.322564 0.327165 
0.3286 0.328451 0.331162 0.330703 0.33125 0.331429 0.33123 0.331551 0.33248 
0.331296 0.328552 0.329702 0.326962 0.322306 0.327285 0.330763 0.329204 0.340227 
0.356678 0.345327 0.345693 0.334742 0.334609 0.352114 0.354782 0.360233 0.284589 
0.290278 0.294416 0.313109 0.33139 0.331068 0.331356 0.331325 0.330568 0.326653 
0.32563 0.324971 0.353639 0.353254 0.357324 0.358748 0.359658 0.367856 0.32019 
0.320141 0.32266 0.322507 0.335451 0.334855 0.335353 0.334775 0.283537 0.284757 
0.254119 0.385425 0.443129 0.416503 0.336786 0.337062 0.337735 0.377758 0.375122 
0.375976 0.348147 0.342896 0.349539 0.345019 0.335395 0.336093 0.335946 0.330923 
0.330778 0.330318 0.334105 0.334446 0.334631 0.292794 0.288092 0.287129 0.332754 
0.332878 0.332635 0.332771 0.334979 0.334434 0.334191 0.33477 0.330649 0.336572 
0.323479 0.325247 0.325022 0.340959 0.336395 0.338451 0.356861 0.308653 0.329513 
0.3318 0.33227 0.333305 0.329924 0.33547 0.345273 0.325755 0.324407 0.323783 
0.336131 0.336254 0.331808 0.332237 0.33134 0.318391 0.321364 0.335742 0.332895 
0.332845 0.332237 0.362796 0.328376 0.328206 0.329004 0.333726 0.33332 0.33181 
0.331719 0.332122 0.298361 0.301643 0.294242 0.321583 0.320299 0.320867 0.328899 
0.328628 0.329494 0.322805 0.319709 0.320101 0.319535 0.321874 0.322635 0.324657 
0.323169 0.339904 0.33998 0.340835 0.331222 0.331815 0.32382 0.323356 0.320487 
0.313789 0.340713 0.340407 0.329587 0.332491 0.336153 0.336695 0.333829 0.335591 
0.332055 0.332215 0.33448 0.334831 0.332619 0.332981 0.33895 0.337486 0.338356 
0.333324 0.333201 0.339169 0.337895 0.339262 0.319637 0.324204 0.327329 0.330371 
0.330774 0.331129 0.339487 0.339619 0.339715 0.33968 0.279743 0.339642 0.338531 
0.338705 0.331762 0.331213 0.331554 0.331053 0.319013 0.320162 0.320167 0.319292 
0.321112 0.331368 0.331028 0.32547 0.284558 0.324456 0.323534 0.31332 0.330421 
0.291481 0.287715 0.332489 0.333164 0.331361 0.274941 0.340171 0.339839 0.33654 
0.338945 0.341624 0.337028 0.337257 0.338297 0.338702 0.300483 0.317193 0.340532 
0.334522 0.292907 0.318252 0.347627 0.34564 0.348905 0.336602 0.336362 0.334841 
0.286274 0.331402 0.29132 0.345944 0.329633 0.28009 0.341375 0.344274 0.340003 
0.343184 0.343929 0.332115 0.332015 0.333014 0.332574 0.332883 0.342801 0.339836 
0.3396 0.247166 0.332698 0.33286 0.332917 0.333282 0.333241 0.333195 0.333259 
0.333296 0.333256 0.310473 0.320675 0.332589 0.33238 0.332328 0.411202 0.366756 
0.380775 0.33258 0.332751 0.328177 0.328776 0.330749 0.330713 0.335659 0.335559 
0.334822 0.334809 0.263049 0.332597 0.321638 0.320869 0.323792 0.336397 0.337356 
0.339381 0.338219 0.332632 0.335241 0.332293 0.33413 0.336006 0.333341 0.333387 
0.333381 0.334093 0.333697 0.3298 0.329524 0.336793 0.337262 0.331844 0.338931 
0.338083 0.339303 0.3323 0.332392 0.329671 0.332247 0.328294 0.378367 0.369991 
0.37266 0.332711 0.337892 0.336025 0.349368 0.347012 0.352545 0.3324 0.332944 
0.332833 0.343362 0.333328 0.333277 0.340794 0.333503 0.3331 0.33322 0.332777 
0.332357 0.333238 0.332668 0.332542 0.333441 0.333364 0.333381 0.333318 0.333354 
0.341295 0.343737 0.341612 0.329836 0.329393 0.329253 0.339605 0.326912 0.326862 
0.328927 0.33079 0.331019 0.329685 0.328255 0.329286 0.331534 0.332453 0.325845 
0.334602 0.337598 0.339052 0.341863 0.329968 0.329483 0.329816 0.329326 0.326796 
0.326996 0.324384 0.334176 0.327608 0.329963 0.330803 0.331285 0.331559 0.331424 
0.311338 0.278199 0.288155 0.286929 0.329055 0.328642 0.328447 0.330971 0.330859 
0.335712 0.333583 0.335987 0.334057 0.332905 0.331279 0.333276 0.339124 0.338138 
0.339605 0.334396 0.332201 0.332971 0.322501 0.323361 0.338538 0.338381 0.333998 
0.333846 0.328937 0.331532 0.328323 0.343042 0.343149 0.341335 0.340553 0.333209 
0.333838 0.333388 0.334015 0.310308 0.305256 0.306871 0.334665 0.333043 0.343098 
0.341322 0.339471 0.335937 0.33775 0.348572 0.340759 0.341105 0.332174 0.332474 
0.32731 0.327189 0.328341 0.328257 0.33195 0.335853 0.328356 0.333305 0.332098 
0.332146 0.339834 0.334142 0.333686 0.335518 0.317235 0.321462 0.321688 0.330798 
0.327764 0.333252 0.292687 0.310078 0.320262 0.312782 0.332088 0.330087 0.298867 
0.301386 0.329265 0.329758 0.329506 0.32999 0.327291 0.329657 0.329225 0.329255 
0.328807 0.342228 0.332243 0.331885 0.332076 0.331757 0.330323 0.330223 0.330086 
0.330417 0.330167 0.330865 0.304444 0.302942 0.29885 0.327661 0.331078 0.337444 
0.334972 0.336677 0.339539 0.347972 0.352796 0.34022 0.340208 0.315163 0.311742 
0.310101 0.308359 0.310082 0.303946 0.289584 0.344597 0.346601 0.349285 0.292424 
0.287653 0.280639 0.34473 0.334559 0.336647 0.334321 0.336233 0.332666 0.334168 
0.327215 0.324842 0.327644 0.331194 0.331427 0.331451 0.338984 0.327531 0.326574 
0.324725 0.324046 0.327757 0.326108 0.328409 0.333176 0.32418 0.323073 0.356273 
0.340178 0.316778 0.333406 0.316549 0.319212 0.319 0.322117 0.33199 0.331847 
0.331965 0.318635 0.314575 0.332427 0.332469 0.332414 0.335363 0.337324 0.331879 
0.331875 0.338565 0.334825 0.337111 0.336542 0.337115 0.337543 0.336138 0.336432 
0.339998 0.340016 0.309408 0.330094 0.330118 0.329138 0.333899 0.334045 0.340254 
0.292472 0.339219 0.337572 0.337243 0.323459 0.322321 0.324596 0.34016 0.322182 
0.34125 0.330618 0.329795 0.327977 0.313527 0.336649 0.337823 0.337618 0.352755 
0.357592 0.353401 0.358643 0.336088 0.338629 0.33666 0.338263 0.329718 0.332465 
0.320742 0.323552 0.32529 0.336887 0.338105 0.338314 0.331813 0.331179 0.331542 
0.328956 0.329819 0.329673 0.324154 0.33629 0.339536 0.337127 0.340541 0.320342 
0.333354 0.33333 0.333338 0.33283 0.33296 0.315675 0.32855 0.327974 0.328744 
0.317577 0.339719 0.339679 0.340627 0.343054 0.342143 0.321517 0.31937 0.335203 
0.332992 0.33297 0.332801 0.27923 0.280804 0.2843 0.338706 0.338135 0.266811 
0.279601 0.277482 0.343497 0.331611 0.333729 0.31394 0.325287 0.32586 0.332916 
0.317791 0.325433 0.326339 0.323664 0.33468 0.309435 0.325584 0.326193 0.316072 
0.318853 0.320451 0.321953 0.244553 0.337504 0.338615 0.334671 0.336458 0.340966 
0.320643 0.321016 0.322379 0.341265 0.340999 0.341473 0.352293 0.323063 0.317351 
0.322513 0.336154 0.336531 0.334263 0.334888 0.339956 0.339317 0.329913 0.330537 
0.330897 0.298198 0.29538 0.291632 0.336621 0.337151 0.33801 0.331061 0.326814 
0.329445 0.331922 0.331717 0.331418 0.331266 0.313024 0.317544 0.312009 0.339774 
0.322399 0.279136 0.286853 0.339417 0.330826 0.330021 0.330549 0.333614 0.333553 
0.334345 0.336989 0.333364 0.333432 0.331473 0.334982 0.332098 0.33202 0.333494 
0.333586 0.333003 0.33295 0.314662 0.317348 0.318788 0.329961 0.33053 0.330711 
0.33124 0.335404 0.334803 0.335439 0.333403 0.333439 0.332879 0.333036 0.332883 
0.330635 0.331922 0.331879 0.328695 0.328507 0.327786 0.337733 0.338622 0.331104 
0.333473 0.333393 0.340389 0.337642 0.36589 0.396381 0.377142 0.36591 0.357818 
0.364758 0.333247 0.329347 0.330135 0.317693 0.316146 0.319045 0.325981 0.327509 
0.329841 0.320022 0.318833 0.321218 0.310025 0.305542 0.312072 0.315256 0.341739 
0.348918 0.327415 0.32627 0.325716 0.324253 0.451409 0.448199 0.38859 0.396306 
0.339171 0.336548 0.336088 0.336035 0.334184 0.334814 0.334796 0.330359 0.32736 
0.334146 0.329136 0.329106 0.330057 0.316633 0.339547 0.332118 0.331834 0.306684 
0.313784 0.312915 0.331841 0.331845 0.331699 0.333241 0.3331 0.333296 0.333177 
0.332888 0.333005 0.324952 0.323339 0.324276 0.331495 0.333115 0.326866 0.329619 
0.324448 0.333043 0.332919 0.325609 0.326654 0.295769 0.334093 0.334498 0.333281 
0.284756 0.275638 0.330664 0.331216 0.338307 0.340214 0.344702 0.333106 0.331324 
0.333323 0.330584 0.332056 0.331963 0.33209 0.331682 0.281478 0.289093 0.324553 
0.416847 0.320589 0.317789 0.313159 0.336269 0.335406 0.338183 0.339084 0.336581 
0.428756 0.349433 0.361914 0.333688 0.333663 0.28163 0.303059 0.29765 0.322141 
0.320062 0.322723 0.387115 0.333979 0.320474 0.345996 0.329734 0.328576 0.329698 
0.315944 0.32114 0.341032 0.343633 0.338377 0.339819 0.338856 0.338706 0.337117 
0.333033 0.333063 0.333286 0.317267 0.333133 0.33316 0.332999 0.333171 0.333083 
0.332987 0.335787 0.339905 0.337494 0.333382 0.33332 0.333277 0.286692 0.32481 
0.334361 0.333559 0.333826 0.333537 0.334216 0.331446 0.32348 0.325101 0.324532 
0.33299 0.332753 0.332306 0.332145 0.276942 0.279947 0.289117 0.329245 0.363879 
0.372821 0.370998 0.330896 0.335244 0.334704 0.334552 0.319274 0.336937 0.337253 
0.334847 0.334968 0.33362 0.334275 0.332784 0.332594 0.338127 0.339855 0.332164 
0.255607 0.269571 0.25511 0.320276 0.322163 0.33466 0.336954 0.26062 0.235772 
0.278666 0.264727 0.365174 0.375936 0.339887 0.327406 0.334956 0.33553 0.350449 
0.354473 0.347827 0.355304 0.335155 0.33276 0.331999 0.336708 0.340682 0.341252 
0.304744 0.274267 0.330752 0.343299 0.340186 0.333251 0.33129 0.330951 0.330653 
0.341121 0.333115 0.334338 0.334413 0.333925 0.333347 0.316612 0.317083 0.345937 
0.334137 0.33841 0.332408 0.232174 0.303892 0.318447 0.320849 0.319421 0.335103 
0.33205 0.340803 0.341694 0.342502 0.336073 0.344194 0.355618 0.321082 0.303635 
0.29455 0.339275 0.357484 0.353506 0.338988 0.323299 0.336485 0.322207 0.347117 
0.350486 0.332577 0.335661 0.338684 0.331969 0.331917 0.332024 0.339629 0.323817 
0.332555 0.332528 0.332788 0.333117 0.333215 0.357656 0.337631 0.339761 0.339025 
0.351259 0.382195 0.332781 0.33263 0.331145 0.332486 0.331547 0.331193 0.331588 
0.332437 0.331805 0.333939 0.333551 0.333564 0.326055 0.320674 0.315076 0.339931 
0.339702 0.32922 0.327514 0.327881 0.329629 0.329922 0.330386 0.324996 0.327084 
0.327329 0.325208 0.330806 0.330009 0.32967 0.331042 0.332536 0.331943 0.331994 
0.322733 0.335493 0.331675 0.331785 0.331507 0.3363 0.300132 0.335234 0.578313 
0.282803 0.335965 0.335108 0.331407 0.331515 0.331012 0.328837 0.369596 0.327919 
0.278032 0.299436 0.304385 0.319941 0.32182 0.317106 0.319316 0.336636 0.331738 
0.331578 0.319977 0.318826 0.333301 0.333323 0.320296 0.335158 0.332598 0.334632 
0.331553 0.33887 0.343488 0.343146 0.308188 0.330332 0.329751 0.329236 0.329647 
0.33589 0.336161 0.266478 0.328206 0.326704 0.326363 0.332574 0.336368 0.323095 
0.320519 0.3231 0.324381 0.321063 0.323889 0.329169 0.332613 0.332455 0.3417 
0.339116 0.365613 0.336325 0.337537 0.323014 0.339668 0.250106 0.337177 0.334147 
0.328108 0.333159 0.33402 0.334094 0.322162 0.332079 0.326928 0.332246 0.333281 
0.335259 0.333377 0.333757 0.365231 0.326658 0.329711 0.328866 0.331918 0.332483 
0.332349 0.339213 0.339637 0.338004 0.331667 0.331964 0.331928 0.3326 0.332151 
0.301539 0.293129 0.290745 0.331425 0.325366 0.325387 0.323443 0.31221 0.326455 
0.3272 0.325867 0.337256 0.335074 0.336647 0.334131 0.331195 0.331437 0.327157 
0.32299 0.29427 0.288725 0.292573 0.335083 0.333534 0.341691 0.282945 0.297132 
0.304184 0.310142 0.290373 0.2896 0.342836 0.322016 0.340128 0.340181 0.340798 
0.341282 0.286488 0.292876 0.326619 0.328213 0.341249 0.3413 0.369304 0.338432 
0.329322 0.329629 0.326013 0.339396 0.340316 0.332489 0.332684 0.332413 0.339668 
0.313826 0.30797 0.339872 0.339401 0.339215 0.338254 0.33874 0.333342 0.328497 
0.329564 0.331669 0.331628 0.332622 0.4229 0.330007 0.32945 0.330148 0.330918 
0.332356 0.331643 0.329995 0.338594 0.332037 0.331733 0.325341 0.336955 0.332694 
0.333028 0.331704 0.33073 0.332639 0.326632 0.318194 0.313839 0.332802 0.332845 
0.32993 0.358526 0.327902 0.331468 0.330821 0.332558 0.278171 0.316055 0.323454 
0.336083 0.333737 0.330445 0.327136 0.326618 0.330285 0.336924 0.332274 0.333788 
0.323164 0.320036 0.315501 0.362188 0.361764 0.333494 0.33286 0.333217 0.335125 
0.334889 0.333451 0.338972 0.326013 0.334132 0.333413 0.333452 0.331853 0.332081 
0.340567 0.339632 0.339518 0.338136 0.332766 0.332759 0.340843 0.341417 0.327475 
0.338018 0.33325 0.270393 0.260876 0.259019 0.329312 0.332996 0.329089 0.329618 
0.333189 0.339237 0.340453 0.330486 0.326783 0.330895 0.328164 0.329132 0.312439 
0.330241 0.333271 0.319519 0.321901 0.331416 0.331476 0.331096 0.333102 0.333291 
0.333897 0.310703 0.326287 0.327149 0.329633 0.331239 0.337348 0.338047 0.336657 
0.337128 0.328536 0.32831 0.340044 0.338847 0.331147 0.332556 0.33531 0.33447 
0.331553 0.331219 0.340002 0.341135 0.329187 0.33363 0.333226 0.332081 0.333281 
0.330601 0.331838 0.331911 0.331814 0.310427 0.332864 0.30533 0.331369 0.323239 
0.321439 0.36085 0.366861 0.314068 0.335634 0.331708 0.331958 0.331411 0.255422 
0.269119 0.275589 0.281803 0.330685 0.335063 0.3159 0.313922 0.334245 0.333316 
0.333313 0.3317 0.331632 0.333308 0.333286 0.333287 0.29707 0.291235 0.274057 
0.282477 0.341328 0.347738 0.333206 0.3333 0.372452 0.388094 0.334222 0.332127 
0.330647 0.333275 0.331443 0.333009 0.328489 0.316716 0.314415 0.310023 0.313647 
0.314467 0.330754 0.331254 0.331182 0.333323 0.32424 0.3311 0.327414 0.325751 
0.313447 0.326147 0.330558 0.329822 0.213026 0.335723 0.330791 0.324509 0.344825 
0.332305 0.328657 0.320156 0.333192 0.333611 0.328977 0.332045 0.331962 0.318886 
0.333509 0.329278 0.340917 0.330726 0.328975 0.328943 0.339175 0.339162 0.32888 
0.327328 0.339183 0.33872 0.33943 0.338976 0.310326 0.329726 0.330283 0.331934 
0.331862 0.329921 0.33042 0.330176 0.32975 0.333088 0.335648 0.322036 0.331331 
0.331454 0.332073 0.325147 0.316664 0.274001 0.332777 0.332909 0.333018 0.335975 
0.331598 0.323442 0.324564 0.322485 0.333219 0.331647 0.338497 0.332121 0.331941 
0.332252 0.332797 0.331722 0.330449 0.329517 0.331703 0.331788 0.331905 0.330761 
0.330312 0.326968 0.318686 0.318064 0.33692 0.294277 0.291936 0.356288 0.351453 
0.332808 0.332693 0.333209 0.294124 0.409606 0.323212 0.329452 0.33021 0.330067 
0.35704 0.363226 0.361026 0.326623 0.313803 0.235877 0.333703 0.317849 0.328964 
0.297004 0.288416 0.298517 0.32747 0.328519 0.327415 0.330696 0.33315 0.333223 
0.333802 0.333252 0.333129 0.333151 0.328491 0.331942 0.34221 0.365906 0.333593 
0.333676 0.3315 0.333146 0.351254 0.346741 0.332039 0.291946 0.2811 0.332563 
0.329035 0.332404 0.343812 0.348606 0.32455 0.332035 0.35118 0.333253 0.328316 
0.331904 0.32557 0.329571 0.317882 0.296491 0.324027 0.325968 0.308994 0.332266 
0.3297 0.346949 0.334925 0.332482 0.327252 0.328082 0.333924 0.318824 0.331974 
0.330461 0.331033 0.311815 0.308557 0.313739 0.337798 0.331739 0.332143 0.338988 
0.33123 0.330461 0.326964 0.331639 0.331697 0.333104 0.332017 0.331631 0.332565 
0.332956 0.310093 0.331959 0.325488 0.32758 0.293874 0.300284 0.284892 0.330595 
0.3368 0.276243 0.33303 0.298408 0.304709 0.333032 0.332716 0.319511 0.322354 
0.322162 0.322058 0.324838 0.330521 0.332436 0.346961 0.350057 0.346875 0.331899 
0.331777 0.331918 0.352874 0.347447 0.349709 0.344021 0.341612 0.380967 0.318197 
0.332427 0.346179 0.33313 0.333319 0.326234 0.333133 0.326727 0.333334 0.333568 
0.329949 0.328105 0.32952 0.328264 0.3403 0.339061 0.339462 0.33912 0.33333 
0.355861 0.360361 0.333962 0.329557 0.332925 0.327408 0.33731 0.334911 0.335842 
0.333536 0.333342 0.334436 0.324785 0.331341 0.330729 0.331834 0.316672 0.332997 
0.332621 0.331961 0.332062 0.324283 0.338029 0.339225 0.340683 0.311853 0.309007 
0.329581 0.336135 0.331594 0.329317 0.302558 0.335442 0.335057 0.332596 0.332423 
0.33313 0.333128 0.333136 0.330943 0.339448 0.33889 0.339159 0.338674 0.33276 
0.366016 0.359312 0.347038 0.331776 0.333289 0.333791 0.332176 0.334235 0.333489 
0.333209 0.333031 0.332647 0.332748 0.333143 0.333683 0.332301 0.332472 0.33711 
0.32699 0.339081 0.332157 0.332109 0.332205 0.270815 0.270318 0.252207 0.308559 
0.334179 0.367226 0.332305 0.332514 0.32934 0.33226 0.333336 0.325529 0.323176 
0.241144 0.262659 0.345751 0.364469 0.315506 0.31857 0.34161 0.342509 0.287493 
0.274138 0.276266 0.304157 0.336368 0.333269 0.333227 0.334175 0.334447 0.333325 
0.333181 0.333668 0.307211 0.322471 0.317523 0.314625 0.321145 0.325356 0.333271 
0.332404 0.330437 0.333001 0.324002 0.332308 0.321482 0.332662 0.332925 0.331672 
0.326986 0.327692 0.317672 0.319951 0.326169 0.330687 0.322157 0.329502 0.330903 
0.317511 0.332872 0.332793 0.335098 0.335821 0.333309 0.343377 0.343945 0.307995 
0.337369 0.326702 0.337512 0.29507 0.34281 0.331662 0.330978 0.333073 0.33285 
0.33037 0.332366 0.325228 0.34074 0.297548 0.340197 0.327236 0.326689 0.323396 
0.332115 0.332082 0.318057 0.313867 0.300923 0.298804 0.323912 0.338021 0.339036 
0.345654 0.335496 0.345923 0.332486 0.326438 0.291974 0.333097 0.292515 0.323639 
0.388122 0.33214 0.325898 0.325203 0.327327 0.313989 0.325706 0.324364 0.285861 
0.339237 0.315065 0.298178 0.29612 0.304817 0.332689 0.33753 0.330576 0.333987 
0.289076 0.313582 0.334019 0.341038 0.331452 0.331652 0.331674 0.344803 0.337623 
0.338655 0.341545 0.340001 0.341129 0.335767 0.25843 0.285104 0.337271 0.341393 
0.346424 0.338315 0.341508 0.327006 0.331563 0.331648 0.346577 0.339389 0.331288 
0.333111 0.340473 0.319493 0.320921 0.320068 0.29659 0.288935 0.330306 0.31622 
0.330664 0.333912 0.33483 0.331716 0.331633 0.329003 0.330757 0.330703 0.332336 
0.324795 0.322395 0.337808 0.32827 0.328778 0.329658 0.327437 0.335462 0.321848 
0.320267 0.31573 0.327777 0.319715 0.322456 0.341202 0.318949 0.332118 0.325866 
0.286164 0.333692 0.332841 0.312661 0.33538 0.311226 0.321447 0.32732 0.332492 
0.328847 0.335779 0.336143 0.324826 0.336251 0.315146 0.331953 0.331909 0.291823 
0.336944 0.337612 0.338302 0.338435 0.338514 0.333758 0.320577 0.333714 0.345023 
0.361899 0.360076 0.332615 0.342057 0.325565 0.320134 0.280699 0.341942 0.336404 
0.334923 0.215495 0.266127 0.295584 0.336284 0.333335 0.33268 0.374618 0.403402 
0.333256 0.331233 0.362369 0.33254 0.332962 0.300893 0.332989 0.358231 0.364164 
0.332974 0.333277 0.32316 0.323825 0.331119 0.330029 0.330494 0.331599 0.33118 
0.331109 0.336878 0.330115 0.330865 0.333288 0.337507 0.337186 0.331395 0.323679 
0.330647 0.314712 0.325518 0.289021 0.331155 0.320747 0.31682 0.334573 0.327695 
0.324176 0.324517 0.332543 0.325267 0.322418 0.325209 0.330336 0.30248 0.31242 
0.313658 0.329526 0.321991 0.349799 0.339901 0.331309 0.310566 0.337238 0.34601 
0.323584 0.326285 0.331924 0.339005 0.326925 0.335908 0.340619 0.330429 0.341181 
0.340042 0.336152 0.337796 0.338005 0.337865 0.332469 0.328468 0.323983 0.332287 
0.338225 0.311879 0.327952 0.334187 0.334983 0.335754 0.331555 0.331381 0.332723 
0.331921 0.327533 0.381063 0.331196 0.331755 0.339343 0.342585 0.341172 0.375183 
0.341244 0.343113 0.305397 0.331548 0.332227 0.319328 0.338897 0.327295 0.33918 
0.33212 0.335255 0.38375 0.335642 0.29334 0.348868 0.325944 0.330765 0.331935 
0.350342 0.268732 0.331754 0.328486 0.33356 0.346563 0.269604 0.330167 0.329558 
0.338246 0.330601 0.338071 0.321084 0.367693 0.332955 0.311191 0.333465 0.31659 
0.331479 0.286415 0.303881 0.338048 0.331812 0.325101 0.354199 0.329406 0.302847 
0.328612 0.306654 0.324033 0.332363 0.279166 0.333216 0.328141 0.352566 
Stress%20yz%20component 1 9350 double
-0.0713088 0.102687 -0.105383 0.0702781 1.41168e-05 -6.97781e-06 8.31634e-07 5.04934e-07 0.0364341 
-0.0322431 0.00700785 -0.0257639 -0.0122197 0.0171667 -0.0170233 0.026735 0.0850062 0.053031 
0.0456998 0.0524756 0.0522135 0.0520859 0.0431524 0.0441759 0.0510351 0.0501388 0.0495847 
0.0414854 0.0487844 0.048096 0.0491252 0.0417854 0.0434304 0.0530803 0.0555354 0.0521246 
0.0427614 0.0322388 -0.0478616 -0.0575563 -0.0763339 -0.0507654 -0.0516737 -0.0516636 -0.0515319 
-0.0754574 -0.0736566 -0.0499955 -0.0497519 -0.0494947 -0.0478043 -0.0711564 -0.0471408 -0.0482573 
-0.0475811 -0.0489464 -0.0736752 -0.0712566 -0.0509552 -0.05474 -0.0589136 -0.0906012 -0.0849845 
-0.066859 2.93342e-06 -2.82048e-06 -2.36656e-06 -3.26748e-06 -3.30793e-06 -4.39328e-06 1.49398e-06 -4.64631e-06 
-4.29387e-06 -2.20062e-07 -1.84909e-06 3.62838e-06 4.56597e-06 9.33676e-06 -6.07564e-06 1.29324e-05 -5.20736e-06 
1.52275e-05 1.19097e-05 -4.15756e-06 4.8021e-06 -4.66628e-06 -5.21677e-06 -1.02744e-05 3.91798e-06 -1.53559e-05 
6.91105e-07 0.0302393 -0.000303456 -0.000468904 -0.000183815 -0.000140768 -0.000128744 -0.000104853 -8.70605e-05 
-7.25377e-05 -5.61517e-05 -5.3144e-05 -5.74826e-05 -3.60261e-05 -3.56467e-05 -2.70492e-05 -2.70877e-05 -2.88397e-05 
-1.95184e-05 -1.83564e-05 -1.75347e-05 -1.44487e-05 -1.39145e-05 -1.34423e-05 -1.15677e-05 -9.88033e-06 -7.81706e-06 
-5.37687e-06 -3.73284e-06 -1.95877e-06 -1.97497e-06 1.90131e-06 -1.5662e-06 -5.65428e-07 -1.62783e-06 -1.40641e-06 
-3.11946e-06 -2.78501e-06 -4.00686e-06 -4.48651e-06 -6.5638e-06 -3.49483e-06 -2.53855e-06 -2.4498e-06 4.41497e-07 
2.75688e-06 1.0047e-05 5.97737e-06 6.13201e-06 8.27573e-06 -1.51428e-05 1.84154e-05 -9.91376e-05 -5.18928e-05 
3.54141e-05 -1.46046e-05 -0.000104811 -0.000193561 2.03166e-05 -5.30324e-05 -7.58058e-06 -2.48729e-06 2.83403e-05 
4.2446e-05 4.52215e-05 -3.72251e-06 0.0001046 -0.000265951 -0.00063897 0.0232042 0.00156466 -0.00499781 
-0.00458353 -0.001671 -0.00565045 -0.00717387 -0.00761154 -0.0115494 -0.0170484 -0.0276864 -0.0463467 
0.00564968 0.00508238 0.00253402 0.0011214 0.00673067 0.00997283 0.0106725 0.0116691 0.0146988 
0.01484 0.0180223 -2.52234e-06 3.08401e-07 7.33457e-07 6.22587e-07 9.16896e-07 -2.69356e-06 5.53794e-07 
1.74556e-06 2.19578e-06 -3.35292e-06 -3.65172e-07 7.38856e-06 -2.40192e-06 4.49748e-06 -1.23158e-06 -1.00976e-06 
-2.68055e-06 5.96139e-06 3.05688e-07 -3.49345e-06 1.17399e-05 -1.01329e-05 -0.0247737 -0.000788133 9.60195e-05 
-9.31365e-05 -2.17139e-05 9.1352e-08 -1.11535e-05 -1.25095e-05 -9.08233e-06 -6.47909e-06 -4.25382e-06 -1.46866e-06 
-5.71989e-06 -4.35898e-06 -4.20314e-06 -1.49305e-07 -4.69513e-06 -6.41383e-06 -5.09164e-06 -3.07124e-06 -8.92816e-06 
-6.50826e-06 -7.86769e-06 -7.56281e-06 -1.01679e-05 -8.08724e-06 -7.56121e-06 -5.72886e-06 -5.63477e-06 -2.99938e-06 
-2.69496e-06 -1.69768e-06 -8.42039e-07 -1.15905e-06 -5.74963e-07 -1.77341e-08 -5.63057e-06 -3.3712e-06 -6.49024e-07 
-1.66074e-06 -1.25271e-05 -2.37234e-05 -4.42119e-05 2.02843e-05 3.28889e-05 5.92977e-05 3.06005e-05 8.07351e-05 
0.000223987 2.80699e-05 -2.99218e-06 -1.48912e-05 -1.24818e-05 -2.62189e-05 -5.20675e-05 -5.08375e-05 -6.96007e-05 
0.000147066 -0.000429444 -0.000688206 -0.0119957 -0.00279629 0.000892563 0.00339662 0.00822997 0.0077541 
0.00926002 0.00882298 0.0126325 0.0109486 0.0164851 0.0280913 -0.0154691 -0.00337435 -0.00485639 
-0.00784367 -0.00566854 -0.00615729 -0.0101948 -0.0123833 -0.0107694 -0.00749739 -0.0159031 2.00863e-07 
2.71043e-07 2.27014e-07 1.51161e-06 1.95092e-06 -2.03853e-07 2.90052e-06 2.75507e-06 5.75287e-07 -4.36207e-07 
-1.38147e-06 -4.66999e-07 -2.4473e-06 -6.57853e-06 1.08865e-06 -1.97469e-06 -9.22547e-06 -7.31486e-06 -2.60133e-06 
2.92265e-07 1.45377e-06 -1.20187e-06 2.4089e-06 6.37709e-06 -1.44341e-06 -5.68957e-06 0.00179202 0.000986249 
2.41439e-05 4.40014e-05 6.29209e-05 -1.2299e-05 -4.90212e-06 7.16529e-06 5.32453e-06 8.11601e-06 7.76919e-06 
5.75196e-06 3.04096e-06 3.56432e-06 4.08427e-06 2.45843e-06 3.5983e-06 7.39899e-07 -2.78034e-07 -1.25924e-06 
4.00149e-06 1.51084e-06 -1.8176e-07 -4.55824e-07 6.60029e-07 2.51516e-06 8.41702e-07 1.20315e-07 -6.40483e-07 
-3.44947e-07 1.12889e-07 -4.98468e-07 5.12358e-08 1.26763e-06 8.81328e-07 -6.28975e-07 3.28625e-07 1.25281e-06 
1.29558e-06 9.78684e-08 3.43684e-07 -3.98604e-08 -1.12947e-06 5.9416e-08 -5.68237e-06 -2.61101e-06 1.15778e-05 
8.91749e-07 0.000107425 6.09462e-05 1.79221e-05 1.83654e-07 -1.41729e-05 -2.51814e-05 0.000150792 9.89231e-06 
-2.44532e-05 -1.02799e-05 1.37832e-05 -3.98872e-07 -4.69079e-06 -1.12635e-05 -1.27672e-05 -3.33472e-05 0.000331984 
0.00106058 0.0299171 0.00374858 0.00673744 0.00560744 0.00575678 0.00622639 0.00642778 0.00882542 
0.0074081 0.00550833 0.00563974 0.00469668 0.00971099 0.00595597 0.00587001 0.00572669 0.00533798 
0.00653424 0.00825135 0.00766282 0.00639329 0.00620065 0.00698767 0.0108825 0.0116101 0.0106013 
-2.81006e-05 0.000321599 0.000779049 0.000477734 0.000352908 0.000670851 0.00123717 0.00135664 0.0032294 
0.00158469 0.00372559 -0.0114206 -0.00195856 -0.000166701 -0.000242003 -0.00035911 -0.000431319 -0.00102027 
-0.00146772 -0.000335608 -0.00375084 -0.00250899 -0.00309337 -0.00361486 3.22702e-07 0.0017408 0.00496316 
0.00093028 -0.000477301 0.000106688 -0.00236009 6.94171e-07 9.68874e-07 5.54094e-07 -5.7131e-08 -1.8164e-06 
2.67055e-06 1.46353e-06 4.67591e-07 1.34216e-06 2.17327e-07 -7.5468e-07 -5.98673e-06 -1.50031e-08 3.27212e-06 
-4.17358e-07 -5.5155e-06 -5.4388e-06 -4.29402e-07 -6.88368e-07 -7.47535e-07 1.19449e-06 3.33062e-06 -5.06563e-06 
-3.46086e-06 -0.00030397 1.93814e-05 6.09575e-05 3.23244e-05 -4.98088e-07 1.42129e-05 1.30241e-05 7.53931e-06 
8.20304e-06 -3.84782e-06 1.94132e-06 1.44475e-06 3.06566e-06 -8.81223e-07 8.2429e-07 2.31587e-06 1.16385e-06 
-9.42087e-07 -7.24497e-07 2.22591e-06 1.35302e-06 1.48915e-06 -9.49754e-07 -2.2753e-06 1.03031e-06 4.83364e-07 
-4.64619e-08 -1.59982e-06 -1.37739e-06 -7.93841e-07 2.74609e-07 7.31851e-07 8.19769e-07 -8.5839e-07 -3.65707e-07 
-1.34491e-07 5.658e-07 1.3396e-06 2.47112e-07 -4.83619e-07 2.53537e-07 1.39026e-07 0.000843107 -2.03269e-05 
3.0069e-07 5.18235e-06 -3.03474e-05 -1.17046e-05 -4.69978e-06 3.72838e-05 -1.86275e-05 -7.87917e-05 1.6524e-05 
2.33455e-05 1.4528e-06 -4.86099e-06 -4.9258e-06 -2.00719e-05 -3.88755e-05 -2.71146e-05 8.26594e-05 -3.87641e-05 
0.00168893 -0.000608799 -0.000154708 -0.000129909 -0.000801527 0.00152159 0.00197049 -0.000677207 -0.000187711 
-0.000171883 -0.00056191 0.00126156 -6.96624e-05 -0.000830029 -0.000309795 -0.000817951 0.00141882 0.00117357 
0.000485483 -0.000518458 0.000894654 0.0023959 0.000139641 -0.000286579 -4.78122e-05 -5.20923e-05 -2.72808e-05 
0.00021037 0.000153784 0.000369873 8.94493e-05 -3.33723e-05 -0.000447178 -4.3888e-05 0.000139306 -0.000323958 
-9.13163e-07 5.41822e-05 0.000300748 -0.000133766 -0.000212122 0.00043418 -9.95622e-06 -3.80765e-05 -0.000150397 
-0.000345166 6.64523e-05 0.000347423 2.9049e-05 0.000571777 -3.27864e-05 1.24985e-05 2.41459e-07 -4.85619e-07 
-8.12134e-07 -4.3629e-07 2.56064e-06 3.5463e-07 -1.05006e-07 -1.69889e-06 2.15629e-06 5.20963e-07 -4.1812e-08 
5.39883e-06 1.74455e-06 -5.24019e-07 -5.304e-06 -5.81025e-07 9.85281e-07 3.57554e-06 1.586e-06 -2.63093e-06 
1.70228e-06 1.24541e-07 8.83227e-06 3.14495e-05 -5.91244e-06 -2.75655e-06 1.87015e-05 6.48652e-06 1.03115e-05 
8.16278e-06 -3.08401e-06 6.82615e-07 -6.78348e-08 9.53282e-07 4.07765e-07 7.28353e-07 -7.51803e-07 7.03132e-07 
1.67789e-07 1.41112e-06 6.74078e-07 -1.101e-06 -1.0889e-07 -1.79901e-06 -4.40199e-07 9.13896e-08 4.17043e-07 
2.98969e-09 -2.25091e-06 -1.12648e-06 2.56313e-07 2.2521e-07 6.60704e-07 -6.48153e-07 -1.3347e-07 -5.04805e-07 
7.47419e-07 7.71168e-07 1.41594e-06 5.57518e-07 -1.6289e-07 -4.70673e-06 -4.58077e-06 6.1177e-05 5.80427e-05 
-0.000149982 -0.000120162 -9.31494e-06 -1.11741e-05 -1.01858e-05 -2.16469e-05 -1.88204e-05 6.20045e-05 6.00557e-06 
1.65939e-05 -0.000109189 -5.97267e-05 -7.12905e-05 -6.51205e-05 -8.93303e-05 -9.10973e-06 -4.8601e-05 -5.09255e-05 
-6.2761e-05 -4.65767e-05 -5.57163e-05 -7.2581e-05 -4.46123e-05 -8.30865e-05 -8.64701e-05 -0.000105565 -4.07681e-05 
-3.8043e-05 8.49861e-06 -5.72605e-05 5.66894e-06 9.61737e-06 -4.59691e-05 4.18485e-06 2.10948e-05 -3.02388e-06 
2.14216e-05 3.38827e-06 -0.000127707 -1.77863e-05 -3.35086e-05 -6.67892e-05 3.73402e-05 -2.17753e-05 2.3973e-05 
-6.33065e-06 3.97383e-06 -3.46941e-06 -0.000158098 -8.71606e-06 7.46136e-05 0.000131855 0.000101256 3.25595e-05 
6.15529e-06 -8.43621e-05 -8.02154e-05 -2.7523e-05 2.8566e-07 -1.2185e-06 1.24555e-06 4.23351e-07 8.15537e-07 
-9.67439e-07 1.57876e-06 1.72785e-06 2.26107e-06 -3.42058e-06 7.09693e-06 2.88164e-06 3.39639e-07 6.48981e-07 
-1.75526e-06 1.75654e-06 1.15343e-06 -7.82007e-07 -9.17388e-07 5.0426e-05 1.93173e-05 -7.0311e-06 1.15898e-05 
-4.40075e-06 5.41532e-06 -3.5318e-07 8.7306e-06 7.76937e-06 1.07963e-06 -6.12446e-07 4.98784e-07 5.48569e-06 
-2.43518e-08 1.69296e-06 -8.71695e-07 1.21741e-07 1.01016e-06 5.25244e-07 -1.45478e-07 5.43919e-07 -9.23056e-08 
-1.03079e-06 -4.49863e-07 -5.40166e-07 1.45972e-06 -3.87475e-07 -2.96384e-06 -8.03193e-07 1.43693e-06 -4.98488e-07 
-1.41791e-08 1.49903e-07 1.37825e-07 3.57183e-07 -5.55978e-07 3.17748e-07 1.28867e-06 -0.00013356 -5.43458e-05 
-1.2567e-05 1.73668e-05 -6.52693e-07 -2.45474e-06 2.01988e-06 -2.14689e-05 -3.64669e-05 -2.67973e-06 -7.15566e-06 
-8.85875e-06 -2.21369e-05 -5.37775e-06 -1.33133e-05 4.16226e-06 -2.13513e-06 3.82804e-07 3.92954e-06 5.69285e-06 
-5.73457e-06 -1.05378e-05 -1.93601e-05 -2.47945e-05 -1.57253e-05 1.28758e-05 -1.28308e-05 4.42897e-05 1.23558e-05 
7.09719e-07 -9.4555e-08 -7.66322e-07 9.63941e-06 -3.68606e-08 -7.59824e-06 -6.15712e-06 2.94619e-06 -8.57621e-05 
-4.39573e-06 1.15952e-06 -8.12832e-07 7.70058e-05 3.593e-05 9.57369e-06 8.12955e-06 -5.34573e-06 -2.03505e-06 
-2.58206e-07 1.63495e-06 1.4602e-06 1.96924e-07 -1.86016e-08 2.46121e-06 -5.97724e-06 6.87329e-06 -1.50353e-05 
3.75278e-06 -5.06722e-06 1.55739e-05 4.18611e-05 -5.34675e-06 2.07287e-05 -7.53402e-07 1.24564e-05 8.65291e-07 
-3.74603e-06 9.13423e-06 3.80466e-06 1.71596e-06 -2.9196e-06 4.32183e-07 3.31574e-06 4.48517e-07 -9.23365e-07 
-6.13604e-07 1.18963e-06 1.57898e-06 -4.45234e-08 -1.05946e-06 6.24491e-07 -1.08288e-07 -1.09881e-06 -8.76851e-07 
1.6698e-06 6.81593e-07 -2.05365e-06 -4.05955e-06 3.14673e-07 1.92497e-06 -3.35913e-07 -3.09684e-06 -1.80489e-07 
-1.41758e-06 -1.01801e-06 1.9668e-06 2.82043e-07 1.27261e-05 3.20671e-05 -4.3432e-05 2.01957e-06 -1.63482e-05 
1.36294e-05 6.78644e-06 -1.08641e-05 -5.58117e-06 1.61876e-05 -1.0414e-05 -1.49459e-05 1.98961e-06 1.31634e-06 
1.09455e-05 -5.16403e-06 1.53536e-05 4.94781e-06 -7.82861e-06 -2.43866e-05 -5.76097e-06 1.1719e-05 4.68734e-06 
-2.51077e-06 -6.86161e-06 2.6529e-06 2.25468e-07 1.34455e-05 8.37256e-06 1.34046e-05 1.34842e-05 2.96652e-06 
5.15739e-06 -1.55317e-06 -4.15421e-06 7.59651e-06 -4.52852e-06 1.34751e-05 1.40395e-05 -1.48482e-05 3.50311e-06 
1.34219e-05 2.12077e-05 9.39267e-06 -1.19304e-05 1.8687e-06 1.97005e-05 -5.57866e-06 -2.03748e-06 9.2011e-06 
9.57427e-07 3.82816e-06 -4.16342e-07 4.26497e-06 4.69148e-07 3.27026e-06 -3.46935e-06 -1.01436e-07 1.03512e-06 
-5.03278e-07 5.44344e-07 -4.82367e-07 1.22721e-07 -1.11965e-06 7.8934e-08 -3.16989e-06 5.18332e-07 1.71691e-06 
1.40675e-06 -6.66804e-06 -2.54689e-07 4.53871e-06 -8.15037e-06 -1.57373e-06 4.7011e-06 -4.25444e-07 9.99385e-06 
-5.00513e-07 6.31475e-06 -1.33961e-05 1.6677e-05 4.32065e-06 -1.17788e-06 1.56614e-07 9.80633e-06 4.62404e-06 
2.57835e-06 9.43495e-07 -5.90616e-06 3.40404e-08 3.03668e-07 -1.98798e-05 -1.97073e-06 -6.42351e-06 5.18769e-06 
-9.33649e-06 -1.81558e-06 5.50383e-08 -1.51423e-05 -6.40167e-06 -2.04446e-05 9.11109e-06 -6.46248e-06 8.62608e-06 
3.77656e-06 1.18838e-05 2.24572e-05 1.02125e-06 -1.21843e-05 1.4073e-05 -1.03315e-05 1.09714e-05 4.25952e-06 
-9.05527e-06 -1.72858e-06 8.49046e-06 1.76442e-06 2.468e-06 5.00127e-06 -4.51683e-06 4.00664e-06 6.594e-06 
6.00913e-07 -3.11218e-06 -1.33092e-06 -8.19182e-07 1.98518e-07 -2.13017e-06 -1.69441e-06 1.68452e-05 -4.85822e-06 
-7.90888e-06 -2.41228e-06 9.95046e-06 2.42904e-06 -3.60214e-06 -5.6829e-06 3.0281e-05 2.81432e-05 -1.54178e-05 
2.84179e-05 -3.74486e-06 -4.99136e-06 3.31325e-07 1.35106e-05 -1.02975e-05 6.6403e-07 5.16475e-06 9.19757e-06 
-1.61062e-06 -1.97641e-06 -7.76812e-06 -3.75439e-06 -1.36057e-06 1.0595e-05 -1.57533e-05 2.59989e-05 -3.62211e-06 
2.6359e-06 -2.21895e-06 -6.28228e-06 1.44635e-05 -9.43892e-06 4.41716e-06 8.01466e-07 1.09261e-05 -1.6359e-06 
-2.14475e-05 3.53286e-06 5.56048e-08 1.21606e-06 3.68845e-07 5.68301e-07 1.24114e-06 -1.3791e-06 -1.41219e-07 
4.6931e-07 -2.51495e-07 -6.11245e-07 2.39747e-06 4.14124e-08 7.06235e-07 1.84172e-06 8.33808e-07 -2.34189e-07 
2.09298e-07 1.91993e-06 -3.42239e-07 3.80865e-07 4.47032e-06 -0.0113522 -2.29752e-05 -3.0551e-06 -1.56961e-05 
3.71024e-06 8.4534e-06 9.18506e-06 3.16879e-06 -1.81619e-06 5.65352e-06 5.28733e-06 4.61321e-07 -1.49852e-06 
1.62846e-06 2.8421e-06 1.57199e-06 1.7706e-06 1.77718e-06 2.27961e-06 1.45027e-06 9.83618e-07 3.41556e-08 
9.38482e-07 2.74354e-06 1.98546e-06 4.82597e-07 5.62257e-08 5.10151e-07 8.92524e-07 6.07889e-07 -7.22427e-07 
-1.62092e-07 3.73514e-07 1.1712e-06 6.68058e-06 3.62695e-06 -1.54246e-07 -2.40144e-06 9.33047e-06 -3.63278e-05 
-3.36572e-05 -5.48022e-05 -2.62403e-05 -1.31263e-05 -4.83565e-05 -3.05431e-06 -7.62148e-05 -1.16086e-05 -5.57607e-06 
4.3484e-06 5.27952e-06 4.68302e-06 -5.05935e-05 -0.000108025 5.46829e-05 0.00058943 -0.0051374 -0.0151134 
-0.00549292 -0.00734577 -0.00709081 -0.00538774 -0.0157642 -0.00530934 -0.00710288 -0.00721616 -0.00621472 
-0.00628274 -0.00583995 -0.00694175 -0.00486337 -0.0156937 -0.00530238 -0.00583468 -0.00568893 -0.0162106 
-0.0121883 0.00105969 0.000348374 -0.000367007 -0.000280428 -0.000597914 -0.0006495 -0.000873311 -0.00171377 
-0.00339022 -0.0030377 0.000147243 0.00615244 -0.00047969 0.000305795 0.00046601 0.000386525 0.000518906 
0.00041681 0.00390737 0.00482492 0.00157982 0.00144419 0.00134884 0.00457506 1.14604e-05 -5.45838e-05 
-0.0036985 -0.00114011 0.0020778 -0.000870101 -9.96182e-05 -0.000268895 8.1965e-07 2.32435e-07 1.29846e-06 
-5.6992e-07 8.18451e-07 -3.20333e-07 9.3187e-07 -3.68551e-07 1.10474e-06 -4.16103e-07 -1.79534e-06 6.64849e-07 
-2.93106e-08 -3.12094e-07 -2.42124e-06 -3.44566e-06 2.17033e-07 -9.38913e-07 3.61569e-06 -3.01458e-05 -1.68781e-05 
1.71622e-07 -0.000228906 -1.70329e-06 3.95898e-06 -2.11936e-06 -7.29625e-06 -2.9292e-06 -4.40881e-06 4.8294e-06 
-2.56597e-06 -1.45428e-06 2.09301e-07 2.01179e-06 -1.50801e-06 -1.84794e-06 -7.67903e-07 5.69955e-07 3.96638e-07 
-2.85771e-07 4.75349e-07 -6.18506e-07 6.14524e-07 1.29842e-06 6.26494e-07 -1.15559e-06 7.96374e-07 1.57768e-07 
6.21909e-08 -3.31325e-07 -7.33083e-07 1.59406e-07 -9.9442e-08 1.58277e-06 -9.42954e-06 -1.44163e-05 -3.88089e-05 
1.59599e-05 6.46023e-06 -7.90688e-07 4.41615e-06 -1.19911e-06 6.1089e-07 8.45997e-06 1.09322e-05 0.000106506 
0.000110198 0.000450385 -4.55058e-05 -0.00047283 -0.000194071 0.00010576 1.10384e-06 0.000214327 5.34176e-05 
-4.97244e-05 0.000214695 6.51001e-05 0.000643929 0.000699157 7.21171e-05 -0.000100608 0.000340388 0.000119799 
0.000533451 4.72793e-05 0.000115831 -0.000805121 0.00015745 -0.000142304 6.58657e-05 -7.32846e-05 9.95965e-05 
8.58599e-05 3.422e-05 0.000259048 -0.000312621 0.000102741 0.000126136 6.2737e-05 0.000259642 -0.000221553 
-0.00011483 6.94021e-07 -5.8415e-06 -0.000539135 0.000689125 0.000111524 2.13703e-05 -0.000396369 8.91786e-05 
-1.69632e-05 -0.000192393 -3.74595e-05 2.97751e-05 -5.81765e-05 -0.000366755 0.000132004 0.000131255 -4.60394e-06 
-4.53661e-07 1.16186e-07 -9.95141e-08 -1.04876e-06 5.37126e-07 1.23589e-06 -1.96259e-07 -9.89221e-07 -2.43287e-06 
-7.07969e-07 -6.95366e-07 -1.452e-06 2.417e-06 4.73954e-06 2.12745e-05 1.54516e-06 7.65033e-05 2.60918e-05 
3.23851e-05 8.45306e-06 -3.5627e-06 -3.605e-06 -1.08016e-06 4.31695e-06 1.38682e-06 -3.33813e-06 -6.7952e-07 
2.72564e-06 7.5929e-07 -9.40849e-07 -6.18153e-07 1.39513e-06 -5.87913e-07 5.5066e-07 -3.18956e-07 -4.23669e-08 
1.26966e-06 1.44858e-07 -3.71055e-07 1.65589e-08 -9.7614e-08 -4.45869e-07 2.03675e-07 -1.36194e-07 -2.12086e-07 
-0.000107022 -3.43575e-06 6.79828e-06 1.44955e-06 1.91816e-06 -5.38772e-06 -3.21382e-07 4.26817e-05 2.99728e-05 
3.72008e-05 4.23501e-05 6.13842e-05 2.05164e-05 -7.9094e-06 8.09521e-06 4.77477e-05 4.61765e-05 4.92867e-05 
2.7102e-05 2.20115e-05 4.34014e-05 3.90644e-05 2.5103e-05 2.86585e-05 -8.70617e-07 -3.58809e-05 -1.3653e-05 
1.96287e-05 3.59404e-06 -1.32019e-06 -2.8731e-05 -5.47704e-05 6.039e-05 -6.7912e-05 2.33477e-05 7.08967e-06 
3.71815e-06 3.16758e-05 5.39882e-05 -2.03519e-05 6.22952e-07 0.000108226 -3.75534e-05 6.19177e-06 -1.06445e-07 
-4.58902e-05 8.49731e-05 -4.76037e-06 3.37515e-05 6.72276e-05 -4.1876e-06 -1.34713e-06 -6.24747e-06 -7.40065e-06 
9.50004e-07 7.47688e-06 -1.19115e-06 -2.83861e-05 -3.11077e-06 -6.28473e-06 -3.65808e-05 1.84459e-05 -7.35266e-09 
-1.38621e-06 -7.49901e-07 3.73993e-06 -2.77195e-06 9.80921e-07 3.48803e-06 -9.76933e-07 -1.77029e-06 1.02944e-06 
1.36172e-06 -4.48751e-07 -7.17784e-07 4.49843e-07 -4.96412e-07 -3.9991e-07 1.36033e-06 3.69504e-07 -1.9869e-06 
1.22904e-06 -5.46712e-07 -2.57176e-07 3.30572e-07 -4.91727e-07 7.96763e-06 3.44622e-06 -1.72297e-05 -1.53029e-05 
9.72341e-06 -2.8905e-06 3.92745e-07 -8.90437e-07 -6.00524e-07 9.85414e-06 3.06024e-06 8.00363e-07 -3.10185e-06 
3.29324e-06 6.93165e-06 8.90676e-06 3.02969e-05 -5.00357e-06 7.70387e-07 3.58358e-05 -5.60488e-05 4.41248e-06 
-4.6834e-06 5.7736e-05 -1.81191e-05 -1.54617e-05 2.12785e-05 3.70115e-05 -3.61364e-05 -1.74388e-05 2.26509e-06 
1.88098e-05 -2.15527e-05 -8.21033e-05 1.84882e-06 1.5048e-06 9.27849e-07 4.31427e-06 1.41777e-06 8.58612e-07 
1.59113e-06 -3.37017e-06 -4.60927e-06 2.88759e-05 -1.74693e-05 -1.05933e-06 1.27221e-05 -1.128e-05 3.04075e-05 
1.42125e-05 8.47563e-06 -2.16936e-05 3.75626e-05 -1.92397e-06 2.79618e-05 4.01576e-06 1.1558e-06 -1.13e-06 
3.17294e-06 1.09395e-07 -1.68668e-06 -1.45273e-07 2.2642e-06 -3.23877e-07 2.57028e-08 4.32898e-08 8.08408e-07 
-1.88263e-06 -1.75355e-07 6.59015e-07 -2.60153e-06 -1.75938e-06 -1.22304e-06 5.14899e-07 2.8094e-06 4.10022e-06 
-4.16316e-06 1.42602e-05 -1.86309e-05 2.85876e-06 -5.99019e-06 -9.86634e-06 1.29233e-05 9.05712e-06 1.62315e-05 
-2.65485e-06 7.866e-06 5.52642e-06 3.42117e-06 -1.05742e-06 3.83671e-06 -7.98822e-06 8.43209e-07 -1.29412e-05 
6.96253e-06 6.52206e-07 -4.6119e-06 -3.10754e-06 2.37519e-05 -2.553e-06 -2.53367e-06 2.24639e-06 1.61504e-06 
1.10054e-06 -4.43907e-06 -9.51044e-06 4.03938e-07 -1.97179e-05 -1.84341e-05 -9.32706e-06 -4.47602e-06 -4.65536e-05 
6.12633e-07 -3.095e-07 4.76963e-06 2.04374e-05 -8.46524e-06 -7.35971e-06 1.37424e-05 -3.76513e-05 2.04777e-05 
1.61916e-05 -1.85017e-05 4.36459e-07 1.49199e-06 -9.60095e-07 -8.55799e-07 3.18804e-06 -1.03695e-06 1.16457e-06 
-5.21287e-07 2.22399e-07 3.81503e-06 1.58538e-06 -3.86979e-06 2.60485e-06 2.51803e-06 4.8697e-06 -1.52753e-05 
2.75431e-05 -5.23941e-05 1.90003e-05 -3.24602e-05 6.46736e-06 7.56585e-06 -9.13792e-06 1.00675e-05 -3.35936e-06 
-2.89497e-06 -8.52995e-06 -9.174e-06 1.21393e-05 -8.15741e-06 -1.04079e-05 5.97422e-07 -4.28905e-06 1.71219e-05 
-6.6112e-06 -7.06125e-06 6.27993e-06 9.18093e-07 -1.79817e-06 4.21757e-06 1.47607e-05 -2.84833e-07 2.82364e-09 
-2.45005e-07 1.82785e-05 -2.96102e-06 -1.06853e-05 2.2421e-06 4.61275e-06 -7.61033e-06 -4.5277e-06 7.42763e-09 
4.84197e-06 -3.44105e-06 7.0554e-06 -1.06608e-05 -2.70272e-06 2.81414e-06 5.55741e-07 8.70717e-06 1.99685e-05 
-5.10715e-06 -1.10607e-05 3.05448e-06 1.12096e-05 -4.41663e-06 -4.76298e-06 5.60171e-06 3.53795e-06 1.08572e-05 
-1.03972e-06 4.89345e-06 4.53167e-06 -2.51935e-06 1.6785e-05 6.45193e-07 -1.58963e-05 -1.64432e-06 4.43265e-06 
-1.27071e-06 6.23924e-06 8.83717e-06 8.18915e-06 -4.57898e-06 9.04664e-07 6.85345e-07 7.83514e-06 4.12981e-06 
-1.88605e-05 -1.59532e-05 -1.27218e-05 1.93504e-06 -2.26623e-06 1.13489e-06 0.000812615 0.00091697 0.0247735 
-0.0261644 0.0923916 0.0839099 0.0416895 0.0704188 0.0712252 0.0698758 0.0713179 0.0403734 
0.0697668 0.0686333 0.0683404 0.0637048 0.066673 0.0654191 0.0656177 0.0672686 0.0394215 
0.0702119 0.0740259 0.0787751 0.0480367 0.0366681 0.0524963 -0.059115 -0.0500451 -0.0763537 
-0.0746864 -0.0720294 -0.0711777 -0.0714913 -0.0728261 -0.0737944 -0.0725261 -0.0681486 -0.0691526 
-0.0673047 -0.0682881 -0.0673141 -0.0669155 -0.0675512 -0.0658817 -0.0710846 -0.0713107 -0.0711953 
-0.0724641 -0.0759137 -0.0916781 -0.0864887 -0.0817664 -0.0946301 4.94548e-06 2.26022e-06 -4.36026e-06 
-7.67751e-06 -9.13557e-06 -9.24556e-06 2.25944e-06 -2.63723e-06 -1.29962e-05 -1.56173e-05 -3.66709e-06 4.31296e-06 
1.97649e-05 2.04305e-05 1.06421e-05 -5.08449e-06 -3.25998e-06 2.658e-05 3.56389e-05 2.62536e-05 4.26443e-06 
-6.94614e-06 -2.19371e-05 -1.9706e-05 -1.17633e-05 -1.88835e-06 -1.30053e-05 6.11183e-06 -0.0273094 0.0147263 
-0.00109812 -0.000545582 -0.000347486 -0.000217776 -0.000142302 -0.000137348 -0.000112049 -9.52743e-05 -7.94133e-05 
-6.42877e-05 -5.86447e-05 -5.09153e-05 -4.51019e-05 -3.73345e-05 -3.24247e-05 -3.39066e-05 -2.82347e-05 -2.49317e-05 
-2.08986e-05 -2.28237e-05 -2.03595e-05 -1.5471e-05 -1.00363e-05 -7.19509e-06 -6.83823e-06 -7.51769e-06 -6.13773e-07 
3.57027e-06 4.04993e-06 3.62446e-06 4.21952e-06 1.89278e-06 -1.39775e-06 -2.64833e-06 -9.87794e-07 -4.72825e-06 
-7.70897e-06 -7.78391e-06 -6.6124e-06 -6.21151e-06 -4.21321e-06 2.22782e-07 4.33293e-06 2.58994e-06 2.39466e-05 
-1.57176e-06 -1.51487e-06 -6.61589e-06 -1.73136e-05 -1.37623e-05 3.32391e-05 0.000126919 0.000111593 -2.14103e-05 
-4.72706e-05 -0.000129717 -0.000502796 -7.32271e-05 0.000263345 0.00011609 -1.98242e-05 -1.34998e-05 -3.45718e-05 
-6.27644e-05 -0.000161895 -0.000120799 -0.000822396 0.00219189 -0.00813333 -0.0343796 -0.00263739 -0.00251761 
-0.0048766 -0.00848783 -0.00445623 -0.00714286 -0.00973108 -0.0137912 -0.0159479 -0.018521 -0.0360471 
-0.0145496 0.0412836 -0.0112409 0.0110839 0.00397923 0.00265464 0.0102615 0.0101027 0.0111188 
0.0137573 0.0137638 0.0147723 0.0165155 0.0351685 -2.91441e-07 1.94198e-06 4.00825e-06 5.86185e-06 
5.5063e-06 3.51598e-06 7.91918e-06 4.41526e-06 -6.12752e-08 1.71849e-06 -3.52122e-06 -1.1977e-05 -5.9822e-06 
-5.20696e-06 -2.18048e-05 -1.29166e-05 -3.68166e-06 -1.7857e-06 2.43283e-06 1.26571e-05 1.05141e-05 -3.5058e-06 
-1.30551e-05 0.00722299 -0.00508094 0.000123628 4.45024e-05 3.88466e-06 4.3951e-05 2.99058e-05 9.76021e-06 
1.65005e-06 1.95919e-05 4.42527e-06 2.35689e-06 5.67144e-06 1.00474e-05 1.77042e-07 2.09429e-06 2.39463e-06 
-5.19912e-06 -3.96225e-06 -1.0094e-06 -1.88094e-06 -3.88443e-06 -1.22886e-05 -1.08712e-05 -1.32854e-05 -1.35151e-05 
-1.0689e-05 -9.82443e-06 -5.5417e-06 -3.32405e-06 -2.87021e-06 -6.20487e-07 6.75421e-07 2.91372e-07 -1.11456e-06 
-2.66951e-06 -1.63644e-06 -5.88569e-06 -1.83318e-05 1.49291e-06 1.32687e-05 1.88303e-05 -1.82722e-06 -4.85936e-05 
-2.63548e-05 4.42104e-05 0.000156646 -2.04744e-05 -6.44632e-05 0.000331172 0.000100679 -0.000259447 -2.52108e-05 
3.04476e-05 3.80822e-05 2.73056e-05 7.15884e-06 -3.1012e-06 -3.8353e-05 -0.000395719 -0.000483625 -0.00356195 
0.0325147 0.0310025 0.00167546 -0.00472016 0.00260223 0.00382636 0.00782828 0.00990502 0.0127551 
0.0124906 0.0163452 0.015039 0.0366106 0.00234717 -0.0499655 -0.000220183 -0.0047449 -0.00503411 
-0.00591757 -0.00490546 -0.0070877 -0.00865382 -0.0129404 -0.0135938 -0.0147987 -0.0257346 -0.0283585 
9.19967e-06 -3.00828e-10 0.00779189 -0.00877488 -0.0116685 0.0163692 0.0285531 -0.0345818 0.021223 
0.0201709 -0.00240698 -0.0197226 -0.0222436 0.00127043 0.000606387 0.000335435 0.000760759 -0.000331533 
0.000637905 -0.000122176 0.000621728 -0.0192164 -0.0212037 0.000120511 0.000522252 0.000394764 0.000359477 
-0.000657843 0.00130014 -0.000796832 -0.000470076 0.00029532 0.00037955 -6.92672e-05 0.000376486 -0.000423482 
0.00182997 -0.000502629 0.00111677 -0.0184363 -0.0202021 -0.000781418 0.000775943 -0.000939659 0.000589907 
-0.001851 0.000179816 -0.0283714 -0.0234562 -0.0235509 -0.0160284 -0.0220696 -0.0213101 -0.0213914 
-0.0246191 1.14156e-06 2.62444e-06 2.69296e-07 -8.11671e-07 -1.02114e-06 -1.30407e-06 -8.7453e-07 5.75486e-07 
-1.65e-07 -1.67652e-06 -4.55037e-07 2.37861e-07 -1.99804e-06 3.43909e-07 1.8737e-06 -8.49695e-07 2.83113e-06 
-7.57547e-07 3.75831e-06 3.7127e-06 4.43172e-06 -1.32096e-06 1.38873e-06 4.80314e-06 -4.17736e-06 -1.00809e-06 
-1.14516e-06 7.21477e-07 -5.82624e-06 -2.56138e-06 1.74401e-06 5.7377e-07 -6.30429e-06 3.46362e-06 5.45696e-06 
4.90178e-06 1.71677e-08 4.42876e-06 1.21141e-06 -4.48702e-06 -7.71279e-06 -3.1956e-06 -9.65974e-06 6.67152e-06 
-1.04515e-05 5.21499e-06 -1.26807e-05 4.58701e-06 -8.20358e-06 -1.92349e-06 -7.05436e-06 2.05367e-06 6.97731e-07 
-1.1423e-05 5.15207e-06 -3.46126e-06 1.49097e-06 -3.46339e-06 1.07966e-05 2.89354e-06 -1.77354e-06 -2.30818e-06 
9.65021e-06 -5.71572e-06 -8.08572e-06 -9.07704e-06 -1.29028e-07 -5.48248e-06 -2.2338e-06 3.8407e-06 5.79102e-06 
5.36153e-06 1.06898e-05 -1.10816e-05 7.4646e-06 -1.61888e-05 -6.69906e-06 2.2084e-06 1.63722e-05 0.00830276 
-8.0757e-06 -0.00380042 0.0148164 0.00557519 -0.00163384 0.000297673 0.00416481 -0.000156584 1.84183e-05 
0.000762354 -4.56726e-06 6.22215e-05 6.0507e-06 1.96576e-05 9.96064e-05 3.82848e-05 -9.20178e-05 -9.59648e-05 
5.66143e-05 -5.05479e-05 -6.46022e-05 1.32098e-05 -4.21267e-05 -3.57178e-05 4.53175e-06 -3.78581e-05 -2.15238e-05 
-9.65006e-06 -1.86772e-05 1.30307e-05 -1.47333e-05 -9.77161e-06 -3.8491e-06 1.11566e-05 -8.31904e-06 -1.6076e-05 
1.59819e-05 -1.31083e-05 -1.8689e-05 -2.11601e-06 -1.62569e-05 -9.38616e-06 -3.97142e-06 -1.2564e-05 3.68718e-07 
7.4927e-07 -2.04603e-06 -3.95217e-06 4.87018e-06 2.96205e-06 -6.47794e-06 7.36837e-06 -7.8738e-06 -8.63435e-06 
-4.54384e-06 -1.05888e-05 -8.97604e-06 -2.05752e-06 -1.25674e-05 -9.98354e-06 2.3263e-06 7.83893e-06 -2.9229e-06 
3.20815e-06 -3.56503e-06 -5.89916e-06 -4.22525e-06 -6.46068e-06 -6.79956e-06 -2.68255e-06 -8.66585e-06 -8.45224e-06 
7.76599e-07 -7.39383e-06 -8.85865e-06 3.64114e-06 4.75323e-06 -3.03631e-06 2.51321e-06 6.08205e-06 7.39219e-07 
6.08794e-07 -8.37984e-07 1.8626e-08 -1.98558e-06 -1.90017e-06 -3.87715e-06 1.79963e-06 -1.49543e-06 -2.32617e-06 
-1.32999e-07 -8.63764e-07 -4.51687e-07 -7.08704e-07 -2.02839e-06 -3.71117e-07 1.86569e-07 8.1011e-07 -4.92177e-07 
1.46055e-06 1.20608e-06 3.25884e-06 -1.23523e-07 -2.21709e-06 3.25925e-06 -6.81737e-07 -5.6264e-06 -2.46874e-06 
8.85813e-07 -1.45504e-06 -1.42579e-06 1.57583e-06 -4.94949e-07 4.41488e-07 -5.88512e-07 -3.49626e-07 9.64143e-07 
-5.63707e-07 -2.39182e-06 -1.43639e-06 1.20648e-06 -8.13549e-07 -8.96679e-07 -1.82778e-07 -7.43593e-07 -1.35829e-06 
-6.1223e-07 -2.53972e-06 -3.36701e-06 2.5384e-07 -6.0652e-07 1.44507e-06 -2.13393e-07 -3.49893e-06 -2.62737e-07 
-7.34399e-07 -1.25202e-06 4.45859e-06 1.61751e-05 1.62789e-06 2.09426e-06 3.931e-05 -5.07175e-05 -1.30826e-05 
5.68177e-05 -5.86092e-05 7.13142e-05 -5.54817e-05 -7.98897e-05 0.000116416 -2.68302e-05 -4.48378e-05 0.000114963 
-1.27799e-06 0.000130372 3.11253e-05 -2.65846e-05 0.000165766 -1.23693e-05 7.15836e-05 0.000120845 8.92524e-05 
0.000241814 0.000198979 0.000139921 4.01678e-05 -7.96172e-05 -7.20325e-05 -1.9493e-06 -7.6294e-05 -2.84806e-06 
1.1605e-07 -3.23046e-05 8.21974e-05 1.08385e-05 2.94931e-05 -1.82401e-06 6.27887e-06 2.99131e-05 -5.90648e-06 
1.59078e-05 3.28821e-05 -2.63266e-05 4.30444e-05 4.6634e-05 -6.04544e-05 0.000112902 0.000179321 -0.000105231 
-8.4769e-05 0.000384488 -0.000111832 0.000595781 -0.000258599 -8.89623e-05 0.00072484 0.00224481 0.000339182 
0.000280952 -0.00791208 -0.00496017 -0.0251988 -0.031271 0.0175894 -0.03146 -0.0223478 0.00487419 
-0.0254915 -0.0231429 0.00671419 -0.0239604 -0.0234159 0.00691881 -0.0224839 -0.0235609 0.00738944 
-0.0228569 -0.030497 0.00738795 -0.028298 -0.0300173 0.00907461 -0.0294524 -0.0216837 0.00769612 
-0.0234766 -0.0217308 0.00712688 -0.0219946 -0.0221982 0.00708925 -0.021621 -0.0236073 0.00689405 
-0.019646 -0.0297135 0.00828551 -0.0318756 -0.0217004 0.00650028 -0.0220191 -0.0207405 0.006951 
-0.0218547 -0.0214101 0.00639865 -0.0215858 -0.0233281 0.00620266 -0.0215358 -0.0296453 0.00681737 
-0.0280027 -0.0295724 0.00910368 -0.028455 -0.021245 0.00716548 -0.0240489 -0.0229935 0.00798338 
-0.0256459 -0.0258991 0.00773398 -0.0282584 -0.036858 0.00770217 -0.0345209 -0.0321467 0.00943831 
-0.0263155 -0.0236787 0.0139904 0.00142757 -0.000986494 -0.00132227 -0.0108616 -0.00214017 -0.000760943 
-0.000101807 -0.00189918 -0.00183762 0.000312986 -0.00306127 -0.00172114 0.00107122 -0.00316682 -0.00243995 
0.000764594 -0.00363569 -0.00269693 0.0013826 -0.0041258 -0.00291136 0.00196514 -0.00483174 -0.00322326 
0.0024337 -0.0025534 -0.00175734 0.000813432 -0.00728734 -0.00606347 0.00461573 -0.0115066 -0.00847918 
0.00101491 -0.00425414 -0.00157115 0.00295175 -0.000972525 0.00291358 0.00507609 0.00309226 -0.00230481 
0.00342935 0.00266901 0.00357385 0.00316267 -0.000985717 0.00482997 0.00372302 0.00442304 0.00422034 
-0.00138486 0.00525327 0.00692745 -0.00200451 0.00690174 0.00274894 0.00204157 0.00224991 -0.00332976 
0.00362099 0.00571121 -0.00425578 0.00703535 0.00879519 0.00738437 0.00372597 -0.00235065 -1.40303e-06 
-0.025479 4.2812e-06 1.11887e-05 0.00781913 -0.0103129 -0.00942679 0.00892639 0.0192078 0.00063638 
-0.0016915 0.00318676 -0.00628676 0.00726664 -0.00608802 0.000181684 0.00233147 0.00385085 -0.00986602 
-0.00544025 -0.00127218 -0.00108253 -0.0010042 -0.00226341 -9.04773e-06 0.00975906 0.000277796 0.00206448 
9.94313e-07 -7.50991e-07 -4.05444e-07 1.44417e-06 2.08465e-06 1.48419e-06 8.61913e-08 6.73345e-08 -1.23842e-07 
-2.16372e-06 -4.61541e-07 3.5907e-06 6.88288e-07 -8.69874e-07 2.29492e-06 3.22073e-06 2.20943e-06 -3.47834e-06 
1.77135e-06 6.59676e-07 -9.04377e-07 -4.08015e-07 1.33465e-06 2.45917e-06 -4.33965e-06 -2.02903e-06 2.15303e-06 
1.70116e-06 4.20524e-06 -5.65217e-07 1.60324e-08 -1.43766e-08 -6.72224e-06 -9.77487e-07 -4.06519e-06 -2.42839e-06 
-3.75999e-06 -4.00729e-06 -1.5851e-06 -5.63773e-06 -2.03596e-06 -4.03749e-06 -3.0956e-06 1.30096e-06 -1.47869e-06 
-6.38442e-06 -4.35899e-06 2.01215e-06 -6.42181e-06 -2.25835e-06 9.50732e-07 -1.96513e-06 -3.63091e-06 -4.26061e-06 
5.31752e-06 3.41585e-06 -4.95473e-06 -2.26041e-06 -8.52413e-06 -3.57766e-07 -1.20493e-06 -1.23131e-06 5.21162e-06 
-6.84417e-08 5.705e-06 -1.35377e-06 -1.99377e-06 -6.7575e-07 -3.34982e-06 -5.37778e-06 -1.02481e-06 0.000114819 
-0.000414721 7.18995e-05 0.000107605 2.14372e-05 1.62404e-05 0.000125825 0.000166055 4.63838e-05 0.0001033 
8.8872e-05 -2.23999e-05 -3.56948e-05 3.02467e-05 3.64106e-06 -8.12259e-06 3.0905e-05 1.63516e-05 1.31672e-05 
7.79179e-07 2.37648e-05 5.09211e-05 -1.72024e-05 1.93625e-05 3.13105e-05 1.70881e-05 1.06903e-06 1.33329e-05 
8.14745e-06 1.0849e-05 1.7727e-06 7.08537e-06 7.63744e-06 1.76294e-05 -1.04986e-05 1.72287e-05 1.96357e-05 
5.72024e-06 9.19758e-06 5.38365e-06 9.36827e-06 1.01959e-05 9.38924e-06 3.86523e-06 1.23589e-05 3.7059e-06 
3.47495e-06 7.03354e-07 4.08247e-06 -5.51744e-06 8.21613e-06 7.49223e-06 4.08507e-07 6.93709e-06 5.51467e-06 
2.49626e-07 1.39667e-05 6.17897e-06 3.13664e-06 3.65892e-06 2.61184e-06 -3.13492e-06 -1.59886e-06 1.35404e-07 
-8.47947e-07 -4.38916e-06 -5.06075e-06 1.56687e-06 3.50243e-07 -4.93956e-06 -6.49051e-07 3.35115e-06 -2.64086e-06 
1.47352e-07 2.9136e-06 1.39074e-06 1.69287e-07 -2.45209e-06 -5.25136e-06 6.73929e-07 -3.86792e-06 -5.03025e-06 
-3.49253e-06 -3.46709e-06 -3.59108e-06 -3.5556e-06 -4.21892e-06 -4.41476e-06 -3.32383e-06 -4.30484e-06 -2.11832e-06 
-2.16786e-06 5.00053e-07 6.91822e-07 2.5142e-06 -1.5426e-06 1.06142e-06 -6.03752e-07 -4.02043e-06 -1.15041e-06 
-3.59285e-07 -4.34364e-06 -1.72676e-06 -7.10102e-07 9.84573e-07 5.41509e-07 1.5562e-06 2.19053e-06 2.37903e-06 
-1.01286e-06 7.93313e-07 1.31733e-06 1.5337e-06 1.63834e-07 4.47353e-07 1.58073e-06 -1.25537e-08 1.91334e-07 
1.01706e-07 2.34649e-07 -6.83766e-07 5.37008e-07 4.34677e-07 1.78057e-06 2.05424e-07 0.0020496 0.0103907 
0.00588776 0.00454421 0.00100812 -7.37255e-05 5.54888e-06 6.21009e-06 3.1095e-05 1.71929e-05 1.30937e-05 
-9.9072e-05 1.26592e-06 -1.06707e-05 -5.40133e-05 -2.09865e-06 -1.54861e-05 -8.69314e-05 -1.79095e-05 -2.26648e-05 
-4.42315e-05 -1.16933e-05 -1.74013e-05 -6.7615e-05 1.29454e-05 -0.000103742 -0.000225163 -0.000119313 -6.96842e-05 
-7.91664e-05 6.18834e-06 8.42918e-06 -2.04431e-06 2.68417e-06 1.95325e-05 2.48201e-05 2.86696e-05 -2.58714e-05 
5.63781e-05 3.08897e-05 -4.55641e-05 0.000108725 2.26184e-05 -6.85921e-05 -7.74551e-05 0.000255238 -6.89423e-05 
0.000235648 6.76633e-05 9.17009e-05 -5.47075e-05 6.86654e-05 4.21349e-05 0.000469549 0.00257495 -0.000280165 
0.00826952 0.00680196 0.00156046 0.00538483 0.00201156 0.000476573 0.00460931 0.00292258 -0.000587503 
0.00362775 0.00371841 -0.00030927 0.002615 0.0039556 -0.000539524 0.00664897 0.00928919 0.000605993 
0.00968245 0.00709831 0.00125704 0.00474654 0.00221773 0.000618247 0.0039679 0.00276838 -0.000556 
0.00267412 0.00396175 -0.000487981 0.00187365 0.00801176 -0.000563752 0.00831013 0.00799032 -8.10545e-06 
0.00540053 0.00467208 0.000416751 0.00443204 0.00221826 -0.00018192 0.00308693 0.0037039 -0.000458726 
0.00277045 0.00395231 -0.000494088 0.00678458 0.0097833 0.000464933 0.0101696 0.00692631 0.001061 
0.00548678 0.00552363 0.000385884 0.00545971 0.00254195 0.000150142 0.00502264 0.00601312 -0.000259952 
0.00891942 0.00932719 0.00675073 0.0012798 -0.00065106 -0.000436108 0.000342862 -0.000783362 -0.000181534 
0.000370512 0.000124387 0.00082331 0.000402236 -5.27428e-05 0.00133185 0.000655068 -0.000128407 0.00153357 
0.00137122 3.9186e-05 -0.000163512 0.00056876 -9.58655e-05 0.00200196 -0.000175819 0.000127686 0.00167163 
0.00109349 0.000245025 0.00308084 -0.000629031 -0.000292864 -0.00210993 -0.00170761 -0.00123857 -0.000398564 
9.64928e-05 1.9283e-05 -0.000889734 -0.00275609 -0.000571953 -3.13134e-06 -1.92702e-06 -0.000799133 -1.1694e-05 
7.511e-05 0.000452988 0.00123799 0.00166061 -0.000195657 0.000239694 0.000413558 0.000172293 0.000269994 
0.000439571 -0.000370849 -0.000160057 -0.000379681 0.000604454 4.40264e-05 -0.000426132 -0.000163158 -0.00024072 
-0.000817526 -0.000449326 1.40673e-05 -0.00016604 -0.000165426 -5.70104e-05 -0.00244168 -0.00263193 -0.000204991 
-1.83321e-06 -5.88381e-08 8.13245e-08 1.47182e-05 3.8175e-06 1.03598e-06 -6.93166e-06 -5.16106e-06 -0.00026955 
0.00101975 -0.000459283 -1.27076e-05 -0.00128182 -0.00100572 -0.000117888 0.000296027 -2.03858e-05 4.55931e-05 
-0.000148587 -9.5893e-05 0.000145776 8.76053e-05 -2.16566e-05 0.000661263 0.000346283 -0.000328309 -0.000118788 
1.63551e-06 -0.000461572 0.0012002 -0.00316487 -0.00123052 -0.000385858 5.48162e-05 0.000198116 0.000746571 
-0.000549647 -0.00066702 -0.00013809 5.47856e-07 3.07583e-06 -2.50228e-07 -2.98114e-08 -4.10077e-07 1.25879e-06 
-4.95901e-06 1.59822e-06 1.83787e-06 1.29384e-06 -7.00201e-07 -2.23857e-06 3.49594e-06 -3.75323e-07 -1.30187e-06 
-3.93289e-07 4.30799e-06 6.05527e-07 -4.44699e-06 1.06863e-06 1.94688e-06 -1.22831e-06 -6.11511e-06 3.61182e-07 
1.60513e-06 1.89192e-06 -3.22215e-06 -7.0994e-07 -9.14298e-08 7.98777e-07 1.54834e-06 -4.95767e-07 8.44422e-07 
1.33699e-06 -1.36202e-06 1.59757e-06 7.90021e-08 7.56689e-06 1.50058e-06 -1.86475e-06 -6.94487e-07 1.20145e-07 
-7.15917e-07 -1.46502e-06 3.24566e-07 -1.147e-06 -7.13668e-06 -1.60331e-06 3.9962e-06 2.64835e-06 -1.44226e-06 
6.37314e-06 4.39678e-06 3.08586e-06 4.71048e-06 7.0071e-06 1.44282e-06 -2.32323e-06 -3.78331e-06 -7.94001e-06 
-2.72652e-05 9.78368e-07 8.26547e-08 -3.4382e-07 -6.44794e-05 7.15757e-05 1.08512e-05 8.31395e-05 2.44807e-05 
-5.85259e-05 -6.4667e-05 8.65907e-06 -1.46507e-05 -1.84529e-05 2.4184e-05 2.02884e-05 6.13966e-07 1.67453e-05 
2.78051e-05 3.94999e-05 -1.42957e-05 1.63176e-05 3.45388e-05 1.98549e-05 1.78394e-05 2.28773e-05 1.94274e-05 
2.60962e-06 1.30482e-05 9.22558e-06 6.35519e-06 7.60541e-06 -2.5799e-06 6.01763e-06 1.0221e-05 -2.02994e-07 
7.82273e-06 1.1904e-05 6.31309e-06 2.84079e-06 6.56561e-06 5.19565e-06 8.84347e-06 1.0552e-05 7.39791e-06 
7.32019e-06 8.4105e-06 -1.27729e-06 1.01813e-05 5.71025e-06 -2.57108e-06 4.40408e-06 6.21883e-06 2.83942e-06 
3.9745e-06 5.28693e-06 3.19029e-06 7.56365e-06 4.23683e-06 5.78379e-06 3.20462e-06 3.08529e-06 1.12803e-06 
5.42327e-06 1.85991e-06 -2.67994e-06 9.90989e-07 -1.10665e-06 -1.85529e-06 1.1783e-06 1.80889e-06 -9.0484e-07 
2.01397e-06 -1.89166e-06 1.12465e-07 -1.30376e-06 -6.29671e-07 1.2568e-07 3.66989e-07 -1.97093e-06 -1.46323e-06 
-2.57075e-06 -3.03803e-06 -2.70577e-06 -1.44124e-06 -1.44577e-06 -3.0931e-06 -3.17407e-07 1.53613e-07 -2.35825e-06 
-8.7146e-07 -1.22937e-06 -5.79158e-07 -1.99801e-06 -9.65455e-07 3.78158e-07 -2.71976e-06 -2.81629e-06 -9.16802e-07 
-2.96923e-06 -1.73111e-07 -7.50308e-07 -1.54893e-06 -1.27924e-06 5.50814e-07 8.47411e-07 1.17803e-06 1.13535e-07 
3.83957e-07 7.32388e-07 1.54285e-06 1.39994e-06 7.6465e-07 1.60983e-06 -1.50996e-07 6.96797e-07 6.30945e-07 
-6.11096e-07 9.46204e-07 3.65614e-07 9.35389e-07 -1.21961e-05 -8.80577e-06 8.18226e-06 -5.94189e-05 3.15708e-05 
0.000204875 4.69166e-05 6.17589e-05 -8.77462e-05 -0.00041806 -0.000135549 0.00105873 6.78022e-05 -0.000236145 
2.02288e-05 8.84751e-06 5.10799e-05 -2.09449e-05 -3.79032e-05 -1.86631e-05 9.20861e-05 -3.05595e-06 -7.30187e-06 
7.58333e-05 -4.03288e-05 2.48504e-05 -1.15241e-05 0.000283315 0.000382832 0.00028199 0.000136821 0.000248549 
0.000169925 0.000395634 1.87328e-06 -2.23748e-05 0.000121963 5.92819e-05 0.000103753 9.11378e-05 -5.49189e-05 
0.000118582 -9.31724e-05 -3.74736e-06 -0.000156885 0.000604725 -8.04883e-05 0.000631088 0.00073667 -3.20797e-05 
0.00062434 -0.000139913 -4.723e-05 -0.000116807 9.20743e-05 -5.64388e-05 4.06585e-05 2.08317e-05 -2.0044e-05 
8.28293e-05 -0.000101012 -1.21739e-05 -0.000191453 0.000351289 -6.93803e-05 0.000321013 -7.50159e-05 -5.54191e-05 
9.88195e-05 -5.93024e-05 -3.15283e-05 5.12677e-05 4.50679e-05 -9.33412e-05 5.79141e-05 -3.39322e-05 -7.11635e-05 
-0.000180336 0.000464485 -8.44047e-05 0.000537131 0.000403147 -6.94308e-05 0.000367329 -8.67723e-05 -9.93676e-05 
5.3789e-05 -7.45808e-05 1.79332e-05 4.93336e-05 0.000328695 -4.95265e-05 0.000463318 -1.73265e-05 2.37902e-05 
0.000176583 -7.26607e-05 7.97101e-05 -1.25717e-05 -0.000111105 -7.71113e-05 -4.00018e-05 -2.247e-07 2.8543e-05 
7.54951e-05 0.000206524 -9.22315e-05 -1.35169e-05 0.000329136 4.08404e-05 5.01821e-05 -0.000120043 -6.13092e-05 
3.10141e-05 -4.05513e-05 0.000136269 -5.5425e-05 -8.46133e-06 -0.00014221 -5.20354e-05 -3.84827e-05 2.16447e-05 
4.5126e-05 1.16232e-05 -0.000113828 -0.000144607 -1.87204e-05 4.26931e-05 0.000172097 0.000394894 -0.000100859 
1.24898e-05 0.000147757 0.000118359 -0.000130831 -3.71144e-05 -1.04274e-05 -2.74603e-05 -0.000144286 -4.46825e-05 
-3.60288e-05 9.84869e-07 1.04894e-05 -3.51498e-05 4.40897e-05 4.61544e-05 -1.8572e-05 -0.000404358 -1.00056e-06 
-3.25226e-06 1.06376e-05 2.71616e-05 -1.85359e-05 -0.00167207 -0.000128112 -0.000296875 3.66365e-05 -1.38563e-06 
-6.10602e-06 -1.53454e-05 1.97699e-05 -2.04634e-05 0.000200909 6.91749e-05 0.000278922 -0.000134164 -1.2098e-05 
-3.04977e-05 0.000152191 2.92797e-05 -0.000218666 -5.73684e-05 -1.01655e-06 0.000120727 8.47201e-05 0.000121103 
-2.1525e-05 -0.000247438 6.17174e-05 4.17009e-05 1.62321e-05 5.5649e-05 -0.000990088 0.000397199 0.000152226 
-4.49775e-05 -5.1665e-06 7.19912e-06 0.000370622 -0.000404155 6.96936e-05 -0.000243888 0.000127458 -0.000249574 
0.000182185 1.79978e-05 2.87196e-05 6.80234e-06 -1.2109e-05 -1.65876e-05 -3.78719e-07 -3.27649e-06 3.10524e-06 
-9.5271e-08 -1.60581e-06 -1.81973e-06 2.7058e-06 -1.72305e-06 -2.73726e-06 2.89003e-06 -3.93392e-07 -3.38466e-07 
-3.58242e-06 5.05409e-06 4.82895e-06 -2.33832e-06 -1.60067e-06 -4.22388e-07 -1.01816e-06 -3.31176e-06 2.33751e-06 
4.14213e-06 1.25318e-05 8.92841e-06 -1.25769e-06 -1.46263e-05 -5.24234e-07 3.84124e-06 -2.89358e-06 2.39285e-06 
-1.19559e-06 2.48659e-06 3.12516e-06 2.80529e-06 1.33384e-05 1.33028e-06 -1.2782e-06 -1.03384e-05 -5.60539e-07 
4.48738e-06 7.75846e-06 -1.54722e-06 2.59207e-06 8.60126e-06 8.66779e-07 5.88451e-06 -4.65574e-06 -1.02103e-07 
6.79146e-06 -5.11192e-06 -1.58591e-05 -5.74711e-06 1.16483e-06 -6.95839e-05 -4.72227e-05 -1.69045e-06 0.00014271 
2.80847e-05 0.00019153 2.22266e-05 1.71711e-05 -4.75326e-05 -5.33159e-05 -1.34957e-05 -2.52037e-05 1.12565e-05 
-1.95776e-05 -2.10325e-05 2.17449e-05 2.38315e-05 2.41211e-05 -4.79555e-06 -8.92267e-08 2.03118e-05 8.21304e-06 
1.07942e-05 1.80893e-05 1.8345e-05 7.97048e-07 3.61148e-06 1.56935e-05 -1.52671e-06 1.3756e-05 1.02661e-05 
5.14209e-06 9.65324e-07 -2.9741e-06 3.45132e-06 6.79114e-06 -1.58128e-06 5.34716e-06 7.55429e-06 9.71898e-06 
4.37679e-06 5.70348e-06 7.65518e-06 4.09835e-06 8.02528e-06 3.85464e-06 3.94906e-06 1.17616e-06 -8.78936e-07 
4.9592e-06 4.1203e-06 -2.29506e-06 1.35184e-06 2.49481e-06 4.09793e-06 3.8941e-06 3.58632e-06 3.47059e-06 
1.37938e-06 1.07411e-06 1.80718e-06 1.17428e-06 3.11068e-07 1.02882e-06 1.89012e-06 4.73108e-07 -1.37363e-06 
-2.00341e-06 -1.16866e-06 7.23148e-07 7.70898e-07 5.91194e-07 -7.42726e-07 -5.19766e-07 -1.29081e-06 -8.85346e-07 
-5.1014e-07 -1.44772e-06 -2.95739e-07 -1.20719e-06 -8.69632e-07 -9.07158e-07 -3.6898e-06 -1.46487e-06 -3.57694e-06 
-1.36538e-06 -5.90984e-07 -2.8078e-06 -3.76621e-07 -2.59936e-07 -9.43359e-07 -2.64351e-06 -5.7608e-07 9.91736e-07 
1.76221e-07 -6.97982e-07 -1.16743e-06 -8.64352e-07 -1.82263e-06 3.30041e-07 -2.03477e-06 -1.31015e-06 2.26024e-06 
2.25773e-07 1.5513e-07 7.70693e-07 -2.72662e-07 7.71612e-07 -3.63177e-07 3.05313e-07 -3.08542e-07 2.1482e-06 
1.85554e-06 3.31679e-07 1.12566e-06 0.000113489 -0.000296909 -9.03039e-06 0.000107197 -9.97289e-05 2.01744e-05 
3.38345e-06 4.98643e-05 7.66924e-05 2.84134e-06 5.7226e-05 -5.88545e-06 8.87327e-06 7.64665e-05 1.4481e-05 
5.588e-06 -8.87492e-06 -4.19666e-05 7.43792e-05 1.17087e-05 8.06229e-05 -2.028e-05 9.66123e-05 3.40552e-06 
2.75299e-06 -2.51483e-05 -1.67757e-05 1.64824e-05 -1.15823e-05 -4.6862e-05 -4.27603e-05 -3.34597e-05 1.15457e-05 
4.93578e-06 1.2188e-05 -1.64007e-05 -3.11665e-05 -2.5567e-05 -4.23089e-05 -1.05002e-05 -3.92276e-06 -2.57434e-05 
9.35461e-06 -1.41113e-05 -8.36874e-06 1.46456e-05 -2.34061e-05 -1.3606e-05 -1.54002e-06 -1.50102e-05 -1.02611e-05 
5.23776e-06 -1.02127e-05 -3.22707e-05 5.91754e-06 -1.35732e-05 -5.14055e-05 2.70057e-06 -2.96247e-05 -3.88988e-05 
-7.28001e-06 -4.08753e-05 -1.11655e-05 -1.87844e-05 -3.112e-05 2.76161e-06 -9.23992e-06 -2.26437e-07 -4.01595e-05 
-2.81174e-05 1.58631e-05 -4.9548e-05 -1.06882e-05 7.83569e-05 -0.000114144 -6.83852e-05 0.000209995 0.000131201 
-5.03162e-05 3.97299e-05 4.95289e-05 0.000136254 -3.84923e-05 2.3936e-05 6.09035e-05 -2.56203e-05 8.02566e-05 
-2.27824e-06 2.12325e-06 1.64799e-06 3.54649e-05 3.32874e-05 4.90503e-05 2.90731e-07 -1.05831e-05 -2.35863e-05 
-4.10551e-05 1.07123e-06 -5.31243e-07 -1.63627e-08 5.17116e-07 -3.13616e-05 1.45243e-05 -5.94308e-05 8.31291e-06 
-3.70001e-05 3.6716e-05 1.40247e-05 1.93177e-05 -6.47319e-05 -8.25371e-05 -0.000186778 2.76429e-05 -9.29565e-06 
9.91977e-05 2.60588e-06 2.51304e-05 -2.10675e-06 -2.48511e-05 0.000163905 -0.000151059 5.64915e-05 -2.69121e-05 
-7.65802e-05 0.000129365 -2.98078e-07 -0.000149585 -0.000239521 -2.32212e-05 -1.33347e-05 0.000107714 7.93328e-05 
7.40954e-06 -0.000166583 0.000301987 4.03374e-05 -2.01332e-05 3.06324e-05 3.08371e-05 1.03054e-05 -5.21738e-05 
4.11809e-05 -1.15357e-05 3.71614e-05 -2.8181e-05 1.74208e-05 -7.01253e-06 -6.85284e-05 -1.88439e-05 -8.55692e-05 
3.04062e-05 -0.00969072 -0.00509704 9.68198e-05 1.16437e-07 0.000126133 7.59149e-06 0.000200809 -8.74598e-07 
-4.09038e-06 -1.23351e-05 -1.09308e-05 1.12761e-07 3.66776e-05 0.000148694 -2.46994e-06 2.31883e-07 -1.79754e-06 
4.96458e-06 7.46434e-07 7.2523e-07 1.82339e-07 3.19649e-06 5.06954e-06 -4.42107e-06 1.00749e-05 -1.33317e-06 
7.77037e-07 6.39328e-06 -3.22231e-07 4.48521e-06 -7.93742e-06 3.12965e-06 0.00546529 1.63029e-05 9.82583e-06 
2.47847e-05 -9.01402e-06 8.61733e-06 -1.42888e-05 -4.15621e-06 -7.8779e-06 3.73162e-06 -5.22008e-06 -7.80625e-06 
-1.94575e-06 -2.27059e-06 -1.44608e-05 5.71623e-06 -1.21909e-06 3.07248e-05 -2.40518e-06 -7.33306e-05 2.89372e-05 
6.42881e-05 1.81058e-05 4.80162e-05 3.04124e-06 1.58037e-05 2.48094e-05 9.12805e-06 -1.23245e-06 4.80678e-05 
2.67438e-05 1.48757e-05 2.41976e-06 1.53751e-05 -9.07088e-06 -6.78758e-06 7.62199e-06 5.79092e-06 1.07583e-05 
1.59636e-05 1.21794e-05 8.19381e-07 -6.71676e-08 1.08151e-05 2.69403e-06 1.1045e-05 4.9115e-06 3.48996e-06 
-2.95139e-06 -5.39122e-06 -6.95366e-07 6.66983e-06 -5.50224e-06 -2.02245e-07 -6.82707e-07 4.79799e-06 -3.38876e-06 
5.10663e-06 7.04633e-06 -2.24898e-06 3.6291e-06 -2.31767e-06 3.09349e-06 4.58269e-06 -3.39367e-06 1.60663e-06 
5.33768e-06 1.28386e-06 3.84005e-07 1.69146e-06 3.19043e-06 -6.71132e-07 2.48716e-06 3.452e-06 -1.4071e-06 
1.77981e-06 -1.6307e-06 2.71629e-06 2.72291e-06 -1.84088e-06 -5.95008e-07 2.67728e-06 4.81787e-07 -1.73979e-06 
1.17449e-06 3.86915e-07 -9.20698e-07 5.24292e-07 -6.63434e-07 -1.65417e-06 1.08519e-06 -7.23615e-07 -4.99732e-07 
-1.73537e-06 3.55299e-06 -1.18226e-06 -1.25775e-06 -4.31362e-06 -4.31814e-06 -1.94756e-06 -5.15977e-06 -2.5628e-06 
4.94956e-08 -3.38658e-06 -1.51457e-07 3.04003e-07 1.36859e-06 -6.20366e-08 6.16179e-07 2.15316e-06 6.86432e-07 
-3.64897e-06 -3.23451e-06 -1.7301e-06 -1.27774e-06 2.16918e-06 -3.2632e-07 -5.00228e-07 -6.34983e-07 -7.26164e-07 
-1.71686e-06 3.88924e-07 -5.00853e-07 -6.9665e-07 3.05931e-06 7.34639e-07 2.06413e-06 1.11265e-06 -5.25121e-05 
5.46457e-05 9.50778e-05 -3.37144e-05 -8.55198e-06 1.69604e-07 8.76713e-05 -0.000120738 -4.79149e-06 -5.04787e-06 
3.02277e-05 5.08459e-05 -0.000106789 2.12604e-05 -9.13446e-06 8.39044e-06 -2.03281e-05 2.2994e-05 7.18946e-06 
-1.2229e-05 6.99164e-06 -1.19673e-05 4.05244e-06 5.86414e-07 6.05743e-07 1.51931e-05 -8.15717e-06 -3.3301e-05 
-9.21078e-07 7.77697e-06 -1.23703e-06 -5.93366e-06 -9.82573e-07 5.64242e-06 -1.0395e-05 -2.18148e-05 -1.15353e-05 
1.71395e-06 1.12043e-05 -1.05366e-05 6.17175e-06 3.37601e-06 -1.51744e-05 -2.57502e-06 9.62827e-06 5.78891e-06 
-3.0348e-06 -3.31752e-06 -2.36582e-06 -1.16062e-05 1.64424e-05 -1.22418e-05 -1.37917e-05 -1.93867e-05 -2.1183e-05 
-1.29127e-06 -9.31941e-06 -2.11203e-05 -3.98561e-06 -1.34009e-05 -2.05218e-05 8.37778e-06 -5.05454e-07 -2.10955e-05 
4.83698e-05 5.92955e-05 7.47411e-06 4.40294e-05 8.13231e-06 -1.27585e-05 2.14186e-06 -1.08613e-06 -8.59457e-07 
8.33947e-06 2.86388e-05 -1.11609e-05 1.26575e-05 5.68801e-05 -7.78363e-06 -4.13249e-06 -2.33793e-05 -5.84437e-05 
0.00015245 7.61835e-06 -1.33809e-05 1.60453e-05 1.77251e-06 2.95873e-05 -7.82595e-05 5.29084e-06 9.08112e-07 
-5.68396e-06 3.32325e-05 -2.21685e-05 5.00395e-05 3.5999e-05 8.31833e-06 1.96088e-05 -5.94561e-05 4.20826e-05 
1.6591e-05 -3.71407e-05 -1.89901e-05 5.47254e-05 -2.16373e-05 2.30869e-05 3.21465e-05 -3.25212e-05 -4.01824e-05 
6.98099e-06 1.75434e-05 5.71979e-06 -1.36575e-05 9.2634e-06 -5.53713e-06 3.36536e-05 3.80304e-05 -2.4195e-06 
1.8781e-06 1.09828e-05 -7.70251e-06 1.15459e-06 -2.84726e-05 1.6955e-06 -0.0142756 -0.0105162 3.75003e-05 
-3.21685e-05 -0.000227106 1.76499e-05 3.19962e-05 1.75611e-05 -9.58168e-06 1.84729e-05 -1.59427e-05 7.78276e-06 
2.25519e-06 1.73272e-06 -4.71862e-07 -3.87266e-06 2.73222e-05 8.39078e-06 9.97151e-06 -1.12168e-06 2.86475e-05 
2.67764e-06 -1.2056e-05 1.43659e-05 -8.37388e-06 3.43877e-05 4.70318e-05 -7.17033e-05 -2.57355e-05 4.01759e-05 
9.05405e-06 2.36009e-05 1.64881e-05 2.05284e-05 -8.53922e-07 4.34686e-06 -5.14243e-06 -4.93181e-06 7.23885e-06 
2.09076e-06 1.05298e-05 1.22317e-05 5.26534e-06 1.68426e-07 1.60742e-06 4.72969e-06 1.20794e-06 5.24341e-06 
2.92764e-06 3.68854e-06 -9.31412e-06 -1.06798e-07 -2.14379e-06 -3.08617e-06 -4.98432e-06 -7.50129e-06 -7.39445e-06 
7.17077e-06 4.08212e-06 8.5783e-06 5.98195e-07 4.89633e-06 -4.78065e-09 -1.92766e-06 6.24804e-07 2.55665e-06 
-3.76253e-06 -1.55709e-06 2.78267e-06 -2.7019e-07 -2.7002e-06 -2.29923e-06 1.0061e-06 -3.24832e-06 8.38668e-07 
2.31205e-06 -1.09183e-07 -1.19925e-06 -1.36601e-06 -1.16778e-08 3.58966e-06 -1.86424e-06 -1.60739e-06 1.07233e-06 
1.23198e-06 -1.46876e-06 1.34231e-06 -2.44521e-07 -2.27228e-06 3.22839e-06 -2.18946e-06 -3.84866e-06 -2.423e-06 
-7.13431e-06 -7.03052e-07 -1.92652e-06 1.85466e-06 -3.47268e-06 -4.1544e-06 -1.617e-06 -4.56123e-06 3.16069e-07 
-1.66052e-06 -9.49786e-07 -2.0318e-06 -4.70707e-06 -3.35996e-06 6.58023e-06 2.50296e-07 5.27505e-06 0.00260719 
0.00577058 -4.83077e-07 -1.00157e-06 -2.03601e-06 -2.78289e-09 -3.39774e-06 -4.32372e-07 8.63957e-08 -1.08902e-06 
1.59338e-06 -1.4681e-06 2.95311e-06 -1.8624e-07 -2.84178e-06 1.57155e-05 8.63506e-06 2.13481e-05 3.48023e-05 
-6.20862e-05 8.9647e-06 1.98074e-07 4.87502e-07 2.88971e-05 1.92492e-05 -1.1821e-05 -2.20073e-05 -2.79329e-05 
-2.7892e-05 1.08661e-06 0.000425972 -2.22529e-05 2.99185e-06 1.86165e-05 1.94219e-05 -2.07093e-05 5.65823e-06 
-8.89899e-06 -2.35488e-05 -3.61332e-05 4.36614e-05 1.42612e-06 0.00240583 0.00424298 -1.28403e-05 1.57036e-06 
-3.028e-06 1.4976e-06 3.26997e-06 5.29325e-06 -1.26387e-06 8.267e-06 1.97591e-05 1.29614e-05 -0.000126718 
-4.10278e-05 8.24843e-06 5.98515e-05 1.9489e-05 -1.4884e-06 1.03925e-05 1.87961e-05 1.85337e-05 -1.45849e-05 
-4.55225e-06 7.41555e-07 9.05842e-06 -1.50253e-06 2.71153e-05 -1.26184e-05 -2.2122e-05 -9.28224e-06 0.00190056 
0.00401588 1.69759e-05 -2.68563e-05 6.8015e-06 -1.84407e-05 -2.02933e-05 2.13176e-06 1.82621e-05 -2.95551e-06 
9.30355e-07 8.54527e-07 4.51438e-05 -5.03166e-05 5.13333e-06 1.475e-05 6.95166e-07 -1.92074e-05 -2.20252e-05 
1.70213e-07 3.40136e-05 6.88572e-06 -6.21455e-06 3.95517e-06 -1.52667e-05 1.11679e-05 6.20074e-07 -9.76074e-06 
2.3208e-05 2.66231e-05 4.65162e-05 -9.19582e-06 1.41683e-05 6.08921e-06 2.45606e-05 4.50326e-05 3.7293e-05 
-6.19828e-06 -2.38824e-05 6.29265e-06 -4.39579e-05 -4.32697e-07 2.4516e-06 4.7788e-06 1.01299e-05 -8.24822e-06 
1.88375e-05 6.66809e-06 4.61423e-06 3.77132e-05 9.59146e-06 1.05693e-06 -4.81526e-05 1.49897e-06 -8.20579e-06 
-2.19793e-05 -3.06836e-06 1.98962e-05 4.36205e-07 -1.50872e-05 5.79034e-05 2.62913e-05 4.23259e-05 1.58452e-06 
-4.89325e-06 1.1119e-05 2.27056e-06 5.78697e-06 -4.63329e-07 5.73925e-06 3.23742e-06 1.20782e-05 7.53991e-06 
-1.3543e-05 -1.52083e-05 -9.5925e-06 -6.55488e-06 -5.78657e-06 5.94833e-06 -7.82788e-07 -1.38462e-07 9.02558e-06 
5.57843e-06 -1.29968e-05 -6.94704e-06 -2.49289e-06 -8.19208e-06 -1.63193e-05 7.71659e-06 0.00582766 0.00113097 
5.29612e-06 4.59837e-06 2.06058e-06 4.62058e-06 -9.37581e-07 7.5145e-06 -4.48029e-06 -9.58869e-07 8.29778e-07 
-1.0367e-06 -1.65683e-06 -9.42639e-07 -7.18433e-06 -5.78339e-06 3.13232e-06 5.08924e-06 8.82958e-06 -4.20316e-06 
2.24521e-06 -7.94221e-07 1.64298e-06 -4.7869e-06 1.39085e-06 4.95407e-06 -4.42118e-06 1.32844e-06 -4.36569e-06 
-6.10755e-06 -6.4806e-07 3.78319e-06 -4.24745e-06 5.64836e-06 -1.29319e-06 -5.06741e-07 -1.35018e-05 -1.53085e-06 
-6.15607e-06 -1.04812e-05 -5.02293e-07 -1.05619e-05 -1.19498e-05 7.10211e-06 -2.78491e-06 -0.00246402 -0.000863267 
-2.93642e-06 -2.02017e-06 1.29387e-05 -5.0786e-06 -4.60565e-05 1.65826e-05 -1.50117e-05 2.7707e-06 1.96788e-05 
-1.50989e-05 -7.24623e-06 2.28954e-05 -2.20126e-05 -2.47035e-06 -4.3498e-05 -1.24523e-05 -1.73632e-06 2.40936e-05 
-2.54884e-06 2.84067e-05 1.58992e-05 -7.72229e-06 1.30906e-05 -1.11839e-05 -0.00323536 0.0013699 5.64336e-06 
1.40653e-05 2.12507e-05 2.90196e-05 5.32845e-06 -2.29204e-06 -2.13514e-07 1.08312e-05 9.25644e-07 5.49974e-06 
-0.000127574 0.00773611 -4.33802e-06 -5.32141e-06 2.03584e-06 -1.75303e-06 -4.51514e-06 3.50949e-06 5.84061e-06 
2.57045e-05 2.0521e-05 1.10737e-05 -2.47166e-06 -2.74628e-05 3.02384e-05 -3.85903e-05 -2.96907e-05 -0.0213139 
1.33023e-05 2.3195e-05 -3.48802e-06 -1.75756e-05 -2.05031e-06 -7.20024e-06 1.35214e-05 5.25224e-06 -1.46614e-05 
-1.10666e-05 3.40072e-05 -4.97178e-05 -3.33034e-05 3.0611e-05 -2.13886e-05 1.34668e-05 -1.13666e-05 2.13343e-05 
-3.7931e-05 -4.35589e-05 -3.35078e-05 -1.72379e-05 4.40016e-05 1.02652e-05 -2.7836e-06 7.32505e-06 1.3653e-05 
5.0183e-06 -1.84555e-06 1.6649e-05 -2.19057e-06 6.36761e-06 -7.94925e-06 4.33662e-06 -3.53047e-06 -1.86665e-05 
-7.55837e-07 4.6345e-06 1.15009e-05 9.35782e-06 3.72392e-06 -1.5869e-06 -1.1318e-05 -2.70786e-06 -3.72065e-05 
-5.58581e-06 2.54604e-05 -2.1854e-05 -3.83438e-05 -2.29956e-05 -1.58537e-05 -3.14021e-06 -2.3088e-06 -1.13369e-06 
2.9296e-05 3.64058e-06 1.31345e-06 -1.68185e-05 -2.49674e-05 -9.58761e-06 3.27664e-05 -4.07342e-06 -1.43006e-05 
-1.28745e-05 6.87066e-07 2.97903e-05 1.04871e-05 -3.37443e-06 -1.61873e-05 -2.55282e-07 -1.20974e-05 -1.05428e-05 
3.93164e-06 -8.03196e-07 1.34439e-05 -8.95103e-06 7.21793e-06 -1.38837e-05 -1.51284e-05 8.87203e-06 1.39078e-05 
-4.33851e-06 -2.41187e-06 5.0989e-06 -1.19399e-05 7.35347e-06 1.13404e-05 -7.7928e-06 -2.42522e-06 5.13285e-06 
1.02163e-05 -3.32317e-06 2.17505e-06 -4.43671e-06 -1.98287e-05 -6.37885e-06 3.65884e-05 -1.46e-05 -1.25295e-05 
2.04941e-05 -3.62731e-05 2.63346e-05 1.0364e-05 -1.38465e-05 3.70276e-06 6.0624e-06 -1.24874e-05 -5.3538e-07 
2.07508e-05 1.40581e-05 6.22944e-06 5.01864e-06 1.48266e-05 9.26292e-06 -1.43957e-06 1.54422e-05 1.5609e-05 
-1.51822e-05 -3.73755e-07 9.67311e-06 3.02999e-05 -5.5826e-06 -2.07451e-05 -1.48866e-05 -9.02835e-07 5.65942e-06 
-1.82605e-07 -1.76094e-05 4.53768e-06 -3.95723e-06 1.1529e-05 -1.6854e-05 -7.80119e-06 -8.91047e-06 -7.85727e-06 
-1.26027e-05 -3.60386e-06 9.84779e-06 2.40729e-05 1.61885e-05 -1.17312e-06 2.76901e-06 8.01046e-08 1.17781e-06 
-3.36214e-07 -5.62457e-07 7.92502e-07 3.20029e-07 -2.35e-06 -9.20723e-07 1.07281e-07 -1.12403e-06 2.84377e-06 
3.96257e-06 2.75077e-07 1.94383e-07 -2.1922e-06 -1.09925e-06 -9.57613e-07 -4.15428e-08 -3.68285e-06 8.87428e-07 
4.88924e-06 1.24679e-06 -1.85794e-06 8.89215e-07 -3.53327e-06 2.11155e-07 -9.01757e-08 5.64738e-08 4.81163e-06 
-2.50343e-06 8.3175e-07 -1.14809e-05 -5.61793e-06 1.62526e-06 -8.71831e-06 -2.30525e-06 4.83381e-06 2.99327e-07 
5.02845e-06 9.69338e-07 3.05437e-06 -3.30782e-06 9.20535e-06 -1.14019e-06 -9.19421e-06 2.91409e-08 1.73936e-06 
-2.22272e-06 6.72074e-06 1.20905e-06 1.23194e-06 -1.649e-06 -3.30447e-06 4.43005e-06 -9.70743e-07 9.94522e-06 
7.66033e-06 -1.15251e-06 -9.5072e-06 7.94981e-06 -7.56915e-06 -5.11423e-06 -0.00392632 -0.00156991 -0.0169825 
-7.16325e-05 -8.97933e-05 -0.00125027 3.27126e-05 0.000120807 -4.5365e-05 4.09558e-05 7.68994e-06 7.66913e-06 
-3.19968e-05 2.52236e-07 4.14129e-07 -5.86567e-06 1.65517e-05 1.13064e-05 7.02277e-06 1.16051e-05 1.08001e-05 
9.8339e-06 1.12662e-05 -1.79583e-06 3.11155e-06 2.43434e-06 6.04452e-06 3.36965e-07 2.61395e-06 5.76813e-06 
1.37407e-06 6.18191e-06 2.11198e-06 3.90265e-07 -3.80742e-06 6.27736e-06 -2.68901e-07 5.54034e-07 3.39339e-06 
2.79846e-06 1.19188e-06 1.55307e-06 -1.13987e-07 -6.43379e-07 -5.07559e-07 -1.45942e-06 -4.43368e-06 1.78015e-06 
3.9965e-06 2.90836e-06 2.5864e-06 1.68014e-06 -3.63939e-07 -1.73566e-06 -1.02073e-06 -3.96268e-06 1.28591e-06 
-5.98124e-06 -6.71954e-06 3.16746e-06 -4.43804e-06 -2.17876e-06 1.06858e-06 2.06722e-07 -1.43581e-06 1.29474e-06 
-3.64214e-06 -5.05028e-06 2.96526e-07 -3.84484e-06 -2.91642e-06 2.75607e-07 -1.42619e-06 -3.45812e-06 6.76785e-07 
-4.1122e-06 -3.34222e-06 -1.6086e-07 -2.04568e-06 -1.36729e-06 5.7534e-07 -1.06653e-06 -3.20258e-06 1.72804e-07 
-3.18267e-06 -2.65412e-06 -2.65116e-07 -7.19441e-07 1.94135e-08 8.1284e-07 2.69919e-07 4.68568e-07 -1.09795e-06 
-4.04579e-07 -2.71524e-07 2.53097e-07 -1.60249e-07 -3.64462e-07 -5.65182e-07 4.33539e-07 -1.15459e-06 3.25075e-07 
0.00735402 4.54878e-06 2.03444e-06 -9.98803e-07 7.07575e-06 -6.9868e-07 -9.58885e-07 2.35307e-06 4.63514e-06 
-1.01403e-05 -2.19514e-06 8.15369e-06 -4.28589e-06 2.65586e-06 1.77103e-05 3.2706e-05 5.30521e-05 -7.34058e-05 
1.73262e-05 -3.72837e-05 -0.000109308 -6.69961e-05 1.86956e-05 0.000108882 -7.18152e-05 1.6787e-05 8.23773e-05 
4.18521e-05 -1.85943e-05 -0.000134685 0.000123709 -5.36093e-06 0.000119994 9.26451e-05 -8.89731e-05 -4.2466e-05 
-0.000214827 -7.50521e-05 -1.73819e-05 7.39805e-05 -4.91387e-05 -2.919e-05 3.60694e-05 -2.62789e-05 -1.90312e-05 
1.33912e-05 -1.36435e-06 -7.32172e-06 -8.69174e-06 1.75309e-05 2.79873e-05 -5.01642e-05 0.000360795 6.73673e-05 
-0.000139612 0.000540153 7.20596e-05 -0.000204612 -0.000204045 0.000331068 -0.000376537 -0.00570043 -5.10538e-05 
-1.80376e-06 0.0174182 0.0288302 0.0346235 0.0118243 0.00407962 -0.0109938 0.0222957 0.0206379 
-0.0123576 0.0202775 0.0187591 -0.00999863 0.019127 0.0198852 -0.010143 0.0209964 0.0218012 
-0.00932845 0.0108243 0.00994506 -0.011319 0.0215375 0.0205273 -0.011556 0.0192805 0.0189122 
-0.00926333 0.0180142 0.0195864 -0.00909728 0.0171588 0.0212514 -0.00894634 0.0192258 0.0180609 
-0.00974523 0.0181457 0.0173724 -0.00724369 0.0170625 0.0177189 -0.00899142 0.0200048 0.020883 
-0.0091647 0.0112157 0.00976198 -0.0109221 0.02233 0.0210961 -0.0113925 0.0228469 0.0206068 
-0.00784535 0.024043 0.0225966 -0.00972569 0.0101822 0.0128412 -0.0124168 0.0147531 0.015443 
0.000951601 0.00242451 0.00100395 0.00142346 0.00227658 0.000126824 0.00051932 0.00016702 0.00142688 
0.00131864 -0.000633986 0.00125853 0.00163567 -0.000410738 0.0015537 0.00163873 -0.000601199 0.0019011 
0.00296854 -0.000713679 0.00241807 0.00308823 -0.00129347 0.000719915 0.00234137 -0.00185181 0.00248634 
0.00549564 -0.00385277 0.00925254 0.013939 -0.0028045 0.0101282 -0.0126521 -0.00542324 -0.00102606 
0.00630295 -0.00120808 0.000196778 -0.000219839 -0.00212361 -0.00106359 -0.00279376 -0.00171415 0.00011269 
-0.00325373 -0.00249051 0.000562821 -0.00516201 -0.00330388 0.000621568 -0.00321146 -0.00231506 -0.00216892 
-0.00339522 0.00401628 -0.00733778 -0.00711773 -0.00575289 -0.00772994 0.00158416 -0.0083217 -0.00763607 
0.00258542 -0.00286642 -0.00506855 -3.1332e-06 -4.5393e-06 3.50208e-07 -3.67795e-05 4.92274e-06 8.52961e-05 
-5.84412e-05 0.000213539 9.95798e-05 0.000124328 -0.0142746 -0.00273792 -0.01117 0.00787957 0.0108946 
-0.00471262 0.00840519 0.00606568 -0.00366096 0.00309941 -0.000299624 0.00588859 5.87211e-05 -0.0086093 
0.00211874 -0.00012457 0.00333037 2.87951e-05 0.00271197 0.00310866 0.00385439 0.000343963 -0.00441355 
6.59145e-08 -0.0154494 -8.39966e-07 -5.97188e-07 1.91815e-06 -9.03007e-07 -4.93563e-07 2.99269e-07 6.70054e-08 
2.60269e-06 1.17316e-06 -1.05058e-06 -1.2955e-06 -1.2162e-06 3.37364e-07 -5.35324e-07 4.88941e-07 2.15812e-06 
2.5943e-06 5.10323e-07 -6.83254e-07 -8.74957e-07 -8.64247e-07 1.06933e-06 2.34039e-06 3.77783e-07 -7.932e-07 
-1.34353e-06 3.91302e-07 -2.77558e-07 -3.02361e-08 -4.2445e-06 -2.33841e-06 2.24518e-06 -1.80288e-06 -5.66682e-07 
1.42423e-06 -2.03125e-06 -7.83674e-08 2.63088e-06 -2.65371e-07 -1.50942e-06 -5.96443e-06 -1.49417e-06 -3.44917e-07 
1.44594e-06 -2.88256e-08 -2.51222e-06 -5.94025e-06 1.98165e-06 1.66597e-06 -4.11166e-06 -2.5407e-06 8.23372e-08 
4.75804e-06 2.58044e-06 7.23431e-07 -9.21106e-06 4.21542e-05 -5.69912e-05 9.14286e-05 -0.000101633 -9.26911e-05 
0.000230775 -6.24186e-05 5.86311e-05 -0.00201741 -0.00186417 -3.94885e-05 5.60659e-05 4.3615e-06 2.37992e-05 
-3.63938e-05 1.9955e-05 2.20306e-07 -1.33035e-05 -1.81798e-07 1.40525e-05 -2.18317e-07 7.15461e-06 -7.0115e-06 
2.64832e-05 -2.34281e-06 7.7957e-06 1.02194e-05 9.29266e-06 3.58428e-06 -4.59077e-06 1.90763e-06 4.26734e-07 
4.56745e-06 4.22408e-06 9.4184e-06 6.33709e-06 7.97968e-06 2.18404e-07 2.67918e-06 6.76395e-06 1.4112e-06 
1.89085e-06 -2.024e-06 3.89983e-06 8.5795e-07 5.84462e-06 1.43001e-06 -2.32361e-06 6.54545e-06 -9.2587e-07 
7.75202e-07 -1.33014e-06 4.4101e-07 3.90009e-07 -2.06676e-06 3.12521e-06 -5.61979e-07 -3.24424e-06 3.87494e-08 
-2.29749e-06 2.72382e-06 2.72157e-07 -2.36392e-06 3.26879e-06 1.42091e-07 1.3413e-06 -2.57783e-06 2.80386e-06 
-2.81458e-06 1.472e-06 -1.97202e-06 -1.95192e-06 -1.16747e-06 -9.03738e-07 1.00895e-06 -1.85706e-06 4.93663e-08 
-9.84631e-07 1.52203e-06 -1.88079e-06 2.26059e-07 -2.69007e-06 4.74262e-07 1.77754e-06 -3.60906e-06 2.95285e-07 
-1.34961e-06 1.86099e-06 -1.49357e-06 1.99846e-07 6.40316e-07 -7.31079e-07 7.59847e-07 -9.0413e-07 9.80731e-07 
-1.40126e-07 4.54592e-07 1.03752e-07 8.68949e-07 1.23206e-06 -3.22402e-07 1.301e-07 4.19833e-06 8.2688e-07 
-2.8111e-05 -5.2124e-05 -2.28711e-06 -1.10648e-05 -9.23523e-07 -1.38397e-05 -6.45403e-05 -8.17498e-06 3.0837e-06 
1.0064e-05 2.69429e-07 2.40423e-05 -2.46894e-05 3.84999e-06 -3.68447e-05 2.93404e-05 -4.9884e-05 -0.000247841 
0.000117523 -2.75438e-05 -5.491e-07 -1.11753e-05 -1.19561e-06 -2.48576e-05 1.34313e-05 3.7177e-05 -4.48782e-05 
0.000192358 0.000109717 -9.17765e-05 0.00040376 0.000103942 5.30043e-05 0.000277325 -0.000223221 0.000193059 
0.00015194 0.000245201 0.000150652 0.0015215 0.000366216 -0.00720982 7.59943e-05 -0.00451701 -0.00165633 
-0.000788815 -0.00336949 -0.00257836 0.000265034 -0.00223395 -0.00342516 0.000512368 -0.00171245 -0.00227972 
0.000344122 -0.00253783 -0.00218285 4.20204e-05 -0.00370763 -0.00187073 0.000377745 -0.00270161 -0.00266565 
0.000491726 -0.00190934 -0.00378978 0.000506636 -0.00210704 -0.00215614 0.000687194 -0.00131535 -0.000901011 
0.000640485 -0.00286212 -0.00209249 0.000568742 -0.00229933 -0.00318523 0.00032754 -0.00184266 -0.00207888 
0.000438256 -0.00229704 -0.00213326 8.88424e-05 -0.00191647 -0.00184366 0.000432101 -0.00383297 -0.00182679 
0.000487054 -0.00159324 -0.00254934 0.000484497 -0.000168204 -0.000558374 -0.00886876 -0.00108092 0.000624075 
0.000201538 0.000600167 -0.000329878 0.000210346 -0.000451753 -0.000139162 -0.000191002 -0.000408587 9.46843e-05 
2.47476e-05 -0.000166424 0.000175892 7.1562e-05 -0.000219897 0.000114337 -0.000347479 -0.000374452 -0.000359488 
0.000424499 0.000472235 -0.000786135 8.29183e-06 0.000490286 0.000349256 0.000475385 0.00028681 -9.9167e-05 
0.00114722 0.000566855 0.000902853 0.00132886 6.6778e-05 0.000462951 0.000696851 0.000860944 0.000804968 
1.08339e-05 -0.000129821 4.00294e-07 3.39453e-06 -5.32852e-07 -4.23374e-07 -3.90689e-05 4.77552e-06 -5.57415e-06 
0.000219839 9.80003e-05 1.1751e-05 -0.00048513 0.000754607 0.0050501 0.000620756 0.000268352 -7.50028e-05 
0.000731552 0.000641987 -0.000155061 -0.00116262 -1.78018e-07 -2.48974e-06 -0.00255872 -0.0012745 -2.83994e-05 
0.000283259 0.000678454 -7.98443e-05 -4.14388e-05 7.47511e-05 1.04747e-05 1.03909e-05 -6.0028e-06 -2.68338e-05 
-0.000248725 5.6233e-05 5.36267e-06 -4.40697e-05 3.57381e-05 -4.04314e-05 -0.000142502 -0.000699561 5.72569e-05 
0.000123177 5.767e-06 0.000147717 -0.000809206 -0.00286026 -0.000225166 -0.000345864 -7.0322e-05 -0.000186072 
0.000808086 0.000569747 0.000301026 -0.000533944 -0.000339951 -0.000260616 -0.000199872 -0.000143532 -0.00121603 
-6.77739e-05 -0.000680027 -4.65877e-05 5.36157e-05 -0.000885815 0.000323078 0.000268765 -1.77634e-06 4.59717e-05 
-0.000249037 0.000589972 -0.000446524 0.00018926 1.82389e-07 4.72773e-07 1.33934e-06 -1.82323e-06 -4.17069e-07 
-9.43313e-07 1.43738e-06 -1.66505e-06 1.83299e-06 -4.39928e-07 -2.11445e-07 2.98589e-06 -4.72063e-07 5.51043e-07 
2.11955e-06 -3.40007e-06 -1.49641e-06 8.27174e-07 2.71923e-06 1.94288e-06 -1.78077e-06 -1.48216e-06 3.03027e-06 
-2.49835e-06 -1.14889e-06 -3.58032e-07 2.81175e-06 2.59857e-06 1.85696e-06 -1.39845e-06 -3.72421e-06 1.4038e-06 
-8.41703e-06 3.16829e-06 5.39857e-07 -8.35168e-06 3.70659e-06 1.89888e-06 -2.61521e-06 -5.92516e-06 8.58072e-06 
8.76857e-06 9.20888e-06 -4.70336e-05 1.50372e-06 -6.82138e-07 5.82331e-07 4.07722e-05 0.000126432 2.38381e-05 
4.65911e-06 -0.000107714 -0.000221392 -8.2301e-05 -1.18102e-05 9.55074e-06 1.81823e-05 -1.81782e-05 2.35706e-05 
1.32723e-05 2.01093e-06 4.43038e-06 9.18152e-06 3.49439e-06 1.02809e-06 6.40678e-07 1.14064e-05 -6.06492e-07 
6.20683e-06 2.54745e-06 7.45812e-06 2.28883e-06 4.61983e-06 4.35266e-07 7.80303e-06 4.28852e-06 -2.33311e-06 
2.23457e-06 7.48837e-06 2.70245e-06 1.5404e-06 3.8517e-06 3.47212e-06 -1.55189e-08 2.76471e-06 8.45354e-07 
2.81465e-06 1.54559e-06 -4.58109e-07 8.15828e-07 2.60026e-06 3.68549e-06 -3.0137e-06 2.0855e-06 -7.81011e-08 
-2.58901e-06 1.33696e-06 3.70709e-07 -3.54987e-07 3.55685e-07 -6.79973e-07 -2.60091e-06 -1.64021e-06 2.35362e-06 
-1.04758e-06 -7.38153e-07 -1.0676e-06 -3.57808e-07 -1.43527e-06 -1.10429e-06 -2.28973e-06 -2.00885e-06 -1.47406e-06 
6.89789e-07 -1.71451e-06 1.15414e-06 9.97117e-07 -1.79389e-06 -2.67821e-07 -2.17846e-07 -1.78688e-06 -3.61585e-08 
-9.58749e-07 1.68138e-06 -5.61559e-07 1.31093e-06 -1.52085e-06 3.1085e-08 1.00138e-06 -7.50806e-07 1.71325e-06 
0.000179461 4.53201e-05 -3.25463e-05 3.72459e-06 7.34194e-06 3.75704e-06 3.93106e-06 -1.1064e-06 2.21414e-07 
1.45928e-06 -1.26073e-06 1.31781e-06 -2.89876e-05 -1.95815e-06 -7.17368e-05 2.3365e-05 2.85271e-05 1.61267e-05 
1.25806e-05 -5.17015e-05 1.85669e-05 6.33906e-06 -0.000134052 -1.44551e-05 7.0143e-05 9.41502e-07 -8.18568e-05 
2.21242e-05 0.000505569 -2.83866e-05 -5.0303e-05 -4.79992e-05 -5.9102e-05 -0.000100355 -6.24406e-05 6.69375e-05 
-3.39845e-05 -6.99019e-05 4.56579e-05 6.15891e-06 -5.2345e-05 2.24328e-06 -2.54938e-05 1.35411e-05 2.67733e-05 
4.42124e-05 3.10526e-05 1.97267e-05 2.91868e-06 5.3735e-05 5.16609e-05 5.41406e-06 5.26197e-05 5.01905e-05 
-4.01534e-05 3.22079e-05 3.58107e-05 -5.39945e-06 -3.0872e-05 -6.39572e-06 -0.000105712 -3.79616e-05 3.86675e-05 
-1.08106e-05 -7.65327e-05 4.73562e-05 6.07323e-05 1.79114e-05 -5.60805e-06 0.000180183 7.66817e-05 -0.000491949 
0.000725459 1.06467e-05 3.89695e-06 -1.33076e-05 -4.27538e-05 5.1586e-06 5.82879e-05 -1.02375e-06 -4.75971e-05 
-9.07533e-06 3.39796e-05 6.0854e-06 0.000138802 -0.000138451 -0.000767036 0.000530971 4.94289e-05 7.32446e-05 
-6.17086e-05 3.78792e-05 -0.0003319 -0.000829182 -1.26962e-05 -4.61472e-05 -8.3133e-05 3.88268e-05 4.84935e-05 
-0.000105345 9.19094e-05 9.72069e-05 0.000162075 -0.000215249 4.8606e-05 4.38682e-05 0.000129881 -5.69626e-05 
8.87844e-06 -8.60178e-06 7.96116e-06 9.79353e-05 4.67749e-05 -1.73155e-05 0.000128655 0.000126621 1.52763e-05 
0.000129363 0.000140731 -4.82345e-06 -5.27329e-05 -1.53072e-05 6.41518e-05 1.92402e-05 9.77851e-07 8.23606e-07 
5.95655e-08 0.000169477 8.26864e-05 6.32357e-05 0.000297351 2.19741e-05 -0.000261304 6.20848e-05 -3.37972e-05 
2.26998e-05 -5.10226e-07 8.32502e-07 3.61281e-08 1.49282e-06 -0.000181203 8.06306e-05 -9.42983e-05 0.000111458 
-4.78625e-06 -3.50217e-05 1.84421e-06 1.10353e-07 -4.11095e-05 -5.04065e-05 -0.000740782 -4.8223e-05 2.36361e-05 
-3.26619e-06 -3.71993e-05 1.57721e-05 9.43353e-06 -4.20475e-05 5.53658e-05 6.17223e-06 -6.31721e-06 9.44195e-05 
0.000154469 5.17912e-05 1.05113e-05 2.57505e-05 5.36357e-05 -3.70206e-05 2.33215e-05 -0.000186477 4.54677e-06 
0.00057536 -4.57258e-05 5.26399e-06 -4.66095e-05 -4.59375e-05 2.71625e-07 -2.18261e-06 3.54662e-06 3.86843e-06 
1.74166e-06 8.93285e-07 1.096e-06 1.56574e-06 9.23794e-07 1.53754e-06 8.15193e-06 -3.44735e-06 -5.53695e-06 
-1.1537e-07 -7.46158e-06 -5.74585e-06 7e-06 -1.09842e-05 -1.41735e-05 1.01145e-05 -1.02688e-05 1.18158e-05 
-3.83922e-06 -6.08165e-06 -2.31749e-05 -0.000306483 0.000170546 0.000123399 -0.000118754 -0.000128493 -1.5275e-05 
1.75581e-05 -1.86816e-06 7.27138e-06 -1.37403e-05 6.56881e-06 8.23473e-06 4.07795e-06 2.73815e-06 7.64881e-06 
-2.56285e-06 1.07541e-06 -1.59874e-07 8.86612e-07 2.20492e-06 2.83115e-06 -1.27243e-06 5.42066e-06 4.16768e-06 
1.47815e-06 1.75938e-06 6.36205e-06 2.56763e-06 1.86724e-08 1.53397e-06 -8.00073e-07 -3.91781e-08 3.12782e-06 
-1.04271e-06 1.33151e-06 1.50974e-06 1.50333e-06 -1.65673e-06 1.79217e-06 5.01325e-07 -5.57157e-07 7.29811e-07 
-1.92864e-07 -9.34606e-07 2.32947e-06 -1.41707e-06 -2.04043e-07 -1.313e-06 4.06366e-07 -2.50048e-06 -2.66073e-06 
1.66931e-06 -1.52997e-06 -3.51195e-07 -9.3992e-07 -1.03677e-06 -1.91825e-06 -1.41993e-06 -1.78145e-07 -2.36583e-06 
-3.27659e-06 5.23967e-07 -1.91523e-06 4.24104e-07 -6.00831e-07 -2.89292e-06 1.23524e-06 -1.17229e-06 1.3762e-08 
2.39207e-07 2.14375e-07 -8.87685e-08 8.34571e-07 1.18331e-07 -1.23329e-06 -7.31351e-07 1.80425e-06 -4.39884e-06 
8.17132e-07 3.474e-05 6.03219e-05 1.90042e-05 1.83957e-05 6.21909e-05 -7.02609e-05 -1.36177e-05 0.0125449 
-1.86146e-05 1.14077e-05 2.1585e-05 -4.62554e-05 -2.43201e-05 2.07047e-05 -3.44486e-06 1.47071e-05 -2.81778e-06 
2.6987e-05 -3.59281e-06 -2.24314e-06 3.22809e-06 -2.57451e-05 1.6248e-05 6.00054e-06 -1.67029e-06 1.00479e-05 
2.93533e-06 1.82761e-06 1.45346e-05 1.38612e-05 2.8495e-06 4.22818e-06 1.59435e-05 3.24241e-06 5.50804e-06 
6.44128e-06 -5.68929e-06 -7.01826e-06 -7.91937e-06 -8.87058e-06 -6.21705e-07 1.06679e-06 -2.25433e-05 -5.31097e-07 
1.23057e-05 2.67695e-06 -2.41603e-05 5.85214e-06 3.76096e-06 -1.95794e-06 -5.66802e-06 -9.95701e-06 5.97638e-07 
2.34682e-07 2.95562e-06 -1.0793e-05 5.9799e-05 0.000365263 -0.000104771 -6.21291e-05 -4.14062e-05 -1.26667e-05 
-2.04086e-06 9.66579e-06 2.69371e-06 2.11928e-06 -6.90016e-07 0.000139511 -0.000162373 0.000181065 -1.54069e-05 
-0.000213731 8.41388e-05 1.06879e-05 -0.00019977 -1.6836e-05 2.64053e-05 6.18037e-06 -0.000296886 7.89238e-05 
2.00593e-05 1.34632e-05 9.84611e-05 3.44493e-05 -2.292e-05 -1.22943e-05 -0.000157534 0.000171017 -0.000156456 
-6.54409e-05 2.58348e-05 9.68719e-06 4.81719e-05 1.30443e-05 2.91249e-05 2.76564e-05 -7.77751e-05 -8.75829e-05 
4.37779e-05 -6.19442e-05 -0.00014512 8.21256e-05 -4.40454e-05 3.83882e-05 -4.31996e-07 1.38105e-06 1.00919e-06 
-3.27634e-05 3.16348e-05 1.84432e-06 8.21576e-09 -9.8505e-06 3.41907e-05 7.04642e-05 6.41597e-06 -1.82004e-06 
7.56136e-07 1.28197e-06 1.25988e-06 2.55527e-05 2.62258e-06 1.30964e-05 3.85797e-06 -3.24866e-08 2.0693e-06 
3.12766e-05 -8.29825e-06 -4.66499e-05 2.13973e-05 7.21002e-05 -3.68355e-06 3.72809e-05 -4.21828e-05 5.34792e-06 
5.34004e-05 4.59365e-05 -2.86505e-05 2.20679e-05 2.87529e-06 2.57681e-05 -3.19912e-05 5.7455e-05 1.27521e-05 
3.06065e-05 -1.07465e-06 1.93829e-06 7.67416e-06 1.51425e-05 2.34941e-05 4.01292e-05 -4.5758e-06 -2.82631e-05 
7.94308e-06 1.45791e-05 4.09446e-06 0.000127752 3.89502e-05 -1.13666e-05 5.1639e-05 -2.65309e-05 2.68719e-08 
5.54512e-06 2.66346e-06 -2.78582e-06 1.61914e-06 -0.00013185 1.37216e-05 -4.20275e-05 -2.857e-05 -5.57263e-05 
8.43524e-06 5.9012e-06 6.09893e-05 -4.28531e-05 -1.20751e-06 3.74289e-06 4.16396e-06 4.65433e-06 -2.90914e-06 
2.83611e-06 3.34632e-06 2.64264e-07 6.12823e-06 -2.61558e-07 1.16412e-07 6.93913e-07 3.36272e-06 -2.97763e-06 
-1.0831e-06 -1.84325e-06 -7.77459e-09 7.11777e-07 -2.56425e-06 -1.61115e-06 2.12222e-06 -6.57842e-08 -4.9159e-07 
7.97985e-07 1.47692e-06 -1.65147e-06 1.41509e-06 -1.88085e-07 -6.80584e-08 9.40421e-07 -1.0665e-06 -2.87707e-06 
-1.17486e-06 1.27149e-06 -1.24806e-06 4.21009e-07 -1.62481e-06 -5.85583e-07 9.98201e-07 -4.59276e-06 -7.24525e-07 
-1.30781e-06 -2.28237e-06 3.10499e-06 -1.51902e-06 -4.90978e-06 3.25736e-07 -2.73917e-06 -5.38597e-06 -2.43925e-07 
-7.21108e-07 2.37452e-07 -2.72514e-07 -8.77533e-07 -1.71219e-06 1.59134e-06 -2.56035e-07 2.30818e-06 1.85313e-05 
2.2264e-06 1.91375e-05 -1.3901e-05 -1.46652e-06 -1.11713e-06 -4.56093e-06 -6.6634e-06 -6.08303e-07 1.93607e-05 
-3.54334e-05 -2.56639e-05 -1.41879e-05 1.91568e-06 -2.25494e-05 -2.19037e-05 -5.79524e-05 2.5419e-05 2.53858e-05 
8.75543e-06 -6.93013e-06 -1.40034e-05 -4.40397e-05 7.02848e-06 3.82313e-05 4.3428e-05 2.31735e-05 -8.10555e-08 
2.26182e-06 -2.48301e-06 1.204e-06 -3.92179e-06 -4.36624e-06 2.79715e-05 -3.20499e-06 6.03562e-06 -9.35256e-06 
1.80353e-05 1.39223e-05 1.71315e-05 -2.54015e-06 -8.01217e-08 -9.58431e-06 9.44506e-07 1.52234e-05 -7.36786e-06 
4.5763e-06 -1.39864e-06 8.79681e-07 1.82555e-05 -3.10411e-05 1.01306e-05 7.68124e-06 1.61592e-05 4.48902e-06 
-4.89289e-06 -5.75518e-06 1.42375e-05 1.1929e-05 -1.0946e-06 -1.91207e-05 -8.65741e-06 -1.10216e-05 3.1714e-05 
1.07479e-05 7.57448e-06 2.76536e-05 4.19192e-05 3.57742e-05 3.32011e-06 -1.64226e-05 5.1434e-06 -0.000116111 
1.90077e-05 9.80126e-06 2.10389e-06 -9.85853e-07 -1.4918e-05 1.16021e-05 6.47219e-05 3.53519e-06 4.96161e-07 
1.22519e-05 3.69314e-06 9.80959e-06 -6.4741e-05 9.25768e-05 3.20577e-05 -5.43585e-06 1.94634e-05 -6.1266e-05 
2.10002e-06 7.45975e-06 1.06073e-06 6.53719e-07 1.79707e-06 1.98881e-05 1.45737e-05 -3.16867e-05 1.50958e-05 
3.07262e-06 -1.97861e-07 -1.74781e-05 1.81125e-05 1.501e-06 -2.82031e-05 -4.85201e-06 -1.49994e-05 -2.81616e-06 
7.15727e-06 1.96222e-05 -1.87268e-05 1.22633e-05 -3.68578e-05 3.01236e-05 5.30484e-05 -4.70329e-05 -1.05465e-05 
2.48131e-06 -1.48844e-06 2.35192e-06 -3.25072e-06 4.5277e-06 -1.83277e-06 -2.7599e-06 8.58344e-07 2.53114e-07 
-3.21248e-05 2.78667e-05 2.7036e-05 7.12334e-05 1.55447e-06 -4.4231e-06 -5.01921e-06 2.05341e-05 -4.48982e-05 
1.58812e-05 8.64099e-06 8.54555e-06 1.24878e-05 7.39343e-05 -8.74722e-06 4.58103e-05 -3.3819e-05 4.8576e-05 
-3.64297e-05 1.61105e-06 -7.14142e-06 4.63562e-05 5.81787e-05 -7.81176e-05 -4.44867e-05 3.41763e-06 1.28531e-05 
8.67231e-05 -7.41254e-05 -2.49888e-05 -7.06845e-06 1.14656e-05 7.15958e-07 -6.32589e-06 -0.000115041 -8.64604e-05 
-2.37644e-06 4.91695e-06 8.64801e-06 1.35316e-05 2.9805e-06 -4.93557e-06 -3.22881e-06 -1.22145e-06 4.03672e-07 
-5.45771e-06 -1.82348e-06 1.5494e-06 -1.02243e-06 -1.29205e-06 7.90503e-07 4.02077e-08 -2.17139e-06 5.99714e-07 
-2.21535e-06 4.7976e-06 1.42063e-06 -1.87977e-07 -6.98289e-06 -3.42602e-06 -6.22287e-06 -1.63984e-06 -2.11777e-06 
7.97427e-06 8.70018e-06 2.73655e-06 7.3161e-06 -6.26607e-07 -3.12737e-06 -5.90544e-06 1.05237e-06 2.89461e-06 
-3.94194e-06 -1.24913e-06 1.73663e-06 -4.15263e-06 1.57756e-06 1.70306e-06 7.20248e-06 9.65902e-07 2.83677e-05 
-7.65389e-06 6.47606e-05 7.34557e-06 -1.94637e-06 -1.75082e-05 -3.34069e-05 -3.42297e-05 -3.03007e-05 1.58199e-05 
1.32307e-05 3.07313e-05 5.2009e-05 2.54138e-05 -2.08888e-05 3.71425e-05 -2.8161e-06 5.60242e-06 1.03783e-05 
2.02927e-05 -1.40941e-05 -3.67781e-05 -1.81762e-05 -2.69435e-06 8.3799e-06 6.58629e-06 -2.22912e-05 -1.87192e-05 
-1.48471e-05 1.459e-05 -2.70047e-05 -2.7373e-06 1.48148e-05 -8.11239e-06 -3.86837e-05 5.82517e-06 2.70063e-05 
1.84937e-05 2.3476e-05 8.65165e-06 4.72577e-06 2.88904e-05 2.02553e-06 2.55132e-05 1.66501e-05 2.54679e-05 
-3.12517e-07 4.25825e-07 -2.8515e-06 1.82033e-07 8.01948e-07 7.42784e-05 9.11618e-06 1.98426e-05 5.12893e-05 
-8.22335e-07 3.19979e-06 -2.64848e-05 -8.57917e-06 -8.94833e-06 3.06421e-05 -2.32296e-07 5.71845e-06 -1.01254e-06 
-3.83007e-05 -5.51874e-05 1.17576e-07 6.8041e-06 6.64242e-06 -1.13454e-05 -0.000102251 1.58816e-05 -3.72076e-05 
4.43193e-06 3.34981e-06 9.06905e-07 -1.47082e-05 -2.81414e-06 -3.90468e-06 9.83551e-08 -5.10789e-07 4.44605e-06 
-1.02482e-05 3.24449e-06 -1.56836e-05 1.72642e-06 -2.22772e-05 -3.41073e-06 -8.73712e-06 1.79888e-05 2.77863e-05 
2.73965e-05 -3.43497e-06 -1.90979e-05 -9.78618e-06 -6.42434e-06 -1.43342e-05 2.13548e-05 -1.1271e-05 1.47053e-05 
1.14484e-05 3.80242e-06 2.33834e-05 6.44955e-06 -8.95835e-06 -4.80001e-06 -9.79182e-07 -3.78247e-06 5.57954e-05 
3.53438e-06 -8.27758e-06 -1.5941e-06 -1.54004e-06 2.65541e-06 1.06094e-05 1.53545e-05 6.57309e-05 1.73351e-05 
2.14634e-06 1.3172e-06 -2.69581e-06 -3.12338e-06 9.10957e-07 3.71491e-06 -3.69625e-06 -4.72748e-06 -5.74568e-06 
-1.23569e-05 -6.23377e-06 6.32049e-06 -1.07209e-05 4.48663e-05 -3.54024e-06 -1.76301e-06 -2.01651e-05 1.18629e-05 
1.5617e-05 2.59846e-06 -2.3809e-06 1.42068e-05 -3.44144e-06 -4.9257e-06 -3.67281e-05 5.4016e-07 1.12349e-05 
-7.87687e-06 5.21434e-06 -1.29886e-05 -6.99137e-05 7.59304e-06 -2.67734e-05 5.78268e-06 2.46318e-06 3.97951e-05 
1.03568e-06 1.08858e-06 5.12845e-06 1.70776e-05 1.88611e-05 6.45288e-07 3.04061e-05 2.87894e-05 4.4881e-06 
-1.61044e-05 -4.01176e-06 -6.68374e-06 -7.23627e-06 1.29256e-05 1.7113e-05 -5.96372e-06 -4.93183e-06 -6.19959e-06 
8.45698e-06 -1.63512e-05 1.08887e-05 -8.11046e-06 4.68633e-06 2.26843e-05 -1.04225e-05 2.07023e-05 2.64885e-06 
4.24215e-05 -1.26958e-05 -1.83958e-05 -3.45944e-06 1.3957e-05 2.51355e-05 -2.78154e-06 5.6158e-06 3.89908e-06 
1.99688e-06 1.63917e-05 -1.594e-07 -2.96948e-07 1.99609e-05 -3.34354e-06 9.32686e-06 -1.49081e-05 -1.04406e-05 
-8.0834e-06 7.22263e-07 3.26391e-05 -2.08967e-05 3.34555e-05 -1.21399e-05 -2.16027e-05 -2.81252e-05 6.34855e-05 
-2.80402e-05 3.48138e-05 -5.85118e-06 1.07106e-05 1.38245e-05 -7.63941e-06 5.25892e-06 -2.13697e-06 1.1165e-06 
1.89036e-05 -7.07757e-05 -1.2248e-07 -1.72452e-06 -4.03487e-06 -4.22995e-05 -2.1527e-05 -1.78608e-06 -1.15238e-05 
-3.60158e-06 1.76682e-06 -1.02335e-05 -2.68672e-06 4.54318e-07 -5.23831e-06 -7.55694e-06 7.48355e-06 8.14376e-06 
1.34337e-05 1.53792e-06 1.95085e-06 9.85116e-06 -5.74084e-06 -1.48527e-06 -4.56162e-06 3.9704e-05 -6.31791e-05 
-1.01873e-05 -1.00171e-05 1.71023e-05 6.6266e-06 -1.23657e-05 -4.2571e-06 -1.54459e-06 -4.63473e-06 -2.30555e-05 
2.37341e-05 -5.58364e-05 7.24819e-06 1.04134e-05 1.92154e-05 5.10581e-06 2.17735e-05 -1.86272e-06 -4.57146e-06 
-1.41174e-05 3.81473e-06 -2.7083e-05 -2.46494e-06 -1.43322e-05 1.86923e-05 -3.00578e-05 1.10777e-05 -2.60719e-06 
1.30292e-05 1.39256e-05 1.64375e-05 1.62658e-06 -6.79916e-06 -9.86129e-06 1.57893e-05 -1.74173e-05 -1.65047e-05 
4.63699e-06 -0.0100712 -9.23876e-07 1.54205e-05 1.15808e-05 -2.82338e-05 2.95756e-05 1.36136e-05 -8.53667e-06 
5.51405e-05 6.93081e-06 2.84153e-06 2.01536e-06 -8.15447e-06 -9.55446e-06 -1.97693e-05 5.10241e-05 -1.51777e-05 
2.34863e-06 9.27421e-06 -4.89461e-06 -1.44725e-05 5.65611e-06 -1.55904e-05 8.89558e-06 -3.34882e-07 2.09132e-05 
9.10801e-06 -8.88986e-06 3.45759e-06 -5.57315e-06 -9.08933e-06 5.70326e-07 3.68006e-05 -2.19472e-06 2.10017e-05 
-5.0257e-06 3.48863e-06 -0.0341313 0.018066 4.38202e-06 -1.46373e-06 -5.90991e-06 4.3527e-06 2.18393e-06 
5.96398e-06 5.58944e-06 -3.73578e-06 -3.91189e-06 -5.97389e-05 1.90395e-05 -0.00010379 -0.000254483 -0.000127598 
7.48553e-05 -7.62941e-05 1.01156e-05 -0.000189378 3.84822e-05 0.000237563 -0.000412741 -0.00112837 -0.000957547 
-0.00142132 0.00224842 -0.000292741 3.76789e-05 -7.93392e-05 -2.43299e-05 3.57182e-05 -7.50482e-05 -0.000171677 
6.32972e-07 3.32935e-05 -1.34134e-05 0.000115741 2.95751e-05 0.00019539 -5.81147e-05 7.29461e-08 5.95924e-05 
-3.55867e-05 4.32311e-05 -3.52418e-06 -2.24064e-05 2.07434e-05 -2.04004e-05 0.0424907 -1.51653e-06 4.10195e-06 
-0.0109463 -0.00378578 -0.00212135 -0.000359153 -6.18298e-05 -0.000143625 -0.000177607 -0.000189838 -0.000125362 
-1.65644e-05 -4.57407e-05 -1.74873e-05 -5.31667e-05 -3.74361e-05 -4.67064e-05 -4.31509e-05 -3.87356e-05 -4.35773e-05 
-4.93959e-05 -2.05626e-05 -2.19118e-05 -2.03266e-05 -1.922e-05 -1.58023e-05 -1.35998e-05 -2.74814e-05 -2.36652e-05 
-1.36956e-05 -1.37041e-05 -1.20672e-05 -7.25124e-06 -8.24312e-06 -6.96112e-06 -1.40783e-05 -1.40825e-05 -1.14116e-05 
-8.91276e-06 -8.45859e-06 -3.74998e-06 -4.03595e-06 -3.87412e-06 -1.27404e-05 -4.31629e-06 -7.85156e-06 -6.9773e-06 
-3.40599e-06 -6.34528e-06 -6.74949e-06 -4.06558e-06 -4.13496e-06 -4.49594e-06 -5.05469e-06 -5.58683e-06 -7.11512e-06 
-1.14493e-06 -1.60154e-06 -2.62749e-06 -4.92432e-06 -4.01469e-06 -2.01145e-06 -2.65648e-06 -2.07458e-06 -1.69285e-06 
-1.60391e-06 -1.15959e-06 2.89418e-07 1.27011e-06 -5.29773e-06 -4.07011e-06 -6.62531e-06 -3.7035e-06 -4.6272e-06 
-8.48867e-05 -4.42256e-05 -2.55659e-05 -1.05072e-05 -1.25746e-05 -3.57819e-06 -5.30155e-06 -2.19775e-06 2.10836e-06 
1.05887e-06 -1.54464e-06 1.69236e-06 -9.41277e-07 -1.50565e-06 -7.00673e-07 -2.55997e-06 -7.45959e-08 -2.20396e-06 
2.30071e-06 -6.10553e-06 -6.1824e-07 -7.20852e-06 2.24908e-06 -4.54191e-06 7.60822e-07 2.36896e-06 -8.07978e-07 
-1.78069e-06 2.93166e-06 -2.61177e-06 9.88631e-06 5.92686e-06 1.28615e-05 -5.45562e-06 -1.18085e-06 1.31021e-05 
9.57073e-06 1.18221e-05 4.303e-06 1.00175e-05 5.15976e-07 -3.76238e-06 2.21976e-07 5.26111e-06 -4.21798e-06 
2.9551e-06 -1.28234e-05 -4.3916e-06 -1.12887e-05 4.896e-06 -2.21325e-06 -4.41112e-06 -3.50059e-06 -3.97674e-06 
2.5384e-08 1.01314e-05 1.7887e-06 0.00167362 0.0129984 0.00502001 -0.00150124 -0.0017527 -0.00175873 
-0.000451887 -0.00166129 -0.00337816 -0.00289092 -0.000777382 -0.000486252 0.000852684 -0.00219737 -0.000888654 
-0.00232175 0.001781 0.000154809 -0.00279995 -0.00888805 -0.00630086 -0.0202734 0.0026491 -0.0324101 
-0.00877934 0.000896726 -0.00409757 0.00182124 2.03454e-05 0.00236028 -0.000239536 0.00113703 0.00218396 
0.00137952 0.00244348 0.00137153 0.000851983 0.00140946 0.00211749 -0.000744329 0.00337022 0.00726309 
0.00502337 0.0107957 0.00515217 -0.0223769 0.0119298 -0.0100377 -0.00933817 -0.000520327 0.00249076 
-0.00231789 -4.22546e-05 -0.00303129 -0.00458508 -0.00339542 0.00331339 -0.00196508 0.00481291 -1.93128e-05 
0.00274392 0.00340642 -0.0035783 0.000675824 0.00145336 0.00746672 0.00339813 -8.60024e-05 0.00355319 
0.00668707 -0.00712126 -0.00586042 -0.00405595 -3.24424e-07 2.55422e-06 1.6273e-06 9.93e-07 -0.00492997 
-0.0101152 -0.00630909 0.00312339 0.00180254 -0.00495406 0.00137971 -3.77423e-05 -0.00285509 -4.56117e-05 
-7.7825e-06 -6.09011e-05 0.00349771 -0.00488892 0.0160439 0.00889815 0.0101024 -0.00463633 -0.00792393 
0.0253291 0.0393434 0.000107208 -7.62425e-05 2.52923e-05 -5.93121e-05 -0.00241937 0.00159875 0.00245955 
-0.00686148 0.0112951 0.0291394 -0.00563018 -0.00555801 0.00184555 -1.9795e-05 1.00238e-05 -3.15737e-05 
1.6577e-05 -0.000104067 1.67317e-05 -5.35356e-05 0.000152839 9.36123e-05 -2.67677e-05 -0.000101854 -3.1508e-05 
-3.14983e-05 6.03702e-05 -3.16004e-05 1.0969e-06 -1.12431e-06 2.79411e-06 4.32728e-06 1.41632e-06 -3.21879e-07 
-4.08527e-06 1.54471e-05 -7.18376e-06 3.35984e-05 -3.97828e-05 -5.09882e-05 3.45632e-05 -6.33696e-07 -1.80785e-05 
1.60737e-05 -1.76946e-05 -1.77722e-07 1.03176e-05 -1.01137e-05 -2.4705e-06 -3.43294e-06 2.10485e-06 1.99153e-06 
1.30962e-05 -7.74535e-06 1.37365e-05 1.91356e-05 -2.98864e-05 -3.36306e-06 -3.16301e-06 2.5787e-06 1.25568e-05 
-3.39675e-06 2.37716e-05 3.91937e-06 3.40727e-06 -1.08367e-06 -0.0040817 -0.00272328 -0.00915627 0.00235478 
3.26592e-05 1.55595e-05 1.03054e-06 -9.28859e-07 2.42332e-06 -4.18246e-06 -0.000190916 -0.00050374 0.00127265 
0.00060255 -0.00152024 -0.00266683 -0.0201172 4.56928e-07 3.74382e-06 1.43334e-06 3.82918e-06 -1.41807e-06 
8.65403e-06 -2.54666e-08 2.04e-06 -1.20983e-06 2.47664e-06 -5.99604e-06 -9.88902e-05 1.58827e-05 3.63351e-05 
-1.54529e-06 -2.54707e-06 3.39355e-06 -2.87945e-06 -1.56523e-06 0.000204629 -1.79365e-05 -0.000431742 -0.00282916 
-1.11303e-05 -1.25448e-05 1.03185e-05 -6.95295e-05 2.76229e-05 -1.22952e-05 -0.000845364 2.86535e-06 -2.39079e-06 
5.12027e-07 -3.13101e-08 1.54944e-06 -9.1843e-07 -0.000137855 -3.08266e-05 -6.5229e-05 -3.79178e-07 -6.33314e-07 
9.0459e-07 3.25435e-07 -7.87179e-07 3.11855e-06 1.28058e-06 2.79742e-06 1.55115e-07 2.31107e-06 -0.000183121 
0.000133913 3.00159e-05 9.22539e-07 -1.10338e-06 -3.70319e-07 -2.71027e-07 1.53783e-06 3.38574e-06 -2.48757e-06 
-2.73201e-06 4.17416e-06 9.97674e-06 -2.53531e-06 6.67694e-06 -1.64423e-06 4.48091e-06 -1.08786e-06 -2.73246e-07 
2.50434e-07 3.0119e-07 1.14573e-07 9.24952e-05 -6.08573e-06 0.000154555 0.000163713 1.16353e-05 -0.000164452 
-0.000560385 -7.26554e-07 4.61192e-06 1.01198e-06 0.0182596 0.0217896 -0.0114185 -0.00920951 -3.53618e-08 
1.45381e-06 1.11837e-06 1.62926e-05 4.29449e-07 8.60303e-06 -5.43861e-06 2.2241e-05 -5.27188e-05 -2.57023e-06 
-5.04332e-05 1.59647e-06 -7.24737e-06 4.76812e-06 5.86046e-06 0.00351624 -6.90713e-06 -1.08608e-05 -4.55094e-06 
7.59523e-06 -1.09356e-05 4.04247e-06 3.39785e-07 -5.51766e-06 7.45208e-05 -0.000676878 0.0210187 0.0212088 
-3.93463e-06 -6.39894e-06 -6.0114e-06 1.22424e-06 -7.75718e-08 -4.21454e-06 3.6245e-06 0.00105092 -9.18771e-06 
1.16265e-05 -5.04635e-05 1.54848e-06 -8.17263e-07 -6.10738e-07 0.000207791 -0.000177981 0.000297601 7.03052e-06 
-3.08682e-06 -2.7194e-06 0.00194931 -0.00378735 0.00204554 -3.91703e-08 -9.00985e-07 -2.26507e-07 4.46713e-07 
2.4298e-06 -5.09627e-06 0.021525 -0.0208375 0.000532809 -0.00375434 -0.00853291 -5.58393e-07 1.35984e-06 
1.64359e-06 8.83148e-07 3.26064e-06 -9.61156e-07 1.55213e-06 4.38873e-06 1.28583e-06 1.55798e-06 4.60718e-06 
3.1454e-06 -2.9069e-06 2.3097e-06 -0.00370528 -0.00206722 0.00127435 -8.0013e-06 4.14621e-07 6.65201e-06 
6.99433e-06 4.00207e-06 6.94115e-08 -1.41859e-06 -4.32388e-08 6.53984e-06 -3.67094e-06 -9.11861e-06 -1.08491e-05 
1.10899e-05 -6.89878e-05 4.22532e-05 1.37952e-06 0.000322326 -0.000104192 4.31151e-06 -1.08598e-05 5.95916e-06 
1.65153e-05 2.32982e-05 1.81031e-05 3.41202e-05 2.23087e-05 1.61782e-05 -4.86525e-06 0.0215304 -0.00217547 
-7.93104e-06 -5.46292e-06 -2.8976e-05 0.000170596 -0.000103826 -9.87449e-05 -1.4707e-06 -8.54845e-07 4.53886e-05 
-5.64177e-05 -3.30288e-06 -2.30113e-06 4.73047e-07 -1.12402e-05 -7.79098e-06 2.90974e-05 -1.08589e-06 5.62408e-06 
-0.000117272 0.000176562 8.98428e-05 0.0208841 -1.42815e-05 -1.81576e-05 8.16003e-06 -4.39324e-07 -4.01982e-07 
3.96399e-07 -1.56158e-05 2.61311e-07 -3.09146e-05 -6.90325e-06 -1.64518e-05 -0.00859518 0.00870237 -0.0127108 
0.00335629 -1.70536e-05 -1.05702e-05 7.03799e-06 -6.78364e-07 5.54617e-07 1.23336e-06 -2.22905e-06 6.04896e-07 
1.83551e-06 0.000164613 0.000317471 0.000326285 -1.53173e-06 -9.01825e-08 -0.000204266 -4.66069e-05 0.000966905 
-0.00081655 -0.000416212 -0.000180086 -1.15723e-06 -8.55296e-09 -9.77423e-05 0.0271836 -0.00018827 0.0209277 
0.00177041 -0.00934454 0.00135693 -7.92486e-06 -1.15162e-05 -1.07613e-06 4.53432e-05 -8.74369e-05 3.23769e-05 
-1.65415e-07 0.000994882 -8.23224e-08 0.00039901 2.59643e-06 -3.55766e-06 3.78056e-06 -4.57647e-06 2.57677e-06 
4.57143e-05 -5.85664e-05 -1.7611e-07 9.28702e-07 -1.48984e-07 -6.79496e-07 -3.10278e-07 -1.5501e-07 1.1093e-06 
1.28907e-06 1.18362e-07 5.69404e-07 -1.13306e-06 -6.31328e-06 -2.28217e-05 2.67373e-05 1.18013e-06 -3.12805e-06 
-5.19748e-06 -0.000236338 -5.68588e-06 -6.28445e-05 1.0247e-06 -4.16051e-06 -2.60453e-06 -0.000180345 0.000881396 
-0.000151028 -3.26382e-06 -4.60024e-05 -3.2732e-06 -6.04052e-07 0.0195843 1.30904e-05 -2.23049e-07 -1.16227e-06 
6.39836e-06 1.2629e-05 -1.74309e-05 -1.16945e-06 2.92175e-06 8.85094e-07 -1.04843e-06 -9.81248e-05 9.80302e-06 
-9.69069e-06 2.06407e-06 8.3648e-07 0.00252524 0.00174277 -0.0230579 -0.00301115 -0.00273011 -0.00966832 
-1.27513e-06 3.64824e-07 7.35829e-06 -1.21649e-05 -1.57343e-05 2.07884e-05 0.000703779 -0.00220879 -0.00226204 
0.00414287 3.94262e-05 -8.27417e-05 -9.93655e-05 0.00010595 -0.000179688 -2.01496e-06 2.15448e-06 -3.72902e-07 
-1.71881e-06 3.77536e-08 2.89519e-06 -1.30744e-06 -0.000236969 -0.000744651 -0.00210264 -2.64724e-06 -1.9091e-06 
-1.05156e-06 1.50989e-06 -3.73439e-06 3.41181e-07 -5.23384e-06 -1.1625e-06 7.93017e-07 7.92476e-07 2.10587e-06 
-2.76517e-06 3.17813e-06 5.32695e-06 4.44734e-06 -0.000117408 -2.50173e-05 9.10217e-05 8.55478e-05 -0.000112078 
-1.96517e-06 1.28852e-05 -1.20497e-05 4.97373e-06 0.00134755 -0.00109427 0.0014258 1.71607e-06 -1.3419e-06 
-2.68103e-06 -2.39056e-06 5.25259e-07 2.2682e-06 -7.0754e-06 -1.67143e-06 6.91439e-06 5.11132e-06 0.00386916 
-0.00182682 -0.00425871 0.00193752 3.19563e-05 -3.60298e-05 7.11164e-06 1.94166e-05 -1.58433e-05 0.000734219 
0.000285947 -0.022035 1.32598e-05 -8.26234e-06 -1.60704e-05 9.47616e-07 -3.66834e-08 -2.45198e-06 1.81904e-05 
3.70705e-05 -1.75904e-05 -7.66263e-06 0.000103943 0.000476564 0.000994738 0.00361911 -0.000910875 -0.00214725 
-0.00211308 -0.000309047 0.00320166 -3.46137e-07 -0.00361781 -0.000229229 -1.45411e-05 -5.66165e-05 -4.16468e-05 
-1.33877e-05 1.5803e-05 1.43483e-05 -1.5492e-06 -2.36156e-06 -0.00010522 -1.21569e-05 2.84471e-05 4.79593e-05 
3.05221e-05 0.000112498 -4.84348e-07 2.02788e-06 1.44296e-06 1.27885e-06 -1.70403e-06 0.000628854 0.000635538 
1.18078e-07 -4.67869e-08 -1.24306e-06 -0.000103968 6.03845e-05 0.000127679 -3.38737e-06 -2.17184e-06 -2.45697e-06 
3.12802e-06 -3.57039e-06 1.85136e-06 -4.30064e-05 0.000114611 -0.0028916 5.13919e-05 -1.46822e-05 3.56291e-06 
-2.06794e-06 -9.97865e-06 -8.06631e-06 5.76164e-07 3.45538e-06 4.37099e-06 -5.85145e-06 7.62725e-06 -1.49591e-05 
3.79132e-07 7.64477e-07 8.94721e-06 1.21234e-05 -0.000105743 0.000802159 0.000373896 -2.90726e-06 1.96684e-06 
3.4497e-06 -9.04386e-06 1.85677e-06 5.55725e-07 1.506e-06 2.88375e-06 9.3742e-07 6.61938e-07 -2.48258e-07 
-3.03588e-08 2.43763e-06 -2.30236e-06 -5.73246e-06 -3.8699e-06 1.43826e-05 -2.18759e-06 5.04368e-07 6.52881e-07 
2.15827e-05 -9.22007e-06 1.53295e-05 7.63412e-07 2.59104e-06 -1.73412e-06 3.91499e-08 -6.24971e-07 -4.18277e-06 
-0.00797316 -0.00612245 4.49026e-06 1.27365e-05 2.26914e-05 -7.07712e-05 1.00624e-07 1.91235e-07 7.62245e-07 
-5.90962e-08 -0.00072683 -0.000132389 0.00025931 -8.60456e-07 -1.27889e-06 -4.18533e-07 0.026031 3.67218e-06 
-6.50578e-06 -1.0416e-05 8.51061e-06 2.61983e-06 2.36716e-05 7.17816e-05 -1.62498e-06 -9.53268e-05 6.2747e-05 
0.000439887 -3.43754e-06 3.0104e-05 4.52559e-06 1.06779e-05 -1.54704e-05 3.05038e-05 -2.68591e-05 -3.71207e-05 
-2.47205e-05 -1.05378e-06 -0.0037576 0.00198244 0.00078699 1.03675e-07 5.90799e-07 8.68748e-07 -7.40023e-06 
-8.04939e-06 -1.73984e-05 2.43982e-05 -1.7681e-06 2.45067e-06 1.56127e-06 1.41285e-06 1.03189e-05 2.2311e-05 
2.26411e-05 -2.17728e-05 -1.24801e-05 -2.77594e-05 -4.5744e-05 3.47158e-06 -8.22682e-06 1.55579e-05 5.31091e-07 
-7.71218e-06 3.70405e-06 8.65266e-07 7.45595e-06 5.42365e-05 3.56642e-05 -1.23914e-05 -1.63687e-05 1.91553e-05 
-6.77699e-06 -2.29174e-06 1.81363e-06 5.82107e-07 5.70278e-06 2.36358e-05 -4.87119e-06 7.41618e-05 -0.000108571 
-0.00403706 2.21445e-06 1.44012e-06 6.47823e-06 -1.07986e-05 -8.86544e-06 -8.75312e-06 6.09614e-05 -1.18108e-05 
-9.66822e-06 -2.22446e-05 -6.16764e-05 1.10043e-06 8.83151e-06 0.000253206 -3.66686e-05 8.70088e-05 6.21485e-06 
-5.52166e-06 -0.000218184 5.83259e-05 -5.25265e-05 -0.000140064 -1.77738e-05 2.11931e-05 -3.70823e-05 2.98073e-05 
-1.28816e-05 -9.87068e-06 1.26277e-05 0.00738712 0.0113286 0.000223366 2.73439e-06 -1.33322e-05 2.71498e-06 
-4.04382e-06 3.28766e-06 2.41548e-05 2.75786e-06 -3.10652e-05 -1.82974e-05 -0.00592751 -0.00582111 0.000447437 
-0.000832375 0.000178514 5.40071e-05 -4.19058e-05 -4.74207e-05 7.08682e-05 -1.45454e-05 -5.42613e-05 8.51836e-06 
1.93057e-05 -1.32394e-05 -7.73436e-06 5.65667e-06 -7.46283e-06 -1.05908e-05 6.25782e-06 -6.09815e-06 6.60295e-06 
-9.69297e-06 0.000354058 -0.00055007 -2.3736e-05 2.74954e-05 1.35409e-05 -0.000109902 5.29029e-05 0.000530381 
-0.00171995 0.00119734 -0.00214491 -3.82495e-06 -2.62333e-06 2.70653e-05 1.74836e-05 -9.9504e-05 -8.22662e-05 
0.000141045 0.000113539 -6.46326e-07 1.01015e-06 -4.5011e-07 1.21268e-06 -2.52895e-05 9.76849e-06 6.49312e-06 
-1.11397e-05 -7.40826e-06 -0.000152681 -6.16518e-05 0.0011081 -0.000183833 3.573e-05 -0.000176299 -4.33562e-05 
-4.05426e-06 -1.93656e-05 -7.82968e-06 3.86877e-07 5.19742e-08 3.61108e-08 9.83345e-07 -0.00226381 0.00100378 
-0.00630776 0.00179234 0.011258 -0.00523553 -1.14689e-05 1.18957e-05 1.32284e-05 0.000197063 0.00181564 
0.0022112 0.000211649 3.90031e-05 0.00016448 5.08867e-05 -1.30098e-06 6.56147e-07 6.50372e-07 -1.37008e-06 
-5.60427e-07 8.75575e-07 6.67009e-07 1.12169e-06 -3.4871e-06 3.62009e-05 -3.11948e-06 6.52159e-05 -1.75801e-07 
6.70124e-07 1.69682e-08 8.16376e-07 3.85413e-07 7.37973e-07 -2.27751e-07 7.74843e-08 7.95418e-05 0.00011653 
-3.15949e-06 -7.21276e-06 -1.45941e-06 -4.1239e-05 -0.000176008 -7.65207e-05 0.00159787 -0.0203503 1.60452e-06 
4.07578e-06 1.76538e-05 -0.000100519 4.86427e-05 -0.000114583 0.00113234 6.8827e-06 -1.59312e-05 -6.88637e-06 
-5.0551e-06 -2.41791e-06 -1.69451e-06 1.32874e-06 -6.48342e-06 5.82177e-06 -1.57209e-05 -1.69154e-05 4.2636e-07 
6.30929e-07 -2.25051e-06 -0.000583337 -6.31647e-06 1.63677e-06 -5.04998e-06 1.32197e-05 -1.33596e-05 -3.7156e-06 
-2.13214e-06 2.32709e-06 4.87155e-06 7.46621e-06 -8.16817e-05 -3.07783e-05 -0.000166263 -0.00019511 8.50816e-06 
1.1254e-05 -2.01375e-06 1.88138e-05 2.98453e-05 -1.68464e-05 -4.73574e-05 -3.30334e-05 1.72926e-05 2.16185e-05 
3.67011e-06 -2.73478e-05 1.22184e-05 -5.43753e-05 -2.15237e-06 1.72546e-06 -4.17033e-06 -1.03745e-05 3.73601e-06 
0.022246 9.24831e-06 1.33927e-05 6.37526e-05 0.000124302 -2.42425e-05 3.69692e-05 8.62735e-07 1.10968e-05 
-7.52745e-07 9.4898e-08 -1.64215e-05 1.44282e-05 -4.97181e-06 1.1885e-05 4.18547e-05 -0.000109463 -3.74904e-06 
8.67667e-07 -5.21584e-06 1.13145e-05 -2.8952e-05 -1.20497e-06 6.9986e-07 9.00301e-06 -4.41701e-05 -0.000115327 
-4.05865e-06 -7.78886e-06 4.0922e-05 -4.16029e-05 -8.89852e-06 -3.98469e-06 -0.0003154 2.47839e-05 -1.30744e-05 
2.6675e-05 1.6831e-05 1.99286e-06 5.62557e-06 -2.83383e-06 -0.000176569 -3.61297e-05 -3.23637e-05 0.000147492 
-0.000187308 -2.00642e-07 1.47036e-06 7.34297e-05 -0.0003275 4.31006e-05 2.12049e-05 -0.00362336 0.000900148 
0.000127537 -0.000127229 4.98599e-05 0.000117601 -2.41638e-06 0.00401798 -5.35844e-06 -1.28452e-05 -2.30596e-05 
-6.57054e-05 -3.42591e-05 -5.11588e-06 -8.08017e-06 -4.25833e-06 5.16928e-06 0.0219422 -0.00900651 -0.0026109 
-0.00372353 0.0225447 0.000796538 3.39243e-05 2.40007e-05 3.27838e-05 -2.03595e-05 1.41706e-05 1.07706e-06 
0.0181197 0.00124958 -0.0198226 -8.02002e-05 -0.000276016 0.0213652 2.26401e-05 1.57117e-05 1.77278e-05 
1.31704e-05 6.53684e-05 -2.8798e-07 1.03033e-06 -1.88088e-07 -1.11065e-06 7.03412e-07 -3.53196e-05 3.12372e-05 
-8.25881e-06 0.00382586 8.01827e-07 -3.68305e-07 -1.417e-06 -7.12929e-07 -4.06393e-06 4.25555e-06 2.39542e-07 
8.17225e-07 1.79234e-06 7.32758e-05 1.07988e-05 -5.50576e-07 -1.24445e-06 1.97625e-06 0.0216487 0.0282115 
-0.00728091 -5.56942e-07 -3.94912e-06 3.19595e-05 -1.80787e-05 -1.3259e-05 -1.09481e-05 -2.83229e-06 1.06189e-07 
-3.13669e-06 -1.18198e-07 -0.00356708 1.96143e-06 1.02573e-05 -7.15989e-06 -1.36497e-05 8.28451e-07 9.44308e-06 
8.7598e-06 -9.51654e-06 -3.94131e-07 1.45948e-05 1.32121e-06 5.14304e-05 2.56554e-05 -2.86111e-06 -4.51128e-06 
-3.30215e-06 5.64895e-06 -1.98379e-06 -6.73301e-06 6.2542e-06 -2.12818e-05 1.52186e-05 8.96611e-06 -4.79408e-05 
6.85574e-06 1.00131e-06 1.12869e-05 8.64942e-06 -7.79498e-06 6.17261e-06 5.883e-07 -0.00685039 0.00248386 
0.00275651 2.20206e-05 -5.1736e-05 6.15237e-06 -0.000113086 1.88287e-05 -9.69754e-05 -6.9415e-07 1.46542e-06 
1.42059e-06 -1.2975e-05 3.70776e-06 6.39925e-06 -3.00161e-05 -6.2598e-07 1.26392e-06 -1.84193e-07 4.90926e-07 
4.48206e-07 -2.01377e-07 3.79068e-07 3.8521e-07 7.20802e-07 1.14811e-06 -3.48904e-07 -3.19441e-06 -1.68323e-06 
1.61935e-05 7.94951e-05 -5.72108e-05 -2.45745e-06 4.28321e-06 -1.65018e-06 -1.44844e-05 -1.27628e-05 -1.841e-05 
9.65685e-06 -4.35085e-08 1.17401e-06 1.05373e-05 -1.03172e-06 -1.30958e-05 1.63873e-06 1.2222e-05 8.64055e-07 
5.1379e-05 -9.8442e-06 2.40226e-05 7.26899e-05 1.06185e-06 -4.60531e-06 4.80116e-06 -2.27795e-06 -9.01724e-06 
-1.38123e-05 4.63646e-06 2.1551e-07 -1.27761e-05 5.12115e-07 3.54876e-06 -1.28594e-06 6.58435e-07 9.13527e-07 
-0.0031442 0.000323007 -5.60762e-05 6.45342e-06 -8.0473e-06 -3.39831e-06 7.82128e-07 -7.75291e-06 -1.6229e-05 
-4.20557e-06 1.33522e-05 -1.31695e-05 1.76787e-05 2.68744e-06 -1.21718e-05 2.51873e-06 1.11903e-05 -1.04874e-05 
-3.43528e-06 -4.5174e-05 -5.58845e-06 8.4179e-06 -3.16808e-05 7.04653e-05 4.19689e-05 -1.25809e-05 -2.82996e-07 
6.77502e-07 2.08518e-05 9.31955e-06 -1.68868e-06 -1.44619e-05 8.68439e-05 -7.31446e-05 6.77816e-05 2.90019e-06 
1.31782e-06 1.29868e-06 1.07305e-06 -2.9178e-05 2.40393e-05 -1.45501e-05 2.48625e-06 -1.73219e-05 1.20746e-05 
-2.00527e-05 -1.73388e-05 -2.63644e-05 1.84806e-05 -5.42707e-05 2.12535e-05 1.72867e-05 -5.80154e-06 2.59297e-06 
-2.60923e-06 2.41268e-06 -3.547e-08 -8.09573e-06 4.52533e-05 -7.3453e-05 1.41326e-05 -8.44672e-06 4.13811e-06 
3.92104e-06 2.39788e-05 7.10113e-06 -2.63071e-06 -5.14922e-07 2.79418e-06 5.3445e-06 2.9681e-06 7.50052e-06 
6.79051e-06 6.20832e-06 0.000143463 1.08807e-05 0.0205653 -0.00859185 4.57794e-06 -6.53412e-08 0.000124779 
-0.000122075 3.0899e-06 -1.67949e-06 -5.71999e-07 4.82812e-06 1.58149e-06 -7.91389e-06 3.4555e-06 -1.36134e-05 
5.81762e-06 1.84801e-05 1.52653e-06 -1.19704e-06 5.708e-07 -8.80467e-07 -2.20997e-06 -2.2502e-06 2.9957e-06 
2.34546e-06 1.21569e-06 -4.53705e-07 -0.000196337 -0.000312576 0.000318426 -5.42297e-06 -1.82252e-06 1.3644e-05 
-9.85467e-06 1.8628e-05 2.94879e-05 0.000163545 -0.000219108 -2.61708e-05 -6.48363e-06 5.08021e-05 1.3022e-05 
-4.53736e-05 -2.80005e-05 -1.27229e-05 -3.93091e-05 -0.0215814 7.90023e-05 -4.04937e-05 6.31861e-05 -4.82067e-05 
-0.000251052 -0.000149882 6.93046e-05 -1.38246e-05 1.15779e-05 7.03664e-06 3.314e-05 -2.40188e-05 -4.56585e-05 
3.18178e-06 -2.50862e-05 6.15316e-06 1.22137e-07 4.53477e-07 -4.01409e-07 -5.16041e-05 -2.50279e-05 1.15295e-05 
-3.40888e-05 9.15693e-06 -1.56734e-05 -3.18412e-05 1.53604e-05 -8.47526e-07 -1.47027e-05 -0.000384787 -0.00130382 
-0.000272218 -5.50205e-05 4.87486e-07 4.06064e-07 -2.80703e-05 -2.44634e-05 -1.59417e-05 -2.10859e-07 8.80779e-08 
6.07434e-08 1.37915e-05 -2.37931e-05 -8.74084e-07 -7.06462e-07 -4.06911e-06 1.10307e-05 9.97263e-05 -3.88864e-06 
-3.88855e-06 -3.30099e-05 6.7637e-06 -1.19331e-05 1.01972e-06 1.09487e-05 1.45101e-05 -1.0539e-05 -7.82629e-06 
1.08389e-05 1.95923e-05 -2.82601e-05 -2.99483e-06 -2.24558e-06 2.82693e-06 -0.000295294 -0.000144169 -0.000518623 
2.38545e-05 -5.94534e-06 -7.37892e-06 -1.48349e-05 3.45036e-05 -0.00012471 -8.29148e-06 -5.7509e-06 7.89601e-06 
3.95504e-05 -1.67923e-05 1.50821e-06 -2.82822e-06 4.7158e-05 -3.05311e-06 5.82991e-06 2.23119e-06 -0.000190059 
-0.000335633 0.000144944 -0.000163849 -1.02389e-05 1.72851e-05 3.17224e-05 7.41357e-05 1.4219e-05 9.87831e-06 
2.58991e-05 -1.19555e-05 -2.87217e-05 -3.56844e-07 2.77234e-06 4.45386e-07 -5.5781e-06 1.8208e-06 -8.38358e-07 
7.851e-06 -1.60235e-06 -3.84176e-06 -6.77154e-06 4.82102e-05 4.38739e-05 2.0803e-05 1.97531e-05 -0.00340017 
1.64747e-06 -1.00696e-06 -2.72991e-06 -7.99526e-06 1.5698e-05 0.000131386 1.10057e-06 4.56725e-06 5.15103e-06 
-4.79969e-06 2.67898e-05 -6.07527e-05 3.21435e-05 8.51929e-05 9.19888e-05 2.08965e-05 -5.77552e-05 1.49079e-05 
1.86664e-06 -7.5722e-07 1.45936e-06 -0.00076837 0.000684638 -0.000378051 3.80118e-05 -5.39509e-06 -0.00413618 
-0.00107082 0.00152991 -3.22405e-06 3.06728e-05 5.52541e-05 -2.52426e-05 -1.2605e-05 -1.5342e-06 -1.16682e-05 
-4.01199e-06 -3.36137e-05 -2.66886e-05 -9.75777e-06 1.2882e-05 -3.36592e-06 1.9456e-05 3.93329e-06 -0.000207284 
0.000241709 -2.30942e-06 -3.62238e-05 -0.00159478 3.22092e-06 2.06048e-06 2.66201e-05 2.25445e-06 -5.35711e-05 
-0.00010835 7.65226e-05 9.24052e-05 -1.29646e-05 4.12878e-05 3.09858e-05 7.97197e-06 2.25375e-05 1.10941e-05 
7.89942e-06 -1.34352e-05 -2.32803e-05 3.08886e-05 -6.59408e-06 -1.11218e-05 1.67344e-05 2.12352e-06 4.15725e-06 
4.54432e-06 -2.46e-05 -3.98274e-06 -1.29431e-05 7.84356e-06 3.53193e-07 -9.67146e-06 -1.00103e-05 1.3304e-05 
4.64396e-06 -4.99757e-06 1.57408e-06 -1.4707e-06 5.94336e-07 -3.66772e-05 -4.63917e-06 4.7138e-05 -1.83383e-05 
-5.55014e-06 -0.000184975 0.000128816 -1.3462e-05 1.63112e-06 -3.39583e-07 2.3177e-06 -6.41443e-06 -1.25577e-05 
1.99862e-05 -4.50218e-05 1.19082e-06 -1.45177e-07 -5.45975e-06 9.17209e-06 -1.7292e-06 -2.62219e-06 -1.25005e-07 
1.19134e-07 8.20836e-07 1.07482e-06 -0.000143726 0.000102565 2.2421e-05 -1.17726e-05 5.17912e-06 3.61599e-07 
-6.90693e-06 3.89605e-06 -2.13998e-06 1.47567e-06 -2.34686e-06 1.40501e-06 1.38904e-07 -5.02473e-07 -6.23938e-07 
-9.2684e-06 1.09275e-05 1.4179e-05 5.96093e-06 1.1049e-05 -1.63475e-05 -8.68885e-06 3.93244e-06 1.24195e-06 
3.18498e-06 7.53876e-07 4.04856e-05 4.98805e-05 0.000137479 0.00116304 0.000906457 0.000314354 4.328e-05 
0.00169413 -4.10295e-06 -4.01734e-06 4.16249e-06 -7.81863e-06 -4.00613e-06 4.26162e-06 -0.000232 -0.000217677 
7.31043e-05 -3.72863e-06 -5.47197e-07 -1.40217e-06 -0.000130848 -0.000128496 3.28804e-05 -8.95824e-06 -6.98141e-05 
0.000648212 3.89126e-05 1.99601e-05 4.52727e-06 -9.90747e-06 0.0130973 -0.0308939 0.0156025 -0.0273651 
1.06839e-05 -1.38053e-05 -2.64431e-05 1.01549e-07 7.98415e-07 1.00348e-06 -2.3643e-06 9.08519e-06 -3.0653e-06 
-1.68178e-06 -2.88683e-06 -4.62383e-06 -2.06514e-05 1.88669e-05 -2.89357e-05 1.21735e-06 -2.48478e-06 -1.48475e-05 
1.52627e-05 2.04403e-05 5.0073e-06 8.6462e-06 -7.22699e-06 -1.65106e-06 1.59982e-06 -9.19772e-07 1.62365e-06 
9.52961e-07 7.71357e-07 -7.39097e-07 -5.99856e-06 -8.54023e-06 -6.09199e-06 7.82501e-08 1.90153e-05 -1.70672e-05 
5.12716e-05 1.28359e-06 -8.37783e-09 1.66697e-06 3.89746e-07 7.22989e-05 1.24243e-05 1.56328e-05 -1.00436e-05 
0.00576852 0.00708609 1.96292e-06 2.86685e-06 -0.000240615 0.000128299 0.000169006 7.03449e-06 1.91634e-06 
-1.50095e-07 -7.81601e-07 4.54133e-06 6.98508e-06 -2.07045e-06 2.18903e-06 0.0221061 -0.0215285 -1.40898e-05 
-0.000678458 1.35997e-05 -7.24229e-05 -0.00408472 -1.26716e-06 -8.69299e-07 5.5643e-05 -1.74873e-05 1.07561e-05 
-0.0121746 0.000169432 -0.000545434 5.09374e-07 6.73914e-08 -0.000766834 0.000139789 -0.000159366 -2.12055e-08 
-0.00013337 3.21e-05 -8.27975e-05 -9.27712e-07 2.84927e-05 1.41752e-05 5.12393e-06 -1.56109e-06 2.06874e-06 
0.000127265 -0.000185055 4.40982e-05 -0.000201335 -2.68027e-05 -2.55618e-06 2.3923e-05 -5.10493e-08 -2.50474e-06 
7.87877e-07 6.43874e-07 1.43942e-06 -5.08394e-05 -2.78969e-07 4.9524e-07 1.74995e-06 2.98085e-07 2.2187e-07 
5.14986e-07 -1.49664e-05 -4.70582e-05 -2.10529e-05 9.06404e-07 4.66492e-07 1.56688e-06 0.00754511 1.57055e-05 
3.91651e-08 -7.59019e-07 3.32372e-06 2.05581e-06 1.93841e-07 2.71615e-06 1.14642e-05 -5.8216e-05 -3.52068e-05 
1.10469e-05 8.55703e-06 -1.08184e-05 -8.99907e-06 -7.77727e-05 9.87733e-05 0.000105589 5.35752e-06 0.00181674 
0.00476147 -0.00190599 5.27435e-06 2.54892e-06 2.80257e-06 3.1414e-07 -0.000120642 3.67499e-05 2.79053e-05 
-2.53331e-05 -3.56439e-06 2.6834e-06 7.33307e-08 3.2657e-06 2.12222e-06 -3.50363e-06 -1.86894e-06 -1.03901e-06 
0.00150144 0.00107303 -0.00230157 -8.89989e-06 -6.35755e-06 2.57054e-06 -2.6328e-06 -0.000117121 -0.00127999 
-0.000106139 0.000261721 0.00283664 0.000377313 -4.3009e-05 9.58447e-06 1.22637e-05 5.97094e-06 0.00676235 
-0.00756236 -0.00789988 0.00590713 -0.00019592 2.6733e-08 2.72246e-06 -2.32769e-05 1.63558e-05 -2.32419e-05 
0.00035244 -0.000701637 8.76013e-07 1.90607e-05 -7.47967e-05 -2.18531e-06 -3.37545e-06 -8.49689e-06 2.61397e-06 
-0.000190935 1.21379e-05 1.34708e-06 1.66373e-06 1.0371e-06 -1.44425e-06 -0.00190709 -0.00391937 0.000334059 
-7.71087e-06 4.11179e-05 2.3027e-05 0.00259796 -0.00245604 -2.23129e-06 -3.38415e-05 8.24764e-05 -2.38652e-06 
-1.50881e-05 -8.15862e-06 3.0358e-05 -1.43026e-05 -3.79047e-06 -1.51613e-05 -0.000181167 -6.35147e-05 0.0212443 
-0.0200901 1.32956e-05 0.00503959 0.00511815 -4.33462e-05 2.27395e-05 2.04926e-05 -0.00346988 5.62793e-05 
0.00106828 3.25361e-05 2.49522e-05 2.42458e-06 5.5938e-07 -7.38135e-07 1.1306e-06 1.60824e-05 5.16118e-07 
-4.91823e-07 -1.26161e-06 1.57184e-06 6.92173e-07 7.25043e-07 9.87088e-05 -1.55353e-05 4.00272e-05 -1.39388e-05 
0.000578992 0.00100098 -1.60293e-08 5.11884e-08 -8.63968e-07 2.6207e-06 -2.22653e-06 -4.53051e-07 6.43032e-06 
2.53807e-06 3.34666e-07 -4.7161e-06 -3.69522e-06 9.91639e-08 -2.71787e-07 -2.01218e-06 -1.27157e-05 7.13901e-06 
4.19069e-06 1.19327e-05 -4.20973e-06 -1.37672e-05 6.68246e-06 8.6051e-06 -8.87903e-06 9.06702e-06 -1.06468e-05 
-1.52391e-05 1.07134e-05 -1.30336e-05 5.26711e-06 8.26893e-06 -1.29603e-06 2.88677e-07 9.31992e-07 3.32866e-07 
-6.52074e-06 -2.30543e-06 -5.40265e-06 7.58224e-06 -6.38578e-06 -3.65455e-06 -4.41036e-06 2.21651e-05 -0.0164454 
0.00624508 -2.28157e-06 -2.46155e-07 -2.4216e-07 5.20359e-06 -7.56198e-07 3.59921e-06 -0.000151234 -2.00329e-05 
-0.00171847 -2.72036e-05 -4.77745e-06 0.000844261 -0.00023927 -6.28401e-06 6.16963e-06 -1.24943e-05 1.24471e-06 
4.82277e-07 7.57808e-05 4.3282e-05 -6.23833e-07 5.37282e-07 8.64311e-05 -3.00483e-06 1.74417e-06 9.16932e-06 
-6.12982e-06 0.000108602 0.00064865 -0.000168067 -1.10726e-05 -2.08635e-06 2.56374e-06 2.08438e-06 3.82863e-06 
-5.39403e-06 2.90068e-05 -0.011487 -1.68393e-05 -1.31729e-05 1.65462e-06 9.8639e-07 -2.87285e-06 -6.12257e-05 
6.31547e-05 1.50545e-06 1.59241e-05 2.64123e-05 -2.22422e-05 0.00446795 -8.9396e-07 1.36202e-06 3.5765e-05 
0.0010312 0.00387779 -7.07094e-06 8.14267e-06 -2.43374e-05 2.5306e-05 -0.0012388 -2.83508e-07 -1.82643e-06 
5.854e-06 -5.37115e-07 -1.52818e-05 5.87932e-06 -6.91555e-06 5.33338e-07 -1.50553e-05 -1.86082e-06 2.67294e-06 
1.05476e-05 1.84268e-07 0.00142287 -0.000166873 -9.83539e-06 5.28378e-05 0.000126519 -7.60388e-07 2.50175e-06 
8.69452e-07 3.05808e-05 1.60644e-05 -8.08698e-07 -7.32121e-06 3.81285e-06 -4.27782e-06 8.66367e-06 -1.09985e-05 
-4.97553e-05 0.00020166 7.26765e-06 1.31484e-06 2.14904e-05 1.10284e-05 3.23027e-05 -0.000115838 4.9663e-06 
-1.93431e-05 -4.47402e-07 1.29063e-05 -1.11578e-05 -3.62178e-06 -2.09326e-06 1.54873e-06 5.57749e-06 1.39099e-05 
7.3268e-05 -0.000243586 1.45163e-05 2.47307e-05 2.45604e-06 -1.15914e-05 -0.000103202 0.00415787 -1.07667e-05 
4.71478e-05 -4.06553e-05 -0.000134848 -2.47222e-05 -2.41969e-05 -7.76278e-05 -2.52148e-06 -3.03286e-05 3.073e-05 
2.86415e-05 0.0228019 -0.0206712 -0.00263944 0.000730676 1.20995e-05 -6.74727e-05 0.000369268 -1.63555e-05 
7.95449e-08 1.60427e-05 5.96734e-06 1.85743e-05 -7.90014e-06 1.27211e-06 -2.55762e-07 -9.00801e-07 1.13026e-05 
-8.69096e-05 -2.06097e-05 -4.37313e-06 2.17109e-05 -1.96834e-05 1.43468e-05 -1.07341e-05 -7.40059e-07 -1.23177e-05 
8.75131e-06 1.40749e-05 1.17658e-05 -1.02503e-06 0.000484892 8.96982e-06 4.06518e-05 8.02763e-06 -6.1492e-06 
-1.30058e-05 9.13213e-06 -3.2874e-06 -8.06235e-07 -4.37368e-06 7.97686e-06 -1.1926e-05 -2.56486e-05 -6.16725e-07 
1.72818e-06 9.58597e-06 -1.15336e-05 1.76883e-06 1.39287e-05 2.66815e-05 -7.47609e-05 -1.1177e-06 2.10992e-06 
9.57983e-06 -0.00307594 -5.12504e-06 8.59819e-07 2.14559e-07 9.17618e-06 0.000211159 3.76499e-05 0.000631365 
-8.6427e-06 1.47203e-05 -1.20189e-05 -6.50097e-06 1.30623e-05 -3.1666e-06 -5.86324e-06 3.12506e-06 2.85674e-07 
0.000204319 -0.000196107 0.000169782 -0.00163748 0.00473843 -2.19628e-05 -1.05237e-05 1.14722e-05 1.30366e-05 
-5.44544e-06 -1.37608e-06 2.10181e-05 1.24993e-06 2.5199e-06 3.55104e-06 -2.26788e-06 -7.166e-07 9.81124e-07 
-4.25654e-05 3.11037e-06 8.32415e-05 -2.58652e-06 2.91117e-07 2.48683e-05 -1.80143e-05 3.93139e-05 -2.43121e-08 
-1.20965e-05 8.74936e-07 -0.00133266 0.000961911 0.0030714 7.79688e-06 -5.98339e-05 -5.01184e-05 -9.06232e-05 
8.29799e-07 -2.83741e-05 2.43551e-05 -1.29873e-05 8.6953e-05 6.15763e-06 -1.3686e-05 -1.73119e-05 -0.00400507 
0.000218601 4.85228e-07 5.64024e-05 -1.50038e-05 1.6536e-06 3.1317e-06 -2.8014e-06 -1.86242e-05 -8.73889e-06 
-1.23364e-06 2.67849e-05 4.20888e-05 -3.14965e-05 4.97024e-06 -4.02022e-06 1.13693e-06 3.98289e-05 1.42588e-05 
1.76493e-05 1.07665e-05 -7.68622e-06 1.59564e-05 -1.085e-05 1.23933e-05 3.59359e-06 1.20154e-05 2.01315e-05 
2.85529e-06 1.72668e-06 -5.1034e-06 -3.41231e-05 2.70698e-06 1.26451e-05 -3.18745e-07 1.16452e-05 6.75908e-06 
3.63039e-06 -8.16905e-08 -1.23411e-06 8.00466e-07 -0.000209668 -1.83222e-06 -4.00393e-05 4.04861e-06 -7.93115e-06 
4.10838e-06 -0.0060181 4.90783e-05 0.0040205 2.5112e-05 2.54956e-07 -1.94072e-06 0.000358378 0.000957322 
0.000787368 -0.000211637 0.000146242 2.04972e-06 2.7091e-06 3.48105e-06 -3.47981e-05 -2.15178e-06 5.48319e-07 
2.59662e-06 -8.17202e-07 9.60187e-07 1.49785e-07 -4.52499e-07 9.20912e-07 -2.90318e-05 0.000108824 0.00044232 
-0.000529068 8.10981e-06 0.00272673 -1.13566e-07 1.35737e-06 -0.00171135 -0.00298704 -4.71744e-07 1.15341e-06 
5.66714e-06 4.96249e-07 7.37978e-06 -2.19837e-06 7.40932e-05 0.00425692 -0.00385077 -0.000249597 -0.000384484 
5.0593e-05 8.74335e-06 -6.00906e-06 -5.23617e-06 4.45674e-06 1.03829e-05 9.17466e-06 9.86769e-06 1.24291e-05 
0.000184057 7.28123e-06 5.96993e-06 -7.72495e-06 0.00286077 -0.000243654 0.00445698 -0.00401383 0.000561293 
2.20748e-06 -2.22179e-05 -4.3616e-05 3.99588e-07 0.000314831 1.04511e-05 -8.56529e-06 -5.44639e-06 -0.00891062 
0.0014534 5.98203e-06 1.93112e-05 -1.4764e-05 1.08857e-05 1.08731e-05 7.05795e-06 -1.31093e-06 -9.00838e-06 
9.43795e-06 6.55257e-06 -5.93955e-06 1.97451e-05 -3.73216e-06 -1.51994e-06 7.67905e-07 -1.49601e-06 6.61478e-06 
7.39726e-06 1.86286e-06 -4.08573e-08 -3.97047e-07 4.46962e-06 -4.14556e-06 4.4814e-05 3.39311e-06 2.66314e-06 
1.33783e-06 1.22358e-07 -2.21071e-05 5.97638e-05 0.00150011 -9.5021e-06 -8.11718e-06 8.60495e-07 6.4811e-06 
7.30041e-06 0.000512768 -0.00014223 0.000851547 1.35714e-06 7.7678e-06 7.53764e-06 7.75706e-07 -6.24769e-06 
2.9029e-06 4.64416e-06 3.56773e-06 -4.13588e-06 -2.04264e-06 2.27929e-07 -5.77739e-07 7.426e-08 2.55204e-07 
-8.32102e-07 0.000121935 -0.000105942 8.90768e-05 -0.000211095 0.000399883 2.52424e-05 0.00013369 4.94544e-05 
-8.39184e-07 -2.7573e-06 -3.61214e-07 -0.0210083 -0.00508603 -0.000148204 -5.03656e-05 2.57353e-06 -1.74472e-06 
-0.000208788 4.57684e-05 0.000735689 0.000364679 0.00402449 0.000419752 -1.99859e-06 -0.00349514 0.00252074 
-3.2071e-05 0.00014381 -6.02912e-05 9.35461e-06 3.85339e-05 -1.6783e-05 2.77648e-06 -3.26706e-07 -3.2633e-07 
-2.03369e-08 -1.62443e-06 4.26218e-06 -2.31935e-06 2.36852e-06 6.19839e-06 0.000113613 -0.00218273 4.09353e-07 
7.23949e-07 -7.12864e-06 -2.62659e-06 0.000436542 -0.000166475 -1.25348e-05 -0.0196541 0.0208164 -9.66232e-07 
1.58728e-05 -3.45978e-06 -0.0085238 0.0269728 1.59909e-05 -3.60427e-06 0.000113034 5.94121e-07 5.28245e-05 
-1.24188e-05 -8.54858e-05 -2.11767e-05 0.000151023 -8.50267e-05 6.16418e-06 4.56311e-08 3.08545e-07 -1.39066e-06 
-5.40138e-07 -1.16596e-06 2.59131e-05 1.47468e-05 1.52822e-05 -1.96563e-05 1.13503e-06 3.34223e-05 2.23851e-06 
-1.95258e-06 2.93748e-06 1.75314e-05 0.000140946 -0.000115219 2.04333e-05 -8.87801e-07 2.44107e-06 -9.20766e-06 
1.94953e-06 -1.93e-05 -4.09824e-08 6.68311e-07 5.07368e-07 -1.88631e-06 1.84336e-05 -7.14972e-08 -4.66884e-07 
6.00596e-08 6.86017e-05 -2.48685e-06 1.68195e-05 6.00577e-06 -0.000320815 -0.000400582 -0.000199322 -5.54792e-06 
1.5333e-06 3.94048e-05 1.45162e-06 -1.77355e-05 3.01215e-05 -2.28446e-06 -5.01312e-08 7.79928e-06 -3.27625e-05 
-1.50212e-05 8.61257e-06 1.70803e-05 -1.17692e-05 -2.46148e-06 -7.71033e-05 -2.88368e-05 5.23791e-05 8.76698e-07 
1.08398e-06 5.36689e-07 0.000990743 -0.000208309 -0.000316368 8.75344e-06 4.0924e-05 -0.00586785 0.000189948 
0.000257742 -8.87288e-05 -2.92781e-07 2.23364e-07 -0.000101367 1.03884e-06 1.50142e-05 -1.53283e-06 3.95552e-07 
-2.93204e-06 -7.35526e-06 1.60699e-06 -4.88999e-06 5.98622e-06 3.14736e-05 -1.1108e-05 1.28774e-05 6.21003e-07 
-0.0020225 0.00103384 6.80177e-05 -8.3506e-05 3.33722e-06 1.06379e-05 -8.10206e-06 2.41924e-05 -6.18078e-06 
-1.2768e-07 -6.88682e-08 4.13376e-07 9.66865e-06 5.51274e-06 -1.17185e-06 -5.42327e-06 -1.42479e-05 9.11903e-06 
-8.32584e-06 -6.21069e-06 1.08139e-05 -0.000131882 -1.99033e-05 1.3829e-05 1.53723e-06 -9.60518e-05 1.83316e-05 
-4.19887e-05 -3.12065e-07 -1.23152e-06 3.39901e-06 -5.93292e-05 -4.02072e-06 -2.07565e-06 1.15357e-05 1.26146e-05 
2.79302e-06 -1.87096e-06 4.21969e-07 1.34301e-06 1.16824e-05 -1.01984e-05 1.32805e-05 1.35667e-06 3.35739e-06 
0.000150219 -0.000358104 5.36462e-06 -1.17743e-05 -3.29154e-06 1.17712e-05 -6.82145e-06 -1.98779e-06 -1.34397e-06 
1.52588e-06 -1.04497e-06 -1.05287e-06 -1.82856e-06 1.8513e-07 -2.76757e-06 -3.26741e-06 -1.38396e-06 -4.58213e-06 
2.22062e-05 5.8173e-06 -1.05261e-06 -6.20057e-07 -1.04864e-06 0.00134406 -0.000358674 -0.00189805 7.8261e-05 
1.8889e-05 -0.0235869 3.78718e-07 -4.82745e-05 -0.000333641 1.10847e-05 -9.39943e-05 -0.00360115 2.49263e-05 
0.000940324 0.000409444 5.54159e-05 -0.00692291 -1.43801e-05 -6.43145e-06 -1.74933e-06 2.63951e-05 -6.43886e-06 
0.0039063 0.00260255 0.000118438 0.00301978 1.20051e-06 2.42048e-06 2.67912e-06 -1.04775e-06 9.36596e-07 
-1.53268e-06 2.08661e-07 -2.19722e-05 -4.84647e-06 5.04571e-06 -1.5033e-05 -1.31147e-05 -2.69447e-05 1.54163e-06 
1.38182e-06 -6.02764e-06 -2.97721e-05 1.21118e-05 3.42285e-07 -7.75257e-05 1.69902e-06 -2.81432e-06 0.0040468 
1.48983e-06 5.00584e-06 -8.85756e-05 9.86472e-05 -1.49785e-05 -5.90409e-06 2.01139e-05 -8.17186e-06 8.19361e-06 
2.21946e-05 1.55312e-06 1.59125e-06 2.54015e-06 -3.74912e-07 4.72111e-07 -1.80052e-05 -2.45126e-05 -4.19311e-05 
-1.97265e-06 5.36049e-06 1.34055e-05 -6.47009e-05 -0.00747504 9.25334e-06 -1.16399e-05 -2.26454e-07 -2.41388e-07 
-1.06459e-05 9.74292e-07 3.41419e-05 0.0017164 -0.0229126 0.000133705 -3.57599e-06 -3.99557e-06 -3.63788e-05 
-5.96629e-07 -5.84194e-07 -5.67536e-06 -8.05513e-06 -3.64558e-05 2.55847e-05 -4.49572e-05 6.82494e-06 -7.41731e-07 
0.00108137 -6.27086e-06 1.18626e-06 -9.52798e-06 -4.56391e-05 7.10882e-05 2.00543e-07 -1.49337e-05 2.0743e-05 
0.00296779 -3.23151e-06 1.01567e-05 3.65689e-06 -8.31808e-06 -0.00211561 -1.79342e-05 -2.76623e-05 -0.0194933 
-2.65464e-05 0.00395867 0.000643588 -0.00042305 -0.000402248 -6.65054e-05 -4.90406e-05 -5.17749e-07 -2.81222e-06 
0.0228203 -3.20897e-06 -1.85648e-05 -5.46994e-05 2.23835e-07 2.38761e-07 -1.05434e-06 5.76359e-05 4.88528e-06 
-1.69163e-05 3.77428e-05 1.00073e-05 3.55793e-05 1.30392e-07 0.00142249 9.19109e-05 -2.5668e-06 -3.01593e-05 
2.37695e-05 2.39099e-05 -5.27691e-05 -1.06851e-05 2.38861e-07 8.87332e-07 -0.000167838 -1.07809e-05 -1.53933e-06 
4.17044e-05 0.00015955 -2.25525e-05 -1.71909e-05 -0.00094342 -9.63788e-05 0.000439345 6.90865e-06 -7.73411e-06 
-1.22709e-05 -2.75959e-06 -3.37678e-06 6.07133e-06 6.10451e-06 -3.01482e-05 2.68298e-06 1.48801e-06 -1.20678e-06 
6.66833e-05 9.50189e-05 -1.15252e-05 -1.66491e-05 1.12424e-06 0.000146031 7.73464e-06 -1.10037e-06 -3.22148e-05 
0.000190044 -0.00171784 1.24185e-05 -1.65833e-05 7.0497e-06 1.67262e-05 -2.35519e-06 3.51426e-06 1.54275e-05 
0.000114177 -3.52809e-06 -4.16427e-07 1.83189e-07 -2.31635e-06 -5.12064e-06 -1.9545e-06 1.94673e-05 -8.73029e-08 
-9.53815e-06 1.15703e-05 7.95592e-06 -0.000185456 5.73279e-05 0.00419296 -5.28459e-06 -6.36733e-06 0.000109071 
-1.83747e-05 -2.85629e-06 -3.84624e-06 -1.34477e-06 -1.19665e-05 -1.07216e-05 0.00438806 1.28133e-06 -0.00036632 
0.000780306 -0.000118455 4.53031e-07 -0.000117621 3.57292e-05 -0.00406486 0.0218844 1.14471e-05 -1.07368e-05 
2.02814e-06 -0.00109541 -9.67008e-05 -6.7128e-05 -2.90935e-06 -2.95532e-06 7.74292e-06 -0.00413948 -0.00413764 
-1.34067e-05 8.98347e-07 0.000173473 3.28708e-06 -2.16258e-06 0.000108667 -1.21867e-07 0.000923203 0.00169027 
2.41709e-07 -3.7591e-07 -5.28668e-05 6.0031e-05 -2.02695e-05 -9.22464e-06 6.7806e-06 3.36431e-06 8.86731e-07 
2.56681e-06 -2.3797e-05 -1.43159e-05 -5.01908e-06 -1.06169e-06 5.64637e-06 2.69293e-06 4.4747e-06 -1.16176e-05 
2.27457e-06 -0.00243151 -0.00465727 0.0179504 -2.63167e-06 -1.8968e-05 -1.93272e-05 4.7881e-07 0.00237182 
3.78404e-05 -9.29331e-06 1.34418e-06 1.35315e-05 1.82258e-05 0.00437247 -3.65084e-06 -5.95771e-06 -4.29066e-05 
-0.000979543 4.2298e-05 4.34808e-05 -0.000161689 -1.77779e-06 0.00024093 -1.59343e-05 -3.90054e-05 4.07283e-05 
-8.63411e-05 -8.79334e-06 8.30563e-07 7.32408e-06 -2.43992e-05 4.17499e-07 1.36435e-05 -9.40025e-06 1.08979e-05 
-1.66681e-05 -1.59322e-05 4.84105e-06 7.87833e-06 1.6592e-05 -9.75569e-07 -6.48168e-06 -0.000117227 2.0157e-06 
1.25902e-05 9.11613e-07 -8.09892e-06 1.72346e-05 -1.53014e-05 -1.47342e-05 2.06692e-06 -7.37596e-06 1.00154e-06 
-4.43325e-06 2.66348e-06 -0.00148885 1.14298e-06 -5.26248e-07 -1.64738e-05 -0.0011522 -1.32852e-06 -0.000284128 
1.41419e-05 -6.28445e-05 0.00037781 4.72291e-06 -9.04734e-08 -3.74956e-05 -2.68241e-07 1.86557e-06 -1.95498e-06 
-3.56054e-07 -4.64164e-06 0.00140414 -1.94315e-06 0.0237138 7.25094e-05 1.8633e-05 -1.01334e-05 8.48472e-06 
0.00123251 -0.000356811 -7.34178e-07 -5.05859e-06 -1.06286e-05 -0.000273985 0.00286272 -1.20241e-05 -0.00413619 
-0.00459964 1.53124e-06 -1.90211e-05 0.000481898 0.000219226 -3.96824e-06 -5.2858e-05 -6.75237e-06 -3.70601e-05 
-4.63634e-06 0.022711 8.08892e-05 -1.62522e-05 6.605e-05 -1.54931e-06 -0.000115256 5.17884e-06 -0.0220193 
-8.24346e-06 9.61237e-05 -1.31928e-06 8.54157e-07 -0.000243984 -1.29636e-06 -1.04797e-05 0.000107799 
Stress%20zz%20component 1 9350 double
0.413531 0.471252 0.47583 0.411395 -2.47241e-05 -2.47314e-05 -4.79266e-06 -7.38556e-07 -0.0142755 
-0.0118198 -0.017277 -0.0291321 -0.00410942 -0.0461344 0.00132677 -0.0265004 0.245846 0.182353 
0.143809 0.168822 0.1634 0.162096 0.142423 0.135174 0.160029 0.15994 0.160265 
0.144436 0.158251 0.160194 0.162996 0.141887 0.134126 0.163341 0.168312 0.152565 
0.15899 0.153662 0.162281 0.171403 0.216505 0.164956 0.160002 0.157734 0.158437 
0.210619 0.199867 0.155494 0.155884 0.156136 0.15739 0.210534 0.155069 0.154664 
0.155796 0.159894 0.209391 0.201459 0.15684 0.160043 0.159973 0.209648 0.227577 
0.229861 -1.19607e-06 2.6151e-06 -3.03786e-07 -2.50526e-07 -1.26258e-06 2.9534e-06 -2.74199e-06 -2.94399e-08 
8.64125e-07 -2.04951e-06 1.88033e-06 -8.50089e-07 -2.34775e-06 7.53612e-08 5.80767e-06 -8.52765e-06 6.05039e-06 
-1.9506e-06 -4.18275e-06 4.27856e-06 -4.85627e-06 2.66577e-06 5.02639e-06 -2.49651e-07 -2.41595e-06 9.77306e-06 
1.33381e-05 -0.191752 0.00146418 0.000744906 1.07192e-05 -2.36376e-05 -1.62133e-05 6.97849e-05 1.18785e-05 
-1.05571e-06 -8.75634e-06 -6.07179e-06 3.50745e-06 7.01934e-06 9.95884e-07 -3.81704e-06 -1.41792e-07 -2.3659e-06 
7.24949e-07 -1.03773e-06 -8.94607e-06 2.2917e-06 1.78348e-07 1.59948e-06 -4.44111e-07 -2.7024e-06 3.25144e-06 
-5.75336e-06 -3.65921e-06 1.57135e-06 4.96245e-06 6.06352e-07 -4.10268e-06 -6.16476e-07 1.46961e-06 4.54317e-06 
-2.90705e-06 3.2132e-07 -3.15752e-07 -8.37523e-07 -1.08874e-06 1.6864e-06 -8.86285e-08 -1.54063e-07 -1.1426e-06 
6.86391e-06 5.33289e-06 -4.24857e-06 8.23841e-07 6.18759e-06 -1.12914e-05 -1.42386e-05 9.17492e-05 9.23978e-05 
6.23201e-05 1.60544e-07 -3.61902e-05 -1.56013e-06 -5.82126e-05 0.000203628 8.37739e-05 -1.6076e-05 -4.08327e-05 
-5.1845e-05 -4.81816e-05 -2.54855e-05 -0.000251926 -0.000318411 0.000426891 -0.0188216 0.00154401 8.79067e-05 
0.000395695 0.0149963 0.0168168 0.0145838 0.00991311 0.0222782 0.0271808 -0.0072062 0.0229125 
0.115152 -0.00266277 0.0015045 0.00160437 -0.00409812 -0.00325563 0.0117698 0.0112746 -0.00134817 
-0.00187028 0.0055032 5.00028e-06 3.29712e-06 -1.0477e-06 -2.02081e-06 1.82941e-06 1.67288e-06 -2.63078e-06 
4.63187e-06 3.63357e-06 -5.1751e-06 5.95613e-06 -3.34171e-06 -2.96599e-07 -3.37777e-06 7.58777e-06 -4.49484e-06 
-5.08958e-06 5.0876e-06 -4.90947e-06 7.02147e-06 -1.93795e-07 9.15782e-06 -0.0132999 -0.00232934 0.0002638 
0.000104637 -3.24887e-05 -2.30501e-05 -1.50551e-05 2.00223e-06 -5.06923e-06 9.2818e-06 -3.47072e-06 4.04778e-06 
-1.62042e-06 8.09599e-06 -1.572e-06 5.59956e-07 4.86618e-06 -2.26242e-06 4.49817e-08 1.18297e-06 1.76357e-06 
2.68528e-06 -1.41428e-06 -2.85382e-06 -1.07678e-06 1.47907e-06 1.22293e-07 -8.2768e-07 -1.71706e-06 2.89635e-07 
3.50992e-07 1.63571e-07 -4.05146e-07 -3.16876e-07 1.32415e-06 -1.89336e-06 1.49394e-05 -2.59395e-07 5.48734e-07 
6.77776e-06 6.69137e-06 3.77789e-05 -5.03168e-05 -5.88208e-05 -4.52274e-05 -6.83271e-05 5.89004e-05 -3.88077e-05 
-6.84146e-05 0.000154518 -0.000148315 -8.31859e-05 -4.20211e-05 5.71556e-06 1.94513e-05 1.25727e-05 0.000195846 
-7.31572e-05 -3.1304e-05 -0.000571295 -0.107947 0.0375877 0.0151055 0.0181093 0.00461014 -0.000935387 
-0.000276548 0.00912583 0.00644311 0.011048 0.0205297 0.100291 0.0101018 -0.0056742 -0.00442847 
-0.00384576 0.00617934 0.00789351 0.0180008 0.0119628 0.00511734 -0.0123071 -0.00713843 -1.75659e-06 
-2.5553e-06 -1.43601e-06 -1.45983e-06 -4.84625e-06 1.64732e-06 5.55057e-07 2.58606e-06 -7.2098e-06 5.63038e-07 
-2.06252e-06 8.11836e-06 -6.85936e-08 9.47398e-07 -1.4908e-06 3.24397e-06 5.08874e-06 -5.8536e-06 9.1939e-06 
-3.2181e-07 2.74228e-06 -8.44439e-06 -1.16339e-07 -1.99515e-06 -3.73937e-06 1.37874e-06 -0.0322212 -0.000632293 
2.65634e-05 3.47447e-05 0.000101028 -0.000101023 1.55074e-05 -1.94222e-06 1.12707e-06 2.2516e-05 -4.76446e-07 
-1.65613e-05 -2.17153e-07 8.94525e-06 7.42151e-06 2.40042e-06 -1.30738e-05 -7.41982e-07 3.91864e-06 1.22494e-05 
-8.7249e-06 -1.77836e-06 -9.88888e-07 -1.95454e-06 -2.80689e-06 1.96424e-06 -1.44922e-06 -3.99911e-07 -3.39576e-06 
-6.52704e-06 3.83093e-06 3.20942e-06 5.68247e-07 4.16769e-10 -1.75166e-06 3.69676e-06 1.16318e-06 6.70739e-07 
2.12231e-06 -1.17664e-06 6.7493e-07 -8.50198e-07 -3.58903e-07 -1.8465e-06 -3.86541e-06 -4.48526e-06 1.74967e-05 
5.79493e-06 -4.58776e-05 -5.26839e-05 -9.95777e-06 -1.72406e-05 -5.31688e-06 0.000107172 0.000328528 0.000118676 
-0.000113414 -3.18862e-05 -1.66865e-06 3.1499e-06 5.46206e-06 2.55822e-05 -7.56821e-06 1.19108e-05 0.000116426 
0.00377617 -0.0166982 -0.0642092 -0.0391487 -0.0333883 -0.0327782 -0.0330941 -0.0382554 -0.0640907 
-0.0374937 -0.0331474 -0.0332058 -0.0330816 -0.0485133 -0.0376299 -0.0384482 -0.032349 -0.033015 
-0.0386464 -0.0649079 -0.0370044 -0.0380526 -0.0328162 -0.0376951 -0.0658225 -0.0737171 -0.00821752 
-0.00191712 -0.00440137 -0.00843643 -0.00609411 -0.0075692 -0.00998292 -0.0111414 -0.0122041 -0.0058461 
-0.0228571 -0.0167988 -0.00788338 0.00240977 -0.00521084 -0.00698481 -0.00822242 -0.0092455 -0.0101084 
-0.0153801 -0.0119502 -0.0040783 -0.0138259 -0.017181 -0.0343298 -3.58e-06 -0.00113629 -0.00342627 
-0.000803763 -0.00101766 0.00042527 -0.0182836 -7.34784e-07 -1.55524e-06 1.67874e-06 2.04041e-06 1.30121e-07 
-2.77151e-06 -9.30528e-07 2.04572e-06 2.19893e-08 -3.70795e-06 -2.70987e-06 4.28189e-06 3.47866e-06 5.4248e-07 
-5.33197e-07 1.47593e-06 3.62754e-06 -3.1622e-06 4.23911e-07 6.5725e-06 2.85035e-06 -2.68925e-06 -5.10077e-07 
2.69001e-06 0.000209124 -5.81375e-06 -5.83024e-05 -7.70496e-05 3.84145e-05 3.4513e-07 9.02407e-07 1.38167e-05 
-1.11369e-05 5.42338e-06 -7.10888e-06 4.64826e-06 -7.38288e-06 -1.24015e-06 7.02185e-06 -6.32098e-06 3.58929e-06 
-2.33266e-06 6.03302e-06 -3.94794e-06 -1.40404e-06 2.81789e-06 -4.14577e-07 3.66222e-06 9.09278e-07 -1.13541e-07 
-8.1613e-07 3.09097e-06 6.61553e-07 -2.40824e-06 6.35215e-07 -1.04458e-06 -5.16184e-07 -1.14691e-06 9.46931e-07 
3.36061e-08 3.02311e-07 -1.00297e-06 -1.63581e-07 -2.0685e-08 1.44844e-07 2.7791e-06 0.00114827 0.00144982 
-8.20677e-06 1.32496e-05 -2.48255e-05 1.18064e-05 3.37412e-05 3.79513e-05 4.3072e-05 -1.42719e-05 -4.267e-05 
2.54083e-05 1.44785e-05 1.85402e-06 1.64376e-06 -2.28794e-05 -4.36637e-05 -6.25798e-06 0.000289295 -0.000433798 
0.000375286 0.00200747 0.00166305 0.00140467 0.00191552 -0.000324423 -0.000309117 0.00207427 0.00150469 
0.00161378 0.00204549 0.00125139 0.00306568 0.00175225 0.00168355 0.00205552 3.08837e-05 6.98213e-05 
0.00363614 0.00196882 0.00018616 -0.00235954 -7.80959e-05 -0.000619238 8.85697e-05 0.000823818 0.00104117 
0.00068824 -2.25863e-05 -0.000698371 0.000231526 0.000554026 0.00140693 0.000627389 0.000454011 0.000279534 
3.3972e-06 0.000139841 0.000189418 6.71519e-06 0.000147172 -7.84467e-05 0.000502927 0.000498507 9.21842e-06 
8.29849e-05 0.000152294 6.19358e-05 7.16118e-05 7.00204e-05 -9.04086e-05 8.80555e-05 -9.33186e-07 1.60736e-06 
-9.99523e-07 -3.0849e-06 -4.49405e-07 2.93437e-06 2.53797e-06 -9.90342e-07 3.77334e-07 -1.85589e-07 5.96526e-07 
4.04511e-06 2.17867e-06 1.27843e-06 3.23237e-06 8.15244e-10 8.57297e-07 3.48456e-07 -8.4201e-06 -7.12455e-07 
-1.65848e-05 7.29167e-07 6.3308e-05 -2.87584e-05 -7.38666e-06 -6.75348e-06 1.22484e-05 4.352e-06 -9.23763e-06 
-3.66351e-06 1.00298e-05 1.21177e-06 -3.40093e-06 -5.11725e-06 2.09833e-06 3.8544e-06 -2.4996e-06 -2.43972e-06 
-3.42859e-06 3.24507e-06 3.78517e-06 -4.18825e-06 1.0383e-06 1.14642e-07 -2.01106e-07 5.50717e-07 -1.67638e-06 
4.78312e-07 1.20992e-06 2.61015e-08 -1.14171e-06 1.04959e-06 1.16577e-06 -1.39326e-07 -1.05217e-06 1.68425e-06 
-2.08047e-07 -1.90756e-07 1.53102e-08 -4.1018e-07 1.01667e-07 6.19929e-06 0.000106031 3.73619e-05 -0.000146204 
-3.99644e-06 0.000263757 1.37205e-06 -1.93883e-05 -4.98368e-05 3.76529e-05 -4.59293e-06 -6.47511e-05 -0.000128085 
2.96681e-05 0.000283075 0.00026243 5.37246e-06 5.58465e-05 0.000330423 0.000334194 0.000258173 3.15611e-05 
8.25881e-05 4.1585e-05 0.000291949 0.000208299 0.000169341 8.46346e-05 7.34458e-06 0.000308436 0.000301496 
0.000185316 7.13141e-05 0.000138956 1.55965e-06 -0.00010551 6.65083e-05 0.000102537 4.92609e-05 2.22448e-07 
2.27277e-05 6.19367e-05 -0.000227482 -3.60568e-06 7.96631e-05 -0.00013539 -6.63396e-05 -8.49605e-06 0.000141662 
7.80735e-06 -2.5653e-05 8.83004e-06 0.000369256 7.32389e-05 0.000166354 0.000279363 9.03912e-05 0.000174731 
1.09096e-05 -1.88368e-05 3.9336e-05 1.72678e-05 -3.15722e-08 -2.54221e-06 -2.23784e-06 1.42576e-06 4.95022e-06 
-4.55896e-06 4.88373e-06 8.75805e-06 4.84565e-07 -2.03774e-06 -7.64336e-06 -5.87346e-06 -2.32324e-06 -1.01356e-06 
1.73754e-05 -8.0554e-06 2.16003e-06 -3.70305e-06 2.11287e-06 -4.61555e-06 -1.05593e-05 -1.63931e-05 -1.04288e-05 
-3.02868e-06 4.055e-07 -1.266e-05 -1.0433e-06 2.52222e-06 5.7002e-06 2.69832e-06 -3.36233e-07 3.96082e-08 
6.71288e-06 4.82403e-06 -5.67368e-08 -1.73601e-06 -1.39629e-07 2.25473e-06 1.32976e-06 -1.82526e-06 -7.49622e-07 
-3.84283e-08 3.78751e-07 7.48791e-08 -3.29365e-06 -3.85047e-07 -3.09916e-07 4.97551e-07 8.68518e-07 7.46556e-07 
1.56631e-06 -8.90983e-07 1.75345e-06 -9.99712e-07 -1.20937e-06 5.70692e-07 -4.05474e-07 0.000271258 5.72908e-05 
6.14097e-06 -2.33519e-05 -1.83881e-05 6.17175e-05 2.53565e-06 -2.54716e-06 2.11602e-05 -1.1317e-05 5.92051e-06 
-8.05557e-06 6.33565e-06 -6.71639e-06 5.60934e-06 -1.30459e-05 -1.6699e-05 -3.38176e-06 -1.99936e-06 -5.14556e-06 
-1.7746e-06 3.88243e-06 -8.22795e-06 -3.75734e-06 -1.48405e-06 -1.77436e-05 -2.07381e-05 8.63572e-05 -1.41187e-05 
-1.4422e-05 -2.12317e-06 7.30566e-06 2.35316e-06 -7.28716e-07 7.92093e-06 2.28511e-08 -7.32578e-07 -0.000106503 
-3.03133e-05 7.62779e-05 2.86343e-05 0.000109241 1.21922e-06 6.26689e-05 2.34788e-05 1.25151e-05 2.92522e-05 
-2.96579e-06 -2.26331e-06 9.02399e-06 -1.16176e-05 -1.61403e-06 -9.02668e-06 1.36295e-05 2.24132e-06 -7.85473e-06 
-5.26033e-07 5.63108e-06 2.11386e-05 9.08435e-06 -1.82091e-05 2.66939e-05 -2.90604e-06 -1.38118e-05 2.23276e-05 
1.80316e-06 -4.56808e-07 4.87659e-06 4.9953e-06 1.11742e-06 4.31627e-07 5.90166e-06 4.55852e-06 -6.06603e-07 
-1.67087e-06 -2.02524e-06 9.47183e-07 1.83443e-06 -3.86144e-07 -8.49503e-07 -1.04198e-06 -6.80115e-07 6.23352e-07 
1.90516e-06 5.77184e-08 -1.60395e-06 -5.28397e-07 6.99688e-07 3.25834e-06 3.08818e-06 -1.23324e-06 1.66009e-06 
-1.78698e-06 7.74575e-08 1.48248e-06 2.987e-07 7.36143e-06 8.22713e-05 -2.53726e-05 3.55083e-06 -5.13207e-05 
-2.4381e-05 1.9327e-05 -7.70221e-06 -7.13962e-07 -7.48268e-07 -5.53055e-06 4.66182e-06 -1.67012e-05 -5.55481e-06 
1.44091e-05 7.8243e-06 1.66652e-06 8.50354e-06 9.20939e-06 -2.26683e-05 -1.68049e-05 -2.10226e-05 -1.5794e-05 
-1.48994e-06 -3.07206e-06 -7.54708e-06 -1.05614e-05 -2.4993e-05 -6.15884e-06 4.73929e-06 -8.97269e-06 2.91483e-05 
7.62366e-06 1.1402e-05 1.82676e-05 1.50118e-05 5.32723e-08 1.22211e-05 7.18958e-06 -8.23316e-06 -3.9435e-06 
-6.50356e-06 -1.61046e-05 -1.96206e-05 -5.33413e-05 2.26339e-05 -1.80883e-06 1.51313e-05 1.01648e-05 -4.47353e-06 
1.28142e-05 5.45381e-06 -2.61273e-06 -4.33522e-07 -9.20558e-07 6.88398e-06 -2.81071e-07 -3.59865e-06 -2.16438e-06 
3.00163e-06 2.86569e-06 -1.43033e-06 7.45985e-07 -1.24557e-08 1.33773e-06 1.81438e-06 -4.20239e-06 -4.26922e-06 
1.33278e-06 -1.46776e-06 -1.608e-06 5.14697e-06 4.10849e-06 -3.68371e-06 2.94417e-06 4.07123e-06 4.89665e-07 
-3.5107e-05 2.33964e-06 -1.73727e-05 -2.65425e-05 1.34421e-05 1.88375e-05 8.99352e-06 -7.85721e-06 -1.12656e-06 
-5.25615e-06 2.75487e-06 4.60515e-06 8.68967e-06 -8.67849e-06 -2.10901e-05 3.79643e-06 -1.84283e-06 -6.38552e-06 
-2.59114e-07 4.16434e-05 -7.33537e-06 -3.87103e-06 -2.03892e-05 -9.39201e-06 -1.10364e-05 -2.15114e-05 1.2449e-05 
3.5707e-06 -2.62723e-05 -3.45854e-05 1.64526e-05 -1.24326e-05 1.03418e-05 -2.42211e-05 5.67689e-06 4.30399e-06 
-7.01463e-06 4.14401e-06 8.74055e-06 -6.96867e-07 -5.96442e-06 -8.21117e-06 -4.21363e-06 1.33879e-06 -4.53241e-06 
1.49226e-06 2.85888e-06 -2.56434e-06 7.02153e-08 -8.61865e-07 5.06625e-06 -7.34096e-06 -6.61968e-06 -7.29373e-06 
1.03034e-05 -4.61983e-07 6.8599e-06 -1.24936e-05 -2.0607e-05 2.71963e-06 -1.49253e-05 -4.16809e-05 -3.00281e-05 
3.73244e-05 4.26509e-06 -7.71565e-06 1.06651e-05 -1.43451e-05 -3.64931e-06 1.69386e-06 -1.53176e-06 3.49153e-06 
1.29752e-05 5.89018e-06 7.76479e-06 -1.09124e-05 3.62663e-05 2.83666e-06 1.15136e-05 1.67403e-05 -1.51131e-07 
1.16354e-05 -1.05754e-05 -1.19804e-06 5.76339e-06 -1.50044e-05 9.25598e-06 -1.68764e-06 1.0889e-05 1.2258e-05 
2.13693e-05 1.40337e-05 -1.25288e-06 -3.86768e-07 -4.28868e-08 -8.03147e-07 2.39459e-06 -2.51178e-06 1.112e-06 
-3.00339e-07 9.11248e-08 1.70771e-06 -5.52407e-08 -4.97035e-06 -4.08893e-06 6.84995e-06 -2.45899e-06 1.63075e-06 
-9.0068e-07 -6.21391e-07 1.3929e-06 7.31426e-07 -9.75822e-06 -0.00431464 7.72621e-05 7.98324e-05 2.7364e-05 
4.77623e-06 6.40915e-06 3.75205e-06 -4.98611e-06 -5.3604e-06 6.73434e-06 -2.79858e-06 -5.8316e-06 1.49371e-06 
2.69834e-06 -3.78115e-06 -2.68742e-06 2.02621e-06 -2.69531e-06 -2.59573e-06 9.59205e-07 3.07613e-07 -6.1627e-07 
-4.24231e-07 2.16046e-06 -1.31724e-06 -4.36582e-07 7.29101e-07 -1.69206e-06 5.91778e-07 6.35046e-07 -8.03887e-07 
-7.33965e-08 1.17949e-07 -3.47115e-08 -1.10712e-05 1.89103e-06 6.74339e-06 6.99939e-06 1.74116e-05 1.09251e-05 
-1.42988e-05 -1.55646e-05 4.96614e-05 -4.83268e-06 0.000117602 -0.000196268 6.40731e-05 -1.85998e-05 -1.91041e-05 
-6.45264e-06 -4.1608e-06 6.78634e-05 1.7118e-05 8.80955e-05 8.70138e-05 0.00111575 -0.0510682 -0.0103592 
-0.0339377 -0.0358794 -0.0358601 -0.0310989 -0.0109646 -0.0309821 -0.0343737 -0.0345391 -0.0294737 
-0.0308446 -0.0317362 -0.0366153 -0.0338652 -0.0103282 -0.0309763 -0.0305281 -0.0353367 -0.0144697 
-0.0821149 -0.00439309 -0.00454659 -0.0012275 -0.00649145 -0.00717053 -0.007257 -0.00855078 -0.0103194 
-0.00591651 -0.00362778 -0.0204466 -0.0461905 -0.00228562 -0.00645984 -0.00763514 -0.00921107 -0.0101066 
-0.011317 -0.00282988 -0.00669043 -0.0189646 -0.0158588 -0.0143492 -0.0036806 -2.30515e-06 -0.000188002 
-0.0204214 -0.0188682 -0.000591228 -0.00763366 -0.00681631 -0.00980183 1.72424e-06 7.75464e-07 5.29694e-07 
2.12894e-06 2.65995e-06 6.62785e-07 8.16326e-07 2.06341e-06 -3.98093e-06 -5.23226e-06 -9.45779e-06 -9.86657e-07 
-9.58408e-06 -1.77333e-06 -2.46052e-06 -1.14001e-06 -2.43896e-06 -4.72465e-06 8.36257e-06 -4.38128e-05 2.64794e-06 
5.36145e-05 0.000234216 -4.72288e-05 7.76661e-06 3.94987e-06 -5.95093e-07 -3.61237e-06 -1.08337e-06 2.91445e-06 
2.789e-06 -1.0523e-06 1.42745e-06 8.32501e-08 -4.15918e-07 1.67711e-06 4.24961e-07 1.08318e-06 -3.06652e-06 
1.77749e-06 1.57259e-06 3.70953e-07 -1.18476e-06 -4.94117e-07 7.81113e-07 -2.9682e-07 -1.1071e-06 -6.47472e-07 
-9.12824e-07 5.05377e-07 -7.98892e-07 -3.1337e-07 5.00906e-07 8.54505e-07 3.54233e-05 -1.31826e-05 9.84667e-06 
-5.14673e-05 5.92442e-05 5.66734e-06 0.000121196 1.44993e-05 7.87567e-07 1.06738e-05 -1.98129e-05 -0.000170304 
-1.8124e-05 0.000757153 0.00028497 -0.00089702 0.00118766 0.00129859 0.00143778 0.000560904 0.00068086 
0.00141519 0.00161554 0.00161837 0.00109186 0.000764937 0.0012756 0.00129462 0.000598208 0.000414977 
0.000896282 0.0010963 0.000487941 0.000395825 0.000479208 2.33079e-06 0.00015689 0.000813263 0.000134084 
0.000191586 7.74533e-05 0.00100522 8.43278e-05 0.000615397 0.000567885 -0.000501664 -0.000474222 0.000353293 
0.000318782 5.37393e-08 1.1187e-05 -0.000189457 0.000231852 0.000812354 0.000152339 0.000709572 1.51597e-05 
-4.11605e-05 0.000378329 0.000196015 0.000302094 6.82944e-05 -5.01279e-05 0.000286974 -0.000434694 6.65951e-05 
2.39541e-06 1.43851e-06 -1.86572e-06 -5.90973e-07 5.13235e-06 -4.05283e-06 7.49039e-07 1.60546e-06 -1.95779e-06 
-9.26118e-06 5.75031e-06 9.77381e-07 9.59568e-08 -8.38942e-06 7.95573e-05 -2.79572e-07 -3.6431e-05 -1.71983e-05 
7.46905e-05 -3.72191e-06 7.18886e-06 -7.85397e-06 -2.79918e-06 -4.32478e-06 -1.01721e-06 -9.27641e-07 5.82467e-07 
2.1546e-06 -2.63671e-07 2.05746e-06 5.10286e-07 3.05528e-06 3.69505e-07 9.56765e-07 7.73465e-07 2.41054e-06 
3.28048e-08 8.62296e-07 -1.81424e-06 -7.38879e-07 -1.0331e-06 -1.38065e-06 2.31589e-07 7.09004e-07 1.10474e-08 
-0.000138561 -1.11572e-05 1.3011e-05 -6.57435e-07 5.57441e-06 9.2497e-06 1.50477e-05 -7.32062e-05 1.07586e-05 
0.000125699 3.30382e-05 5.86604e-05 1.74963e-05 9.95489e-05 8.42739e-05 1.2116e-05 2.89378e-05 2.28137e-05 
1.31526e-05 2.80964e-05 2.57409e-05 5.38229e-05 5.5868e-05 -1.20611e-05 1.57838e-05 6.22083e-05 4.74548e-05 
3.83855e-05 0.000232453 -2.80674e-06 0.000427582 -5.94929e-05 7.74508e-07 -9.67517e-05 -6.72781e-05 1.81408e-05 
4.4511e-05 2.84386e-05 2.32529e-05 9.45601e-05 4.88541e-07 6.82284e-05 -0.000138736 -2.57405e-06 -2.45994e-08 
0.000126684 0.000311974 2.5668e-05 4.98986e-05 6.75621e-05 1.02249e-05 -2.64549e-07 -4.93243e-07 -6.19971e-06 
1.82762e-05 -4.90047e-06 1.12003e-05 -2.37151e-05 1.9679e-07 -1.10859e-06 -0.000196742 1.02377e-05 8.32942e-06 
-1.15924e-05 -4.73882e-06 -5.96598e-06 -2.73405e-06 -2.70794e-06 -2.33014e-06 2.50581e-07 4.81912e-07 -1.65979e-07 
1.18465e-07 2.88238e-07 5.17213e-07 7.30421e-07 9.07084e-07 4.79732e-07 -1.0031e-06 4.0022e-07 -2.97831e-06 
-1.19166e-07 -1.22123e-06 9.87642e-07 9.93598e-07 2.00292e-06 -9.23007e-07 4.81925e-06 -3.36898e-05 2.27718e-05 
3.19878e-05 8.94878e-07 -1.66453e-05 4.73539e-05 6.1756e-06 -3.56101e-06 -6.16831e-06 1.97366e-06 4.06762e-06 
1.78094e-06 3.55788e-05 7.84526e-06 9.57526e-06 8.2575e-06 -1.70434e-06 -0.000147036 -1.2998e-06 -3.69492e-06 
-1.00259e-05 8.53347e-06 3.40972e-05 8.99258e-06 -2.72044e-05 -4.07695e-05 -1.39421e-05 -2.79662e-05 6.44666e-06 
2.17846e-05 5.95987e-05 -5.71807e-05 -9.59611e-07 1.2089e-05 -2.4409e-06 -1.27299e-05 1.09941e-06 -1.19449e-06 
1.04376e-05 -6.81845e-06 2.26119e-07 -2.72222e-05 -2.36821e-05 3.31188e-05 7.74615e-06 -5.074e-05 5.93551e-06 
-9.76823e-06 6.75692e-06 3.89304e-05 1.62152e-05 -1.84516e-05 -2.27726e-05 -5.93611e-06 -5.44565e-06 -6.33532e-07 
1.87728e-06 5.10855e-07 -9.57552e-07 -1.05334e-06 -8.21389e-07 -1.14865e-06 -7.05542e-07 1.06042e-06 1.74573e-06 
-1.44351e-06 -1.32217e-06 1.16062e-06 -2.86925e-06 2.25295e-06 5.43562e-07 9.88628e-07 3.07793e-06 -2.15773e-05 
-6.47482e-06 -1.80092e-05 4.40581e-05 2.31109e-05 -1.13402e-05 1.9633e-05 2.18535e-05 5.09521e-06 7.165e-06 
-2.27247e-05 2.90833e-06 -1.98074e-05 3.05732e-05 8.30817e-06 -2.53974e-07 8.47653e-06 -1.00769e-05 -2.75064e-05 
8.9078e-06 2.63631e-06 8.19499e-06 7.28109e-07 0.00010019 9.85861e-06 -8.49345e-06 1.14567e-05 1.97482e-05 
-6.59962e-06 -4.52556e-06 -1.3924e-06 -3.26519e-06 3.27181e-05 -9.62426e-06 -1.65898e-05 1.09347e-05 6.79841e-05 
-1.2395e-06 -2.33374e-06 -2.71414e-05 -2.43713e-06 -5.02049e-05 2.6416e-05 -1.36275e-05 -1.62888e-05 -2.56186e-05 
-2.01437e-05 -2.57389e-05 9.51131e-07 -6.3968e-06 -3.03137e-06 -1.619e-06 -1.91841e-06 -1.78159e-06 -1.56623e-06 
4.01606e-06 -4.81655e-06 4.96886e-08 6.04031e-06 -3.44416e-06 1.10203e-05 2.5006e-06 8.79297e-06 3.34388e-05 
-4.54949e-06 3.93743e-05 -2.91565e-05 -5.78311e-06 -3.12101e-05 1.7568e-06 2.82243e-07 -8.34971e-06 -1.71844e-05 
-2.06918e-05 1.20291e-05 5.25045e-06 2.44653e-06 5.04985e-06 -2.85062e-07 2.16451e-06 4.42463e-06 5.91043e-06 
3.83737e-05 -1.67702e-05 -1.73615e-05 -5.98008e-06 -7.74763e-06 -1.82996e-06 6.97842e-06 -1.50398e-05 5.22213e-06 
1.36519e-05 5.21558e-06 -1.03033e-05 1.84003e-05 -4.31665e-06 5.43022e-06 -1.01156e-05 -7.57617e-06 -4.11971e-06 
-4.9039e-06 -1.06935e-05 8.12113e-07 -7.84046e-06 1.80014e-05 -1.01512e-06 -4.89879e-06 -6.2643e-06 -2.34464e-05 
-3.0852e-06 5.73048e-06 7.72931e-06 -5.67592e-05 3.46848e-06 -3.89381e-06 -1.51365e-05 -1.78729e-05 -1.12998e-05 
6.76302e-06 1.32923e-05 1.0314e-06 9.42561e-06 4.18085e-05 1.62543e-05 1.04782e-06 -3.83722e-05 6.43004e-06 
5.93602e-07 1.69266e-06 1.89744e-05 1.60422e-06 -9.92743e-07 5.9755e-08 1.54276e-05 9.8052e-07 -2.03083e-07 
-8.83605e-06 -1.43531e-05 -1.34588e-05 -5.83254e-06 4.99944e-08 1.30358e-05 -0.000534638 -0.00440733 0.560141 
0.561366 0.347343 0.257208 0.14693 0.270988 0.264284 0.262028 0.260722 0.137517 
0.258412 0.258831 0.257524 0.262451 0.253773 0.256449 0.256012 0.258119 0.136084 
0.263401 0.266962 0.271189 0.158636 0.185709 0.27062 0.275006 0.166931 0.24898 
0.256439 0.269452 0.267342 0.26212 0.242078 0.20607 0.240121 0.259476 0.258981 
0.258555 0.242323 0.242845 0.259827 0.260932 0.261258 0.239461 0.206302 0.243604 
0.263198 0.26524 0.250176 0.219408 0.234297 0.320754 -5.06108e-06 2.51723e-06 1.27126e-05 
1.27254e-05 1.28179e-05 1.86638e-05 8.14814e-06 1.28816e-05 1.53412e-05 1.9508e-05 1.31559e-05 -8.54489e-06 
-2.03932e-05 -2.0626e-05 -3.86209e-05 -3.20741e-05 -4.91277e-05 -5.87353e-05 -4.40947e-05 -4.30082e-05 -3.22609e-05 
9.10814e-06 1.71031e-05 2.36801e-05 3.59728e-05 6.29358e-05 9.8029e-05 -6.12625e-06 0.0383588 -0.0247627 
-0.00392287 -0.000915119 -0.000445202 -0.000379064 -2.40452e-05 -5.92273e-05 -6.26845e-05 -6.18829e-05 -6.63562e-05 
4.98493e-06 1.2107e-05 3.74423e-06 -3.56533e-06 -1.30484e-05 1.87938e-05 2.87226e-05 1.80713e-05 1.13925e-05 
-6.56804e-08 3.19865e-05 2.75863e-05 2.56936e-05 2.47414e-05 2.55267e-05 1.83583e-05 2.02697e-05 1.97558e-05 
1.74796e-05 1.17658e-05 -5.59578e-06 -9.45725e-06 -1.02827e-05 -1.00119e-05 -6.96514e-06 -1.85358e-05 -1.47843e-05 
-1.1936e-05 -6.13745e-06 -4.00412e-07 2.81309e-06 6.87709e-06 5.83699e-06 1.31666e-05 -5.35695e-07 -2.55525e-05 
3.38102e-05 3.66601e-05 1.02121e-05 -1.90266e-05 -7.07732e-05 -1.93294e-05 5.46455e-05 0.000218621 0.000264886 
-3.3968e-07 -0.000164129 -0.000623028 -0.000576575 0.000348856 0.000315997 0.0001142 1.5239e-05 -7.75953e-05 
-0.000198215 -0.00053026 -0.00256908 -0.00259051 -0.00440132 0.0411772 -0.0659332 0.0123403 0.00435861 
0.00451247 0.00894044 0.0256721 0.0257962 0.00489461 0.0249517 0.0333352 0.00968423 0.00482094 
0.00964265 -0.0781519 0.038503 0.0569761 0.0163041 0.0121403 0.00588196 -0.0018156 -0.00337801 
0.0156432 0.00332807 0.00226304 0.014559 0.00588609 4.69341e-07 2.36477e-05 9.77814e-06 9.23877e-06 
1.10633e-05 2.93644e-05 1.59847e-05 9.93257e-06 2.03616e-05 6.96817e-06 -7.19123e-06 -2.53889e-05 -8.4521e-05 
-0.000111897 -4.72093e-05 -3.30008e-05 -5.75828e-05 -1.95844e-05 7.60958e-06 3.39488e-05 8.03389e-05 5.59383e-05 
-1.08442e-05 0.0441639 -0.0109737 -0.0018004 -0.000451602 -0.000247202 -0.000262361 -0.000103372 -5.05707e-05 
-9.58564e-06 -4.23559e-05 -2.4495e-05 1.71561e-06 1.77504e-05 1.94406e-05 6.13369e-06 1.69145e-05 3.26011e-05 
1.62557e-05 1.9265e-05 2.30347e-05 2.71706e-05 5.1704e-05 1.95754e-05 1.03542e-05 2.3735e-06 2.20329e-06 
-5.48625e-06 -1.24492e-05 -2.76568e-05 -1.32898e-05 -9.10752e-06 -4.98444e-06 -1.8256e-06 4.2286e-06 9.92671e-06 
1.34188e-05 -1.1543e-06 -8.168e-06 1.92902e-05 4.07847e-05 2.17717e-05 -4.54567e-07 -6.30318e-05 -0.000201205 
-0.000112664 0.000107282 0.000264247 0.000665585 -9.66466e-05 -0.000461311 -0.000470285 -0.000267993 0.000148699 
0.000120251 8.33257e-05 2.09674e-05 -5.65873e-05 -0.000168579 -0.000477535 -0.00148274 -0.00600879 -0.0225486 
0.0200535 -0.128051 0.031155 0.0405863 0.0234359 0.0213355 0.00530853 0.000689569 0.000996935 
0.00340404 0.0188125 0.0240797 0.0596074 0.027836 -0.0854789 0.0323899 0.00306076 -0.00151718 
0.00284718 0.00869798 0.0142443 0.0103951 0.0209928 0.00826408 -0.00155278 -0.00622748 0.00588589 
-1.94739e-05 -4.05362e-06 -0.0168953 -0.0373282 -0.0363382 -0.0314484 0.35685 0.355058 0.247363 
0.255459 0.246972 0.218801 0.217396 0.184752 0.214199 0.18468 0.197316 0.193763 
0.185343 0.198125 0.179629 0.199414 0.200253 0.172941 0.199452 0.184218 0.189005 
0.192525 0.179257 0.20319 0.176721 0.171444 0.195358 0.186318 0.187972 0.194366 
0.181815 0.206998 0.175765 0.20097 0.203342 0.174554 0.20226 0.1859 0.194791 
0.200931 0.182506 0.205457 0.214941 0.237695 0.256738 0.204335 0.203858 0.203869 
0.227452 1.18777e-06 -7.45571e-06 -8.73746e-07 -6.17217e-06 -1.01324e-05 1.3878e-05 -6.46939e-06 -8.67255e-06 
8.87525e-06 -5.49707e-06 -9.4506e-06 1.13751e-05 -1.31653e-05 -1.29616e-05 1.4367e-05 1.05548e-06 -1.46085e-05 
2.43907e-05 -4.65944e-06 -9.31308e-06 1.66088e-05 -1.0553e-05 -4.20183e-06 2.01316e-05 -1.80763e-05 -2.32482e-05 
2.04622e-05 -8.86619e-06 -6.9516e-06 2.20629e-05 5.8403e-06 -2.04815e-06 8.27464e-06 2.37088e-05 1.80319e-05 
-1.3515e-05 1.23127e-06 1.89937e-05 -1.56449e-05 1.62796e-05 1.64381e-05 -4.01517e-05 3.82976e-05 1.34746e-05 
-4.51667e-05 2.10425e-05 4.61758e-05 -7.85509e-05 4.22218e-05 3.302e-05 -6.46648e-05 2.90166e-05 1.18919e-05 
-6.40978e-05 3.41816e-05 3.84407e-05 -6.14523e-05 2.13133e-05 1.26717e-05 -5.27227e-05 -3.27359e-06 1.06131e-05 
-2.68749e-05 -2.67718e-05 -1.61275e-05 1.06492e-05 9.3133e-07 -1.81226e-05 1.43717e-05 -1.76707e-05 -2.60274e-05 
3.86388e-05 -3.38094e-05 -3.8604e-05 3.78325e-05 -2.37882e-05 9.43383e-06 3.49266e-05 -1.09684e-05 -0.123254 
1.22582e-05 -0.0313419 -0.0784835 -0.0027252 0.00206035 0.000828238 -0.0105034 0.00185394 0.000215822 
-0.0027313 0.000395648 0.000131937 -0.000791349 0.000291346 0.000189989 -0.000409141 3.25615e-06 8.58584e-05 
-0.000352118 0.000207016 8.75197e-05 -0.000254847 8.81517e-05 3.99539e-05 -0.000120582 4.83281e-05 2.69034e-05 
-9.37878e-05 3.77413e-05 4.85414e-05 -6.65352e-05 -2.10126e-05 2.37351e-05 -5.94407e-05 -3.41064e-05 -2.86609e-06 
-1.9412e-05 1.38283e-05 2.04698e-06 -1.99082e-05 8.96946e-06 -6.38928e-06 -6.57117e-06 -2.09525e-06 1.38827e-05 
-8.5854e-07 -1.663e-05 -4.90421e-06 6.88812e-06 -3.39108e-05 -2.2674e-05 2.3458e-05 -1.03684e-05 -1.21565e-05 
1.50321e-05 -5.34778e-06 -1.93507e-05 1.87943e-05 -9.65977e-06 7.14151e-06 2.3115e-05 -2.17424e-05 -2.22506e-05 
3.4226e-05 -1.78682e-05 -1.42279e-05 2.56541e-05 -1.37066e-05 -1.60139e-05 2.42983e-05 -1.84611e-05 -2.17328e-05 
2.41067e-05 -2.53993e-05 -1.16696e-05 2.64335e-05 -8.1566e-06 -2.38107e-05 4.4136e-05 -1.58919e-05 -1.8748e-05 
3.74005e-05 -1.85435e-05 -7.49708e-06 2.35527e-05 -1.046e-05 -1.38036e-06 1.68178e-05 -5.45547e-06 -7.86649e-06 
7.05637e-06 4.14468e-06 1.64902e-06 8.3075e-07 -2.18899e-06 7.24328e-06 -1.12956e-06 2.91035e-06 1.08882e-05 
-7.96078e-06 8.58635e-06 7.3642e-06 -1.29892e-05 1.30053e-05 1.36549e-06 -1.87199e-05 9.92636e-06 1.31122e-05 
-2.46921e-05 1.199e-05 6.86796e-06 -1.60459e-05 8.79057e-06 3.65037e-06 -1.24007e-05 5.96325e-06 3.97455e-06 
-6.98201e-06 -1.303e-06 -1.69773e-07 -4.42184e-06 3.627e-06 -3.46749e-06 -1.34568e-06 -1.54946e-06 -6.40828e-06 
3.13137e-06 -4.3067e-06 -7.20662e-06 6.9103e-06 -2.34271e-06 4.81046e-06 6.78677e-06 -2.1426e-05 1.87162e-05 
-3.54004e-05 4.26194e-05 1.30011e-05 -5.62337e-05 4.0219e-05 1.92897e-06 -6.42139e-05 0.000101479 -1.10584e-05 
-4.89602e-05 -2.18248e-06 -5.16109e-05 0.000207226 -0.000140016 6.15036e-05 0.000181459 -9.09096e-05 0.000290323 
-6.20504e-05 -0.000195614 0.000246863 2.77402e-05 -2.39353e-05 0.000109915 0.000141255 0.000207264 -0.00018327 
0.00053943 0.000518725 -0.000429232 0.000463309 0.000255139 -0.00106205 0.000657339 -0.000233141 0.000110558 
7.73092e-05 -0.000147257 0.000303527 -8.4636e-05 3.88815e-05 7.5611e-05 -0.000162691 7.22091e-05 5.49122e-05 
-0.000165458 0.000118855 1.34041e-05 -0.00015647 0.000194582 -6.06523e-05 -0.000128527 0.000398564 -0.000192408 
0.000347249 0.000960904 -0.000601371 0.00118708 0.00241484 -0.000719934 0.00146099 0.00843572 -0.00640369 
-0.0181764 0.00297188 0.00181205 0.029778 0.0183504 -0.00379966 0.0138109 0.01561 -0.0567763 
0.0184137 0.0150691 -0.00566157 0.0159279 0.0154656 -0.00874773 0.0121741 0.0151105 -0.00770866 
0.0193614 0.0179362 -0.00781101 0.021579 0.0231619 -0.053683 0.00916149 0.0166275 -0.0509336 
0.0160219 0.015072 -0.00687544 0.0132052 0.014965 -0.00837002 0.0146696 0.0177664 -0.00876246 
0.0164333 0.0135354 -0.00593771 0.0116837 0.018244 -0.0489711 0.0156831 0.014317 -0.00620641 
0.0114741 0.0134064 -0.00472957 0.0120144 0.0185121 -0.00685444 0.0147781 0.0140025 -0.00655868 
0.0203328 0.0218739 -0.053831 0.00876764 0.0189655 -0.0508681 0.0156858 0.0194057 -0.0058331 
0.0170727 0.0190193 -0.00680468 0.0236196 0.0269826 -0.00545456 0.0302895 0.0315091 -0.051752 
0.0162908 0.0289459 -0.0676417 0.00282303 0.00421674 0.0117198 -0.0100017 0.00343777 0.00152693 
-0.00336958 0.00401101 0.000912931 -0.00980333 0.00589244 -0.000349694 -0.00223413 0.00504882 0.00240535 
-0.0014692 0.00650188 0.00334325 -0.00170075 0.00537874 0.00240799 -0.00221579 0.00513898 0.00409639 
-0.00358379 0.00300668 0.0017264 -0.00149783 0.00243908 0.00697563 -0.00556571 0.0178706 0.00172394 
-0.0200714 0.00254191 0.00576293 -0.000107192 -0.0108761 0.0192933 0.0176656 0.0114087 -0.00669872 
0.00593474 0.0077351 0.00391012 0.00691055 -0.00282756 0.00572547 0.00542271 0.0033888 0.00577392 
-0.00312067 0.00568097 0.00876218 -0.00392314 0.0123653 -0.00321303 0.00932728 -9.42006e-05 -0.00802844 
0.00769048 0.0098561 -0.00393189 0.0103086 0.00963207 0.0111164 0.00404889 -0.0283996 3.63955e-06 
0.0356322 -2.21321e-05 -1.06329e-05 -0.00564272 0.011129 -0.00548853 -0.00709023 -0.0118744 0.00395467 
0.00533359 -0.00316144 -0.00204302 0.00800782 -0.00293603 0.00669734 -0.00692016 0.0163975 -0.00756224 
-0.0282698 -0.0150907 -0.00345113 -0.00258361 -0.00352228 3.15492e-05 0.00880311 -0.00433367 -0.0629092 
-4.86163e-06 -7.42813e-06 -5.03104e-06 -1.24521e-05 1.57742e-06 -4.79346e-06 -1.02765e-05 1.12649e-05 -6.56578e-06 
-1.53381e-05 2.17875e-05 1.75067e-06 -1.75692e-05 1.95496e-05 -5.03852e-06 -1.56006e-05 1.19546e-05 -1.02029e-05 
-1.27397e-05 1.09055e-05 -7.2231e-06 -4.56812e-06 2.24541e-05 3.10416e-07 -4.81945e-06 1.7269e-05 -2.40752e-06 
9.13107e-06 -8.54777e-06 3.19277e-06 1.81551e-05 -2.99455e-05 1.3956e-05 3.24613e-05 -2.99565e-05 2.96793e-05 
2.86048e-05 -2.7891e-05 1.53538e-05 4.24518e-05 -5.29467e-05 2.42018e-05 4.55119e-05 -6.05326e-05 2.87075e-05 
2.94534e-05 -6.82845e-05 4.49924e-05 2.99947e-05 -4.52984e-05 3.30044e-05 8.73626e-06 -5.25144e-05 1.82531e-05 
6.86341e-06 -4.54156e-05 1.32246e-05 -3.7198e-06 2.16774e-07 8.00255e-07 -1.36147e-05 2.66739e-05 -8.26207e-06 
-2.75564e-05 2.48088e-05 -1.03085e-05 -2.11679e-05 1.112e-05 -2.19002e-05 5.33211e-05 -1.01266e-05 0.00098777 
-0.000118996 0.000775109 1.73151e-06 -0.000665363 0.000649813 0.000152671 -0.000802443 0.000393952 4.45707e-05 
-0.000702587 0.000129206 0.00015373 -0.000436093 0.000179719 4.214e-05 -0.000163519 9.39342e-05 3.94202e-05 
-0.000115076 6.43161e-05 7.09511e-05 -0.000124165 4.00815e-05 4.42754e-05 -0.000136374 1.21412e-07 4.38284e-05 
-8.42003e-05 -2.11898e-05 1.34443e-05 -1.91433e-05 2.44205e-05 3.15692e-05 -4.14356e-05 -6.85257e-06 1.23898e-05 
-4.22964e-05 -1.15993e-05 2.28937e-05 -1.90644e-05 -8.77881e-06 3.52533e-06 7.67637e-06 -2.74338e-05 -1.18675e-05 
2.81705e-05 -4.49264e-06 1.64521e-06 1.14654e-05 -2.43654e-05 -4.00245e-06 7.32643e-06 -1.7227e-05 -8.12769e-06 
2.95976e-05 -2.53534e-05 -1.20061e-05 3.50342e-05 -1.05817e-05 -1.03519e-05 2.12854e-05 -9.01398e-06 -1.33219e-05 
2.59401e-05 -2.03182e-05 -1.25936e-05 2.44491e-05 -2.3222e-05 -6.20761e-06 3.53756e-05 -1.08751e-05 -2.17345e-05 
4.18173e-05 -1.49534e-05 -8.50042e-06 2.67157e-05 -1.73472e-05 -9.178e-06 2.22826e-05 -1.20908e-05 -3.06297e-06 
2.0968e-05 -5.03374e-06 8.84604e-07 1.40731e-05 -6.28794e-07 4.58834e-06 -4.43264e-06 6.05706e-06 1.12403e-05 
-1.34154e-05 3.60179e-06 3.6931e-06 -1.45159e-05 1.29407e-05 3.03106e-06 -1.22528e-05 8.31191e-06 1.32455e-05 
-2.41466e-05 1.15895e-05 6.94318e-06 -2.16429e-05 1.26066e-05 1.7037e-06 -1.20266e-05 1.11091e-05 2.14425e-06 
-9.17063e-06 4.59774e-06 -9.56411e-07 -1.08394e-05 2.84162e-06 -4.10777e-06 -2.60429e-06 4.12333e-06 -5.91575e-06 
1.09523e-06 -1.00554e-06 -5.06819e-06 3.3358e-06 -4.34192e-07 3.65688e-06 6.68284e-06 0.0081846 0.000932604 
-0.0124371 -0.00893119 -0.000929031 -0.00148007 -9.9762e-05 0.00011433 -0.000126617 0.00010564 1.20922e-05 
-5.34299e-05 -0.000106467 6.47747e-05 -0.000372374 0.000265236 0.000132999 -0.000378118 0.000643063 -2.20086e-05 
-5.07463e-05 0.000343232 -0.000197426 0.000315811 0.000144003 0.000993272 0.000760691 -0.000901807 3.7957e-05 
-0.000356028 -0.000164126 0.000195557 -1.84409e-05 -0.000252111 0.000243889 -0.000282759 0.000277092 -2.25011e-05 
-0.000320525 0.0003374 -4.04835e-05 -0.000335598 0.000489938 -8.04412e-05 4.29987e-05 0.000229191 -0.000247902 
0.000113446 -1.3705e-05 -0.000187003 -1.68787e-05 0.00119867 0.000169232 -0.000538878 0.00186733 -5.487e-05 
-0.0104241 -0.00589613 0.00360278 0.00399313 -0.00314819 0.00152321 -0.00125575 -0.00236582 0.000887523 
-0.00118406 -0.00232706 0.000552111 -0.00232329 0.0023285 0.000619595 -0.00617744 -0.00809451 0.00151756 
-0.00785912 -0.00493123 0.000609211 0.00361292 -0.00230309 0.00108861 -0.00095406 -0.00223909 0.000454369 
-0.00160125 -0.00156111 0.000315923 -0.00164075 -0.001266 0.000532456 -0.00363274 -0.00229964 0.00267202 
0.00236861 -0.00249181 0.00248076 0.00027064 -0.0022696 0.00372876 -0.000880529 -0.000832077 0.000803126 
-0.001313 0.00216357 0.000573572 -0.00611551 -0.00879689 0.0016151 -0.0091445 -0.00575864 0.00141067 
0.00319769 -0.00290732 0.00229976 0.000646933 -0.00337723 0.00394259 -0.00239257 -0.00272586 0.00107362 
-0.00507265 -0.00512324 -0.020091 -7.49903e-05 -0.00136444 0.000622436 -0.00114246 -0.00528032 0.00129802 
4.43319e-05 -0.000381283 -7.83517e-05 -0.000958568 -6.92575e-05 -0.000723806 -0.00101302 0.000920644 -0.00195787 
-0.0018873 0.0011916 0.000214539 -0.00064207 0.000380903 -0.00460296 0.00149478 -8.80579e-05 -0.00185022 
-0.00345653 0.000147306 -0.00610438 -0.000307402 0.000197507 -0.00239287 0.00111506 -0.000827732 -2.85437e-05 
0.0029293 0.000252476 0.000167444 -0.00144441 0.00119257 3.83163e-06 5.95596e-06 -0.00158711 0.000114631 
-0.000151861 -0.00174509 -0.00202656 0.00194247 -0.0022827 -0.000907466 0.000508752 9.37441e-05 -5.98278e-06 
-0.0013644 -0.00136486 -0.000100589 0.000784274 -0.00361714 -0.000638112 0.000913722 0.000527146 -0.000939816 
-0.000640749 0.000122103 -0.000431449 -0.000567042 -0.000456424 -0.00012706 -0.00378875 -0.0060646 0.0012935 
2.9112e-06 -4.42094e-06 8.09852e-06 1.15763e-05 -7.00088e-06 -1.88287e-05 1.93174e-06 -8.79903e-06 0.000197613 
-0.00455558 0.00164558 -0.000332478 0.00348475 0.00279603 -0.00014615 -0.000103149 8.62088e-05 1.66796e-05 
3.82316e-06 0.000383772 0.000809556 0.000131475 -3.22915e-05 -3.89404e-06 -0.000298402 -0.000306623 -0.000631699 
-0.00273518 0.00517354 0.000255501 -0.00340069 -0.00886932 0.00267315 -6.72356e-05 -0.000326897 -0.000347819 
0.00219469 0.000179009 -0.000270779 -2.24743e-06 -5.62837e-06 2.69717e-06 -6.96523e-06 8.03942e-06 1.59256e-06 
-1.89922e-05 8.47508e-06 -5.26232e-06 -2.29884e-05 5.87512e-06 -7.75273e-06 -1.36398e-05 7.53067e-06 -5.43755e-06 
-1.26076e-06 2.32213e-05 -7.19269e-06 7.22664e-06 2.78139e-05 -9.1966e-06 8.23053e-06 1.53316e-05 -7.1753e-06 
2.3146e-05 -1.09057e-05 -1.11946e-06 2.67379e-05 -1.87508e-05 7.35556e-06 2.27182e-05 -1.31012e-05 1.67964e-05 
3.76508e-05 -2.30504e-05 2.33353e-05 4.69788e-05 -4.88076e-05 2.0409e-05 3.97081e-05 -5.85916e-05 3.60561e-05 
2.03869e-05 -4.82149e-05 4.0742e-05 1.43877e-06 -4.89961e-05 4.13959e-05 -7.477e-06 -4.81902e-05 3.21384e-05 
-4.98421e-06 -2.47074e-05 1.13357e-05 -1.65638e-05 -9.95199e-06 2.0033e-06 -1.32064e-05 1.96478e-05 -0.000119933 
0.000105474 -2.17731e-06 1.36498e-06 4.91682e-06 0.000780319 -4.21443e-05 0.000550876 -3.12963e-05 -0.000416523 
0.000245806 2.5532e-05 -0.000408883 0.000266152 -3.7801e-05 -0.000168579 0.000173392 8.6393e-06 -0.000107957 
0.000103887 6.31722e-05 -0.000158729 9.30187e-05 3.05539e-05 -0.000175212 5.59451e-05 4.44212e-05 -0.000135834 
3.45723e-05 5.34687e-05 -7.63736e-05 2.80429e-05 3.09897e-05 -2.99526e-05 1.03655e-05 9.571e-06 -5.3133e-05 
-6.64467e-06 6.47285e-06 -5.53843e-05 -1.72755e-05 2.04317e-05 -2.67391e-05 -7.12092e-06 7.90774e-06 6.3989e-06 
-7.80232e-06 -1.70189e-06 1.3667e-05 -1.86387e-05 -2.71211e-06 -6.37722e-06 -2.56359e-05 -1.05261e-06 2.22752e-06 
-1.48807e-05 -8.57863e-06 1.72614e-05 -1.10581e-05 -1.02528e-05 3.25747e-05 -2.00718e-05 -1.83974e-05 2.27209e-05 
-1.8247e-05 -7.90513e-06 1.59285e-05 -2.55054e-05 -6.42009e-06 2.7592e-05 -1.39421e-05 -1.32731e-05 2.91513e-05 
-1.05726e-05 -1.01832e-05 2.28534e-05 -1.94412e-05 -3.21042e-06 1.18109e-05 -1.48698e-05 2.48206e-06 1.31943e-05 
-8.81089e-06 3.44585e-06 1.34399e-05 -6.59449e-06 5.96918e-06 4.92771e-07 -2.83891e-06 7.17548e-06 -1.16634e-05 
2.62491e-06 1.16252e-05 -1.30654e-05 1.03555e-05 8.18865e-06 -8.37896e-06 9.59955e-06 9.1456e-06 -1.67132e-05 
6.62742e-06 8.27839e-06 -1.95961e-05 1.21108e-05 1.16375e-06 -1.42802e-05 1.42048e-05 -1.13155e-06 -6.24976e-06 
1.16674e-05 -2.96025e-06 -8.157e-06 6.76915e-06 -4.96023e-06 -4.91412e-06 5.4826e-06 -7.38075e-06 2.0994e-06 
4.54808e-06 -4.99544e-06 -1.74395e-06 3.91863e-06 -5.62384e-05 7.59819e-05 0.00015811 -0.000439109 -4.43255e-05 
4.51285e-05 4.97409e-05 -0.000359016 -0.000478904 0.00144102 -0.00270755 -0.00115411 -0.000223263 9.49406e-05 
-0.000322985 0.000378678 -0.000377482 0.000443951 -4.24744e-05 -0.000215732 0.000186076 -9.09023e-05 -0.000116183 
1.66879e-05 5.35964e-05 0.000339142 0.000374716 0.00059627 -0.00100453 -0.000521496 -0.000820562 -0.000562875 
0.000646101 -0.00160151 0.000417872 0.000390514 0.000246334 0.000416049 0.000450547 -6.12098e-05 7.23005e-05 
0.000154291 0.000188647 0.000220105 0.000301231 -0.000917271 0.000296656 -0.00112821 -0.00147997 0.000431389 
-0.00113358 0.000183402 0.000503699 0.000343593 1.02899e-05 0.000126253 0.000281554 7.76215e-05 7.04448e-05 
0.000216528 6.78753e-05 9.31714e-05 0.000374226 -0.0010163 0.000185739 -0.0010712 0.000278283 0.00040662 
-3.62675e-06 0.000393247 0.0001444 0.000641061 0.000169852 0.000221186 0.000269676 0.000265518 0.000168972 
0.000320345 -0.000645144 0.000123758 -0.00113907 -0.00078803 0.00044642 -0.000898536 -0.000505003 0.000550162 
-0.000377075 0.000149253 0.000321421 0.000622333 -0.000500008 0.000443648 -5.35622e-05 -0.00030149 0.000343639 
0.000969779 -0.000465442 -0.000348329 -0.00034587 -3.81838e-05 -0.000543817 9.86593e-05 -3.08941e-06 0.000439749 
3.81597e-05 0.000269902 -3.50464e-05 8.28022e-06 -0.00130091 0.000683996 0.000226514 -0.000423105 -0.000146226 
0.000361387 -9.22177e-05 -0.000134733 -0.000135825 0.00026445 -0.000211506 -0.000486022 0.000413755 0.000259829 
0.000301684 -0.000655292 -0.000625187 0.000241785 1.38243e-05 0.000145929 0.000509759 0.000174788 0.00124338 
-0.000981433 0.000981466 -0.00026007 -0.000416009 -7.52814e-05 0.000322544 -0.000251348 -0.000558076 -0.000507002 
0.000207078 -0.000291869 0.000333974 -4.77941e-05 0.000210706 0.000257213 -0.000305787 0.00139058 1.07821e-05 
-1.20026e-05 3.81911e-06 1.47765e-05 -0.000475357 -0.00409536 0.000442624 0.00070267 0.000163579 1.72703e-05 
8.57407e-06 4.17925e-05 3.44795e-05 0.000179704 0.00045255 0.000134601 4.31232e-05 0.000176773 -7.57891e-05 
-6.30595e-05 0.000605044 0.000239372 9.09471e-05 -0.000197135 6.06538e-06 0.00020833 -0.000875018 0.00133002 
0.000842127 -0.000547451 -0.00133713 2.59479e-05 -3.28733e-05 -0.000397296 -0.000761051 0.00126294 -0.000341567 
0.000189825 8.98457e-06 -2.42082e-05 0.000945076 -0.00022589 -1.4079e-05 -0.000464803 0.000364325 -0.000355657 
-7.6151e-05 2.02333e-05 8.6099e-05 -7.90034e-05 -1.93765e-05 -1.87642e-05 1.04557e-05 -1.34641e-05 4.55762e-06 
-1.93571e-05 -8.44066e-06 -5.15273e-08 -1.51232e-05 -1.34388e-06 -1.90956e-07 -6.56952e-06 1.33015e-05 -1.17432e-05 
3.92863e-06 3.05943e-05 -1.42944e-05 1.7606e-05 3.05558e-05 -2.43042e-05 2.1336e-05 7.99808e-06 -1.58393e-05 
3.28275e-05 -7.18491e-06 -2.64708e-05 2.88674e-05 2.11869e-05 -9.89714e-06 4.49461e-05 -1.4834e-06 -4.70969e-06 
3.67155e-05 -4.48511e-05 1.40229e-05 3.56805e-05 -5.6446e-05 1.75241e-05 2.01006e-05 -6.64958e-05 2.6774e-05 
7.16458e-07 -5.3825e-05 5.5981e-05 -1.89243e-05 -2.99637e-05 3.67901e-05 -2.22513e-05 -3.30076e-06 1.90761e-05 
-2.79911e-05 -1.65225e-05 1.44362e-05 4.41029e-06 -1.31782e-06 -2.05575e-05 -0.000158069 2.7216e-05 -0.000572517 
-0.000618199 0.000599056 -0.000307055 0.000333973 0.00021857 -8.6544e-05 0.000187938 -0.00011691 -0.000136687 
0.000175329 -6.16269e-05 -0.000122186 0.000181157 4.40205e-05 -0.000132758 0.000126583 1.97696e-05 -0.00018901 
0.00011982 2.58782e-05 -0.0001764 4.96915e-05 6.00296e-05 -0.000129525 3.0186e-05 5.17415e-05 -5.45569e-05 
2.71746e-05 3.27335e-05 -2.98892e-05 2.21698e-05 8.73492e-06 -5.83485e-05 9.59137e-06 1.70522e-05 -5.02674e-05 
9.46521e-06 2.3754e-05 -1.37029e-05 3.26538e-06 1.22121e-05 5.8649e-06 -9.25211e-06 -1.45483e-06 3.17247e-06 
-1.49277e-05 -1.02733e-06 -1.16989e-05 -1.52463e-05 4.54977e-06 -4.44674e-06 -5.77013e-06 -2.65833e-06 1.44848e-05 
-4.55482e-06 -7.75047e-06 2.12746e-05 -1.74721e-05 -1.11918e-05 1.31917e-05 -1.95219e-05 -3.76623e-06 8.25982e-06 
-1.85698e-05 -1.2477e-06 1.68574e-05 -1.19053e-05 -5.62906e-06 1.83483e-05 -1.12504e-05 -1.52094e-06 1.31718e-05 
-1.97293e-05 4.17576e-06 -8.07961e-07 -1.6619e-05 7.56351e-06 3.43985e-06 -9.76594e-06 1.10217e-05 2.73454e-06 
-4.97945e-06 1.30883e-05 -1.21381e-05 -2.41977e-08 1.43565e-05 -1.5186e-05 5.95327e-06 7.02997e-06 -8.3184e-06 
1.03651e-05 5.40238e-06 -1.12644e-05 6.8363e-06 7.16709e-06 -2.08129e-05 1.15475e-05 7.08512e-07 -1.43348e-05 
1.40342e-05 -1.01052e-05 -4.65543e-06 1.30843e-05 -6.30917e-06 -1.98095e-06 9.7423e-06 -7.15071e-06 -8.68106e-07 
6.7128e-06 -1.00417e-05 4.32288e-06 -0.00153759 0.000436577 0.000931487 -0.000138418 0.000660173 -4.27713e-05 
0.000264057 0.000365446 -0.000233784 0.000168262 0.000326865 -0.000264269 0.000143673 -0.000200541 -0.000345006 
0.00030675 -8.30054e-05 -0.000288832 6.80417e-05 -8.39444e-05 -0.000396161 0.000397161 -0.000290244 -0.000248827 
0.000290408 -2.2896e-05 1.98129e-05 1.25798e-05 -5.80343e-05 -4.87882e-05 2.63811e-05 3.98189e-05 -0.000122061 
0.000147448 -8.56293e-05 -2.86663e-05 -4.05524e-06 4.5947e-06 -8.16923e-05 7.36966e-05 -4.76237e-05 -6.02534e-05 
6.25489e-05 -2.01922e-05 -6.75537e-05 7.82793e-05 -4.66334e-05 9.42965e-06 8.8115e-05 -1.43487e-05 -2.49552e-05 
0.00012566 -6.74368e-06 -1.64878e-05 0.000111693 5.67422e-07 -1.38129e-05 0.000125989 -3.21293e-05 -4.7154e-05 
0.000181008 -0.000135981 -3.62193e-05 0.000163608 -0.000142783 -4.00245e-05 0.000164592 -0.000266114 -3.00366e-05 
0.000225417 -0.000323804 -0.000132958 0.000278358 -0.000161607 0.000100623 0.000149471 -4.52979e-05 0.00065997 
0.000103474 0.000200877 0.000179916 -0.000403361 -6.7339e-05 0.000349692 0.00018396 -0.000282342 -0.000150427 
4.5313e-06 -4.72871e-06 -3.35273e-08 -0.000137894 0.000377487 0.000148928 -0.000411792 -0.000121226 0.000292672 
-0.000158083 2.2089e-06 -1.20739e-05 -4.5714e-06 -1.52676e-06 -0.000245976 0.000277613 -0.000175531 3.84704e-05 
9.04196e-06 0.000367909 -8.04404e-06 -0.000468616 -0.000191677 0.000286917 0.000287757 -0.000306992 0.00044318 
-0.000135937 -0.000502367 0.000137602 -0.000211158 -8.66643e-05 0.000373853 0.000373246 -0.000288556 6.66481e-05 
0.000783834 -0.000119641 2.76523e-06 -0.000463218 -0.000148671 0.00049819 -4.12181e-05 8.6321e-05 8.35989e-05 
1.9757e-05 0.00109584 -0.000767429 0.0003391 -4.16111e-05 5.08395e-05 -7.14873e-05 -0.000167008 -0.000247475 
0.000323664 -4.19391e-05 0.000284582 -9.64879e-05 -0.000241096 0.000225223 0.000186169 -0.00013367 5.76978e-05 
0.000231109 -0.00707967 0.0024064 -2.26848e-05 4.37599e-05 7.40937e-05 5.32377e-05 -0.000811794 6.53306e-06 
-1.4843e-05 -1.15839e-05 -5.44835e-06 -2.06345e-06 5.77796e-05 0.000186855 5.75576e-06 -1.49155e-05 -6.95649e-07 
-1.47903e-05 -6.60707e-06 -4.10346e-06 -2.04074e-06 2.69239e-05 -2.64846e-05 -2.34755e-06 3.61466e-05 -4.12716e-05 
9.97199e-06 1.83238e-05 -1.83902e-05 -1.82421e-05 -4.04922e-05 2.23742e-05 0.00277714 -3.56461e-05 1.74729e-05 
2.28316e-05 5.75868e-06 4.85464e-05 8.00394e-05 -5.86623e-06 2.10437e-05 -4.33613e-05 3.92135e-05 2.27732e-05 
-3.2837e-05 2.30291e-06 2.31113e-06 6.1063e-07 8.84847e-05 -3.14668e-05 1.25329e-05 -0.000423004 -0.000297286 
0.000137908 0.000309123 9.32099e-05 0.000396474 -0.000147175 0.000140566 -4.00551e-05 -0.000159574 0.000108 
8.0149e-06 -0.000205006 0.000151505 4.35979e-05 -9.08869e-05 0.000148265 3.08651e-06 -0.000110826 0.00012397 
2.8361e-05 -0.000138331 5.9529e-05 5.14328e-05 -0.000100426 3.36109e-05 4.54853e-05 -3.82588e-05 3.07598e-05 
2.47194e-05 -3.10655e-05 3.59489e-05 1.21283e-05 -6.55658e-05 1.47571e-05 2.57443e-05 -5.05031e-05 1.13821e-05 
2.43548e-05 -7.50787e-06 1.12839e-05 1.53185e-05 -2.84803e-06 2.13984e-06 7.30506e-07 -2.42324e-05 -1.4831e-06 
-5.38037e-07 -3.09835e-05 -4.75667e-06 5.93811e-06 -1.60115e-05 -1.12259e-07 2.60301e-06 5.45652e-06 -2.46462e-06 
1.31774e-06 4.68482e-06 -8.06684e-06 -2.63082e-06 -3.8962e-06 -1.32814e-05 -5.62575e-07 2.42633e-07 -1.14012e-05 
3.14181e-06 5.94293e-06 -8.51683e-06 8.45639e-06 3.78198e-06 -1.11895e-05 1.11658e-05 -2.02625e-06 -2.16724e-05 
1.50155e-05 -8.71792e-06 -1.43358e-05 1.35695e-05 -9.42811e-07 -8.81659e-06 1.99067e-05 -9.79021e-06 -3.5829e-06 
1.5539e-05 -2.36807e-05 5.66628e-06 1.553e-05 -1.98631e-05 6.27418e-06 1.28329e-05 5.50375e-06 4.56598e-06 
1.04861e-05 -1.29567e-05 1.13303e-05 -4.8853e-07 -2.02352e-05 1.14125e-05 -1.38114e-05 -4.3275e-06 1.24241e-05 
-1.61024e-05 2.46029e-06 8.0533e-06 -1.08798e-05 6.17172e-06 3.95183e-06 -5.40474e-06 1.01477e-05 -5.40687e-05 
4.64383e-05 0.000397311 -4.9929e-05 -0.000164891 -3.30747e-06 1.63543e-05 0.000302747 2.74217e-05 0.000187019 
4.58687e-05 0.000191239 0.000192177 -0.00016595 0.000256126 -0.000147364 0.000230596 -0.000146318 -8.38212e-05 
0.000236262 -0.000208 -0.000114844 0.000140741 4.38487e-06 2.67654e-06 -3.75009e-05 -2.29778e-06 2.09554e-05 
-8.37419e-05 0.000111501 -1.6749e-05 -2.88361e-05 7.50382e-05 -8.84117e-05 -8.76285e-05 5.49799e-05 -7.98761e-05 
-5.39314e-05 9.2316e-05 -0.000107025 -4.61116e-05 0.00017248 -0.000122427 -7.08192e-05 0.00019528 -6.88401e-05 
-0.000107033 0.00010315 -4.85098e-05 -0.000134224 0.000140135 -8.00762e-05 -0.000145798 0.000235857 -0.000174777 
-0.000140214 0.000236355 -0.000254275 -8.49394e-05 0.000210819 -0.000269807 -9.88131e-05 0.000287085 -0.000101327 
-4.51976e-05 -0.000185554 0.000209665 0.000230946 -0.000183749 -0.000239243 1.30898e-05 -7.95852e-06 -1.84685e-05 
1.28172e-05 0.000113549 -0.000196261 6.42958e-05 -0.000190812 -4.00364e-05 9.07142e-05 -6.67856e-05 -5.39686e-06 
0.000175918 -0.00019017 0.000221858 -0.000158595 -5.60348e-07 -0.000169925 -5.37991e-05 0.000305244 2.67318e-05 
3.17235e-05 -4.21656e-05 5.59265e-05 -0.000185475 4.944e-05 -0.000262294 0.000287602 -9.15254e-05 2.92739e-05 
4.40806e-05 -0.000123833 3.66453e-05 -4.5172e-05 -3.58512e-05 0.000185468 -0.000124242 -6.56275e-05 -0.000107844 
0.000255542 3.27449e-05 -3.68235e-05 -9.75454e-05 0.000108541 -1.75359e-05 7.91817e-05 2.80801e-05 8.41328e-06 
-4.7205e-05 -3.13214e-05 -6.86845e-05 -2.78164e-06 0.000341558 -4.96633e-06 0.00132932 -0.00871508 -0.000111066 
-0.000103075 -7.46258e-05 6.05148e-05 -6.5166e-05 -0.000211049 -2.01926e-05 -0.000194111 -8.65658e-05 4.52171e-05 
7.6152e-06 -1.33073e-09 -5.53825e-05 1.95675e-05 -4.97362e-05 4.22477e-05 -2.95665e-05 5.72479e-05 0.00010932 
-6.20357e-05 1.62922e-05 -5.30263e-06 0.000188984 -5.183e-05 -0.000116251 3.70998e-05 5.6612e-05 0.000281767 
-1.61533e-05 9.16136e-05 1.94806e-05 -0.000158314 0.000127451 3.32461e-06 -5.43033e-05 0.000147619 -9.92255e-06 
-7.99064e-05 9.81804e-05 1.27405e-05 -9.58469e-05 6.97912e-05 3.2931e-05 -4.26633e-05 3.90217e-05 3.77795e-05 
-2.92599e-05 3.2056e-05 1.72844e-05 -2.92019e-05 4.80211e-05 1.51559e-05 -6.29134e-05 3.92287e-05 1.85033e-05 
-4.45245e-05 2.09166e-05 1.89375e-05 8.27027e-06 1.03093e-05 8.75824e-06 -5.96618e-06 1.72398e-05 2.57058e-06 
-4.06489e-05 1.22729e-05 5.34619e-06 -4.54576e-05 7.725e-06 9.94941e-06 -2.43972e-05 4.42204e-06 9.43187e-06 
-2.10487e-06 5.07488e-07 6.16788e-06 -5.38301e-06 2.85029e-06 1.84397e-06 -1.96257e-05 -1.31701e-06 6.26341e-06 
-1.00288e-05 -4.157e-06 1.77701e-05 -4.71852e-06 -7.21897e-06 2.86634e-05 -6.97466e-06 -1.38837e-05 3.07437e-05 
-2.11481e-05 -5.3009e-06 1.65305e-05 -1.67974e-05 -1.24647e-06 2.04354e-05 -2.27938e-05 -4.70885e-06 2.26422e-05 
-5.1121e-06 -3.33927e-06 6.64256e-06 -2.90253e-05 -2.08123e-07 3.05554e-06 -1.78085e-05 6.75603e-06 -0.00316383 
-0.0041895 4.95871e-06 2.96835e-06 1.6199e-05 8.87537e-06 -1.98897e-05 1.75612e-05 5.503e-06 -1.4739e-05 
6.31064e-06 7.17004e-06 -1.18706e-05 1.89129e-05 -5.48351e-06 -0.000207035 -0.000132239 0.000331635 -4.39648e-05 
4.69986e-05 -5.6755e-05 2.40786e-06 1.92314e-05 4.22663e-05 3.71478e-05 0.000125953 -4.42966e-05 -9.31023e-05 
-6.65777e-05 -2.20107e-05 -0.00499708 0.000750539 -0.000102915 -6.99908e-05 0.000177844 -0.000136834 -5.05149e-05 
0.000122624 -0.000121841 -0.000155323 0.000291039 -1.65951e-05 -0.00421677 9.18384e-05 -0.000101251 -0.000180554 
0.000257673 -0.000122181 -0.000143799 0.000234636 -0.000184251 -8.76403e-05 0.000219629 -0.000219811 7.54263e-05 
-0.000341244 2.04378e-06 8.14997e-05 3.16738e-06 9.93935e-05 4.01168e-05 5.38391e-05 6.79013e-05 -6.03044e-05 
2.17421e-05 -8.99354e-07 -6.47739e-06 -1.8358e-05 -1.20405e-05 5.05247e-05 3.43735e-05 4.91743e-05 -0.00383597 
0.00288783 -0.000237127 4.29398e-05 0.000126995 -0.000106154 -6.69928e-05 -4.71179e-05 2.03008e-06 1.49073e-05 
-1.43311e-05 -9.65836e-06 -0.000172449 -2.58541e-06 3.61065e-05 -8.96816e-05 -4.6238e-06 -1.57148e-05 -7.60632e-05 
9.63522e-05 2.669e-05 0.00027559 -2.86957e-05 -2.36524e-05 1.71911e-07 -7.03805e-05 0.000105751 -7.59417e-06 
-8.36784e-06 8.06677e-05 2.00497e-05 1.06046e-05 -1.67954e-05 1.85021e-05 -9.72787e-05 -0.000183456 0.000135389 
-5.01765e-05 0.000295554 0.000313078 7.7086e-05 0.000189161 -0.000170036 -2.00513e-05 -5.12156e-05 0.000150891 
-0.000198083 0.000188939 0.000166543 -0.00018633 -0.000126457 -6.03793e-05 5.72242e-05 -1.62101e-05 7.84698e-06 
-0.000312177 -8.34249e-06 8.72579e-05 -3.71051e-06 0.000161188 -3.7436e-05 0.000216544 -6.73759e-05 -4.46602e-05 
0.00011084 -1.07911e-05 -9.15233e-05 0.000119061 -6.44609e-06 -3.59117e-05 0.000128393 -1.06962e-07 -6.30804e-05 
7.91695e-05 2.99602e-06 -7.86166e-05 5.83211e-05 6.27277e-06 -5.66257e-05 3.69211e-05 2.25568e-05 -1.6632e-05 
3.09963e-05 1.01952e-05 -2.26293e-05 5.80017e-05 2.61662e-05 -7.28523e-05 -1.52883e-05 0.00124256 -0.000370266 
2.33537e-05 5.69617e-06 -3.57798e-05 3.23678e-05 2.8985e-06 -3.62761e-05 2.60904e-05 5.65248e-06 -6.59113e-05 
2.00167e-05 6.77527e-06 -6.67411e-05 1.87339e-05 9.30349e-06 -3.74786e-05 1.77006e-05 1.75473e-05 -3.18067e-06 
1.27706e-05 1.56738e-05 -2.29801e-05 1.86359e-05 7.08975e-06 -2.42615e-05 1.01475e-05 2.93686e-05 -3.12863e-06 
-1.03865e-05 2.68882e-05 -5.12044e-06 -9.37177e-06 2.81538e-05 -2.13832e-05 -1.55798e-05 5.37067e-05 -1.6766e-05 
1.1862e-05 1.98581e-05 -4.42398e-07 -5.68818e-06 1.39127e-05 -3.34664e-05 2.078e-05 0.000350658 0.00356595 
-6.07621e-06 -3.98423e-05 -5.74405e-05 0.000300125 -0.000162551 1.67369e-05 -1.94963e-05 -4.98552e-05 -1.62106e-05 
5.07506e-05 2.21953e-05 -3.846e-05 -6.68444e-06 -7.01246e-05 8.0758e-06 -8.94897e-05 -1.06394e-05 2.96242e-05 
-7.6392e-06 -1.07497e-05 -7.18497e-05 0.000157123 5.82185e-06 -0.000171441 -0.000652662 -0.000873077 -3.45621e-05 
-0.000175425 -2.57696e-06 -7.44122e-05 1.37916e-05 -1.17273e-05 -9.763e-05 4.88445e-05 -1.19832e-05 -9.17826e-05 
-6.54683e-05 0.00602895 -2.7711e-06 -1.81115e-07 7.89703e-06 -1.77671e-05 -1.41595e-05 1.96675e-05 -2.87687e-05 
5.77257e-05 -0.000130972 0.00014472 -4.24891e-05 -5.40238e-05 -5.33162e-05 -0.000154149 -0.000114948 0.00564542 
-0.000214404 -0.000167223 0.00017566 0.000103297 2.44877e-05 -3.93249e-06 0.000135836 1.5647e-06 6.00561e-06 
5.78357e-06 -3.36185e-05 -7.30875e-05 8.47161e-05 5.27227e-05 -0.000104264 9.74028e-05 -7.6345e-06 -9.08055e-05 
0.000111923 4.38408e-05 0.000118199 -9.74585e-05 6.97413e-05 0.000110635 -9.58896e-06 -7.4847e-05 6.90194e-05 
7.41678e-06 6.0566e-05 2.18088e-05 -7.11453e-05 3.61096e-05 3.33351e-05 -7.55465e-05 4.06639e-05 2.99491e-05 
-8.41887e-06 3.67859e-05 3.86132e-05 -9.78474e-06 5.85262e-06 1.02705e-05 -2.31311e-06 -5.03711e-05 0.000148243 
-3.80531e-06 0.000102476 4.37201e-05 3.50295e-05 -0.000181005 4.17005e-05 -4.9974e-05 4.29854e-05 0.00010116 
-7.3587e-05 -3.43039e-05 9.52518e-07 0.000112184 -7.95763e-05 -2.52681e-05 -0.00022545 1.86427e-05 1.41939e-05 
0.000152612 7.88455e-05 -6.61883e-05 2.17482e-05 0.00010947 -3.94491e-05 -1.27809e-05 7.67859e-05 -1.98216e-05 
-5.9204e-05 6.11169e-05 -2.57573e-05 -3.61965e-05 3.20532e-05 -8.56736e-06 -4.90994e-05 -3.1004e-05 -2.9138e-05 
1.72648e-05 2.00606e-05 1.77186e-05 3.31793e-07 -8.63474e-06 8.59021e-06 4.24099e-05 3.63704e-05 3.30299e-05 
2.31077e-06 2.98381e-05 1.88159e-05 1.27376e-06 -6.35526e-05 -4.78837e-05 -4.4415e-05 3.40549e-05 2.10813e-05 
-2.69286e-05 -6.43467e-05 -1.97353e-05 0.000102438 6.66535e-06 6.95898e-05 2.10953e-05 -5.31186e-05 -1.64972e-05 
-2.94945e-05 2.49876e-06 -5.08762e-05 6.32803e-05 7.06318e-05 5.56474e-06 -7.78615e-05 1.99115e-05 5.73029e-05 
8.85699e-05 2.49284e-05 9.62471e-05 3.8807e-05 -4.51393e-05 7.19907e-05 7.79545e-06 7.78897e-05 -1.59358e-05 
-7.99529e-06 3.11956e-05 1.86889e-05 -1.37614e-06 5.35855e-05 -9.23905e-05 0.000100554 1.52922e-05 -9.2014e-06 
3.31031e-05 -9.06917e-06 4.42834e-05 3.30637e-05 -0.000127741 -8.8076e-06 -1.09868e-05 -1.39285e-06 -4.86625e-06 
-3.05832e-06 7.75153e-06 -5.91591e-06 -2.74985e-06 9.01046e-06 -5.76151e-06 -1.29406e-06 1.3585e-05 -2.08149e-05 
-9.1188e-06 1.77897e-05 -7.27733e-06 -6.00406e-06 1.82652e-05 -1.52383e-06 -4.72073e-06 1.37814e-05 -4.77866e-06 
-4.71247e-06 1.821e-05 -2.46662e-06 -1.00463e-05 9.20433e-06 1.07905e-05 -1.34105e-07 -1.42481e-05 9.25753e-06 
3.07287e-06 -3.10876e-05 6.6779e-05 4.29027e-05 -5.3383e-05 5.48746e-05 2.42718e-05 -6.84286e-05 1.80322e-05 
1.44349e-05 -7.77832e-05 5.99312e-06 1.59319e-05 -5.08435e-05 1.09617e-05 3.32441e-05 -5.64146e-05 7.83822e-06 
3.206e-05 -3.38015e-05 -1.10841e-05 1.12791e-06 9.34838e-06 -1.26899e-05 -4.87921e-06 3.44618e-05 -2.91466e-05 
-3.94937e-05 4.03224e-05 -3.28362e-05 -4.28526e-05 5.61643e-05 -7.09528e-06 -0.0164734 0.00545082 0.010689 
-0.000318007 0.000254728 -0.00288257 4.81525e-05 0.00071464 -0.000749207 9.90059e-05 0.000353832 -0.000784397 
1.50304e-05 0.000231351 -0.000512646 5.5198e-06 7.84136e-05 -0.000131466 6.46862e-06 4.34988e-05 -7.54419e-05 
7.25127e-06 2.6173e-05 -5.62179e-05 3.65724e-05 3.45753e-07 -8.21606e-05 -1.16439e-07 6.2359e-06 -3.97858e-05 
-5.19029e-06 1.43009e-06 -1.14508e-05 -7.00716e-06 -7.43312e-06 -1.75845e-05 4.54163e-06 -1.95565e-05 -4.36074e-06 
-5.65151e-06 -1.16747e-06 1.31455e-05 -1.0841e-05 -3.3399e-06 1.12394e-05 -2.21658e-05 -1.18575e-05 2.14313e-05 
-8.01668e-06 -8.09462e-06 3.52039e-05 -8.57383e-06 -7.40078e-06 2.0105e-05 -1.1691e-05 -8.70821e-06 1.95464e-05 
-1.33522e-05 -1.26676e-05 2.1755e-05 -2.42796e-05 -3.12851e-05 4.09523e-05 -4.83821e-07 -7.58136e-06 3.70866e-05 
-1.97243e-06 -8.90429e-06 1.33741e-05 1.27753e-07 -8.58007e-06 1.88483e-05 3.25102e-06 -1.89853e-06 -3.60226e-07 
4.71352e-06 -3.75961e-07 -8.86502e-06 4.33511e-06 2.62216e-07 -8.01189e-06 1.27965e-05 1.33822e-05 -1.80823e-05 
1.59713e-06 5.29039e-06 -2.38822e-05 6.28809e-07 5.27911e-06 -1.0029e-05 1.14731e-06 8.13443e-06 -8.13899e-06 
-4.56805e-06 2.38453e-06 -4.98261e-06 -3.89787e-06 2.45141e-06 1.43243e-06 -6.96675e-06 -1.11603e-06 4.0898e-06 
-0.00978621 -1.84187e-05 3.89202e-06 -7.16971e-06 -1.88109e-05 3.83862e-05 2.49695e-05 -1.36227e-05 7.81899e-06 
6.24944e-05 -2.48399e-05 2.11574e-05 0.000111086 -7.54743e-06 -1.40986e-05 -0.000205555 6.58329e-05 -0.000208471 
5.66547e-05 0.000270982 -0.000184958 -4.9475e-05 0.000479178 -7.91703e-05 -0.000186495 0.000336458 2.07517e-05 
0.000164134 9.36891e-05 0.000379887 0.000251507 0.000263123 -0.000531743 0.000488043 -5.22881e-05 0.000215441 
0.00082901 9.40066e-05 -3.06908e-05 0.000139083 0.000137221 -0.000128601 6.78229e-05 0.000187507 -0.000107605 
-3.6244e-06 0.000230822 -0.000110847 -6.60491e-05 0.000634956 -9.19401e-06 -0.000162726 0.00038045 0.000376851 
-0.000398782 0.00281156 0.00088544 -0.00120432 0.00224982 0.00121796 -0.00176634 0.00124023 0.00417031 
-0.00143466 -0.0143719 0.0337937 0.0377776 0.00491828 -0.00660144 -0.00416248 0.00945418 0.0147248 
-0.0093732 0.00731314 0.00999748 -0.0128498 0.00910194 0.00717329 -0.0106621 0.0110364 0.00899399 
-0.01118 0.00714347 0.00501892 -0.00773842 0.0069082 0.0118762 -0.00916191 0.00849553 0.00771304 
-0.00945828 0.00915653 0.0070875 -0.00895629 0.0153623 0.00687654 -0.0101482 0.00613222 0.00662544 
-0.00771672 0.00742994 0.00336386 -0.00569476 0.00826142 0.00547587 -0.0106586 0.0131756 0.00674888 
-0.0117572 0.00531906 0.00509778 -0.00961163 0.0110005 0.0111076 -0.0082235 0.0132608 0.00680933 
-0.0053702 0.0184048 0.00715704 -0.00984784 0.0114018 0.0151804 -0.0141544 -0.0323049 0.0139299 
-0.011385 0.0325531 0.00525525 0.0111955 -0.0154239 0.000871008 0.00117454 -0.00419365 0.00255532 
0.00536705 -0.00195498 0.00126776 0.00300863 -0.00235297 0.00101573 0.00368392 -0.00128132 0.00163917 
0.00549877 -0.0019115 0.0047908 0.00611859 -0.00250367 0.00479703 0.00585403 -0.00549101 -0.000135396 
0.00379231 -0.0036405 0.0111033 0.024585 -0.00322153 0.00294214 -0.0255555 0.0297988 0.00702026 
0.0026715 0.00517036 0.00188576 -0.00528939 0.00542096 0.00160443 0.00537667 0.00236796 -0.00340566 
0.00791226 0.00468479 -0.00328271 0.00861636 0.00555855 -0.00370213 0.00302986 0.000597064 0.000431213 
0.000538668 -0.00156506 0.00967487 0.00845899 0.00746199 0.00443094 -0.0177239 0.00683221 0.00488163 
-0.00323354 -0.0081147 0.00284404 2.67623e-07 4.49041e-05 -2.52286e-06 -5.1289e-05 7.44322e-05 7.41984e-05 
0.000192261 -0.000251533 9.71335e-05 -0.000102997 -0.0520655 -0.00469022 -0.0651398 0.0288285 0.0303796 
-0.0431254 -0.00433818 -0.00553234 -0.00355765 0.00134761 -0.0110943 0.0164921 -0.00373068 0.0120062 
-0.0146652 -0.0042649 0.022677 -0.0305902 -0.00153705 -0.0095433 -0.00517612 -0.0156931 -0.0218042 
5.07375e-06 -0.0049526 -4.47817e-06 -3.24985e-06 -3.1664e-06 -3.14894e-06 2.22097e-06 9.20097e-06 -8.60015e-06 
-7.88395e-06 -2.05677e-05 -6.86082e-06 1.18483e-05 -1.52632e-05 -1.75923e-06 2.20216e-05 -5.02735e-06 -1.22516e-05 
2.0594e-05 8.33814e-06 -8.4712e-06 1.95032e-05 2.63341e-05 7.975e-07 -9.1971e-06 2.57212e-05 2.21495e-06 
-2.70873e-05 1.94757e-05 2.44452e-05 -2.4372e-05 5.7614e-05 3.51021e-05 -4.63804e-05 6.79789e-05 1.56259e-05 
-7.58659e-05 3.59937e-05 2.23231e-05 -6.78043e-05 9.01614e-06 4.52336e-05 -5.96057e-05 -2.31946e-06 3.92424e-05 
-5.22408e-05 -2.22291e-05 3.93521e-06 2.71926e-06 -3.067e-05 -1.62532e-06 2.6313e-05 -2.98319e-05 -1.67899e-05 
3.49438e-05 -1.1645e-05 -4.14531e-06 3.01583e-05 -6.99678e-05 -5.16738e-05 5.8693e-06 0.000762809 -0.000404244 
0.0008823 -0.0004876 -0.000234002 -0.00197636 -0.00158737 4.64571e-05 7.36907e-05 0.000650778 -0.000467934 
-1.50127e-05 0.000198735 -0.000223502 -4.3238e-06 9.89752e-05 -9.93539e-05 9.46996e-06 4.72899e-05 -7.80072e-05 
3.12129e-05 3.99796e-05 -0.000147313 5.87511e-05 5.21999e-05 -8.56047e-05 -4.73842e-06 1.51592e-05 -5.34088e-05 
7.91062e-06 -1.1874e-05 -3.81279e-05 3.37971e-07 -4.42046e-06 -2.54796e-05 1.18951e-05 -7.07471e-06 -4.19503e-07 
-7.34677e-06 6.68494e-07 8.08398e-06 -3.40546e-06 -2.79159e-05 7.68717e-06 -7.16972e-06 -2.53206e-05 1.98535e-05 
-5.51792e-06 -8.6242e-06 2.64527e-05 -8.03375e-06 -8.61115e-06 2.90526e-05 -9.44672e-06 -1.23918e-05 2.35474e-05 
-2.36449e-05 -2.58872e-05 3.12033e-05 -1.60925e-05 -1.11196e-05 2.77799e-05 5.28394e-06 -1.09412e-05 2.10303e-05 
1.25212e-06 -1.33514e-05 1.9224e-05 5.57261e-06 -1.43379e-05 9.88194e-06 5.02959e-06 -2.18631e-06 -9.05451e-06 
7.49181e-06 -3.22425e-06 -1.11541e-05 1.38195e-05 1.32659e-05 -1.41989e-05 8.16674e-06 5.98654e-06 -1.77496e-05 
-3.56028e-06 8.14973e-06 -1.68029e-05 -3.76235e-06 1.09451e-05 -6.98176e-06 -3.01945e-06 1.0299e-05 -1.12042e-05 
-6.13077e-06 6.21856e-06 -5.50379e-07 -4.18571e-06 2.23973e-06 3.61179e-06 9.75189e-08 9.22953e-05 -4.03803e-05 
-0.000189689 -0.00016107 0.00011496 -0.000104771 1.71355e-05 -0.000246003 8.17168e-06 0.000164988 -0.000444587 
3.60441e-05 0.000358121 7.52647e-05 -0.000164443 -2.73808e-06 0.000146844 -0.000125208 -0.00010099 6.61704e-06 
0.000109549 0.000310432 -0.000252968 0.0003565 -0.000235153 -6.93334e-05 0.000524458 -0.000170418 -9.89796e-05 
0.00040003 -1.7833e-05 -0.000212969 0.000513578 0.000209733 -0.000681509 0.000291507 0.000518771 -0.000466375 
0.00149004 -7.25899e-05 0.00017291 0.00271064 -0.00178864 -0.0242526 0.00615714 -0.00497085 -0.00233762 
-0.000339274 -0.00314991 -0.00289594 0.000414158 -0.00207223 -0.00290173 0.000696204 -0.00123352 -0.00297354 
0.00056632 -0.00326135 -0.00263464 0.00104006 -0.00282539 -0.00205465 0.000695957 -0.00208977 -0.00180493 
0.000584736 -0.00207704 -0.00264815 0.00062176 -0.00337556 -0.00274641 0.000916372 -0.00252345 -0.00127097 
0.00175616 -0.00274898 -0.00171357 0.000658675 -0.00233897 -0.00373288 0.000323942 -0.00103244 -0.0030235 
0.000726674 -0.00190742 -0.00277621 0.00112745 -0.00274508 -0.00297789 0.00118446 -0.00350224 -0.00221889 
0.000884687 -0.00282503 -0.00216682 0.00170886 0.00180982 0.00366625 -0.0130509 -0.00274191 -0.000541777 
0.00132647 0.000926252 0.000661527 0.00140907 0.000402033 -0.00113257 -0.00075149 -0.000502164 -0.000107425 
-0.000540346 -0.000259719 0.000115202 -0.000364441 -0.000632031 8.15501e-05 -0.000263914 -0.000465715 -0.0147326 
0.00588813 -0.00217148 0.00542898 -0.000877976 -0.000548089 -0.000526858 -0.000332395 -9.33359e-05 -0.000410381 
-0.00333688 0.00139899 0.000790875 0.000354826 -0.000894482 -0.000727776 -0.00128251 -0.00102852 -0.00070619 
7.54542e-05 0.000539299 -8.37017e-06 6.74036e-07 3.58897e-06 4.75809e-06 0.000273917 -0.000294404 -4.33638e-05 
-0.00200026 0.000668765 -0.000877856 0.00309132 0.00308185 -0.00826959 -0.000730979 -0.000783942 -0.000229089 
-0.00288062 -0.0016337 0.000717414 -0.00194829 -6.4112e-06 2.12127e-05 -0.00512667 0.0044951 0.000398334 
-0.000735326 -0.000609475 0.00114877 4.12913e-05 0.00014004 -3.95205e-05 7.78597e-07 1.20263e-05 -0.00157916 
-0.000552919 -6.41123e-05 -0.000111324 0.00027368 -3.03272e-05 0.000227145 -0.000273779 -0.00116549 0.000878765 
0.000765444 -0.000234569 -6.69542e-05 0.00164529 -0.00311219 -0.00367044 0.00053991 -0.000740749 0.000189295 
-0.00150041 0.00213825 -0.000770883 -0.00070195 -0.00181762 -0.000691492 0.000282387 -0.000150839 -0.00155428 
-0.000516106 -0.000599399 0.000250313 5.51693e-05 -0.00582192 -0.00152486 0.00226678 -0.000172199 0.000165359 
0.000742363 -0.00210615 -0.000171259 -0.00151427 -4.87328e-06 -1.27219e-05 -1.39081e-05 1.48771e-06 -2.92135e-07 
-1.90394e-05 2.5148e-05 1.15933e-05 -9.58689e-06 2.26102e-05 2.76794e-05 -6.33006e-06 -1.09954e-05 2.25405e-05 
5.69558e-06 -2.87558e-05 4.38375e-05 1.60131e-05 -2.06241e-05 6.31427e-05 7.70408e-06 -6.08623e-05 4.07689e-05 
1.60146e-05 -6.67433e-05 9.46613e-07 4.89033e-05 -4.24839e-05 -4.79495e-06 5.54757e-05 -5.27838e-05 -1.28887e-05 
3.57053e-05 -3.83379e-05 -1.95402e-05 1.84893e-05 -1.60625e-05 -6.21089e-05 3.65266e-07 3.33494e-05 -0.000358619 
0.00017017 -3.44471e-05 8.73829e-05 2.69628e-06 -4.17772e-06 2.2592e-06 -0.000211857 0.000751153 -6.9847e-05 
0.000476026 2.34294e-05 -0.000443045 0.000492981 -1.35974e-05 0.000101994 1.63312e-05 9.36099e-05 -0.000178882 
4.16452e-05 9.83392e-05 -0.000151931 3.55009e-05 2.27617e-05 -6.09384e-05 9.36393e-06 1.98705e-05 -4.18979e-05 
1.03209e-05 2.54891e-05 -5.49548e-05 8.15535e-06 1.27519e-05 -3.63043e-05 5.35419e-06 -3.8347e-06 -9.50832e-06 
6.98558e-07 -9.21178e-06 8.10841e-06 -8.81786e-07 -1.65775e-05 4.50567e-06 -1.61452e-05 -1.41177e-05 5.77669e-06 
-1.00481e-05 -8.38263e-06 1.90564e-05 -4.6676e-06 -1.51421e-05 2.22958e-05 -4.27832e-06 -2.50379e-05 2.36259e-05 
-1.09868e-05 -2.4085e-05 2.10299e-05 -3.87819e-06 -1.01898e-05 1.56333e-05 6.06597e-06 -1.48689e-05 1.03994e-05 
9.56865e-06 -1.91456e-05 1.78056e-05 1.35445e-05 -6.23072e-06 -8.4411e-06 9.14549e-06 -4.15043e-06 -1.74132e-05 
4.71251e-06 6.35646e-06 -8.87735e-06 8.29278e-06 9.80897e-06 -1.34291e-05 -3.06407e-06 6.94728e-06 -1.39951e-05 
-7.71838e-06 1.1675e-05 -8.70426e-06 -5.52279e-06 1.48586e-05 -3.7502e-06 -5.12124e-06 1.38446e-05 -6.53147e-06 
0.000281806 -8.03027e-06 -5.24426e-05 0.000189307 -9.4211e-05 0.000106551 -0.00011022 -1.6678e-05 1.94895e-06 
1.51976e-05 1.2388e-05 0.000318633 -0.000407989 0.000787676 -3.86188e-05 0.000403293 -0.000271801 0.000337688 
-0.000265153 -8.07255e-05 0.000179865 -1.25089e-05 2.03457e-05 -0.000153823 -0.000130916 -0.000101662 -0.000211844 
0.000148289 0.000491524 -8.28148e-05 2.39318e-05 -3.70913e-05 0.000226239 -0.000105225 -0.000101896 0.00012789 
-1.00083e-05 6.08846e-06 0.000127141 -0.000216147 4.2592e-05 4.3259e-05 -2.83909e-05 -7.11341e-05 4.35473e-05 
-3.37711e-06 7.6842e-05 8.71963e-05 -7.42691e-05 5.49221e-05 0.000108143 -7.63248e-06 9.24084e-06 0.000130104 
5.94605e-05 -3.44737e-05 0.000103604 -1.41049e-05 -1.2426e-05 0.00014746 -2.68668e-05 -0.000208852 0.000190462 
5.77195e-05 -0.000307483 0.000335911 0.000111874 -0.000221418 0.000283575 -0.000112564 0.00103732 -0.00087304 
0.00191695 0.0003064 -0.000295754 -8.59851e-05 -7.73363e-05 -6.04483e-05 0.000148184 2.07708e-05 -9.1172e-05 
-0.000294896 0.000145502 0.000115952 -0.000514006 -0.000258511 -0.0029614 0.00160876 0.000268761 -0.000224423 
-9.29958e-05 -0.000341043 0.00237574 -0.00166435 -0.000972339 0.000230648 -0.000202834 -6.67571e-05 -0.000167016 
0.000160824 0.000333567 -4.23131e-05 -0.000552034 0.00160666 -0.000301212 0.000345292 9.2958e-05 -8.85229e-05 
0.00030489 -0.000140497 -9.96067e-05 -2.33015e-05 -5.85558e-05 -0.000516379 0.00040769 0.000320906 -0.000667338 
0.000179006 0.000540967 -0.000378681 -0.000415489 -0.000101242 -0.000495041 -0.000175916 1.73714e-06 -4.67544e-06 
3.83577e-06 0.000139643 -0.000267621 0.000843965 -0.000564745 5.12405e-05 -0.000318391 -0.000592646 -3.51161e-05 
-9.83661e-06 -4.48589e-06 5.30718e-06 3.18983e-06 3.13152e-06 -0.00142915 0.000320394 0.00079853 -0.00037966 
5.72966e-05 6.69319e-05 -5.75332e-07 -0.000109636 -3.28247e-05 0.000555926 -0.0018125 -0.000181511 -0.000307166 
-0.000140921 0.000372881 -0.000137293 -0.000102204 -0.000653676 4.24862e-05 1.6218e-05 5.08813e-05 -0.000191264 
-0.000443072 -0.000114062 0.000452139 -0.000228617 -7.3491e-05 0.000183499 -2.56964e-05 -0.000975219 7.31303e-06 
0.000915824 2.89748e-05 0.000229036 3.85679e-05 -0.000280033 -3.48845e-06 -1.96157e-05 4.66304e-05 -2.00252e-05 
5.31246e-05 -1.86309e-05 -1.06865e-05 4.90647e-05 -2.63026e-05 -2.8632e-05 5.00071e-05 1.24359e-05 -5.67544e-05 
6.51779e-06 2.52692e-05 -4.80777e-05 -1.37403e-05 3.15934e-05 -2.1502e-05 -1.71512e-05 3.88375e-05 -2.44245e-05 
6.36499e-06 1.76571e-05 -4.22612e-06 -0.00195996 -0.000257826 0.00120828 -0.000891103 -3.24816e-05 1.05018e-05 
1.38648e-05 0.00016134 1.42402e-06 0.000146176 -0.000181832 3.15553e-05 2.9162e-05 9.48815e-06 3.40951e-05 
-3.56873e-05 1.5228e-05 3.51671e-05 -5.81244e-05 1.25068e-05 3.7904e-06 -1.60297e-05 8.00996e-06 4.25754e-07 
-1.84239e-05 1.99427e-06 -1.04253e-06 -2.02329e-05 -6.98008e-06 -5.27124e-06 -7.38452e-06 -1.00886e-05 -3.71776e-06 
7.61393e-06 -4.01316e-06 -4.85058e-06 6.62544e-06 -2.02432e-06 -1.12909e-05 3.12977e-06 -5.88272e-06 -1.78178e-05 
1.18917e-05 -2.73759e-06 -8.69238e-06 1.02343e-05 7.02534e-06 -1.08657e-05 2.31486e-06 1.09339e-05 -1.36879e-05 
4.32923e-07 1.81243e-05 -1.89011e-05 9.06568e-06 1.69523e-05 -5.95212e-06 -1.9437e-05 6.21551e-06 1.07325e-06 
-2.64304e-05 6.82827e-06 8.28024e-06 -1.07889e-05 -6.49907e-06 6.84206e-06 -1.30773e-05 -1.10386e-05 1.2316e-05 
-7.76278e-06 -1.16878e-05 1.72281e-05 -1.57047e-06 -7.2457e-06 1.64187e-05 8.656e-07 4.22361e-06 2.69555e-05 
-9.41739e-06 0.000208176 0.000160528 0.000259115 -0.0002253 -0.000272606 0.000515203 0.000570797 -0.0396177 
-0.00020568 -9.11079e-05 0.000125505 6.58301e-05 -5.21267e-05 4.53934e-05 -3.00121e-05 -1.60811e-05 -9.4272e-05 
-1.04846e-05 0.000102862 -8.03527e-05 -2.4686e-05 0.000142132 -3.59447e-05 2.31901e-05 4.75865e-05 -3.07297e-05 
-4.14712e-05 0.00012239 -3.32917e-05 -8.63016e-05 0.000152309 -0.000107725 -7.61081e-05 0.000168915 -0.000138831 
-3.85099e-05 0.000145606 -0.000114716 -5.44734e-05 0.000212714 -2.12094e-05 -0.000166863 0.000232498 -1.56074e-05 
-0.000245382 0.000305312 -3.78397e-05 -0.000269264 0.000366063 1.49039e-05 -2.76627e-05 6.5877e-06 1.74054e-05 
-1.92698e-05 3.07646e-05 5.26544e-05 -0.000743663 0.00048242 0.00091513 -0.000226057 -3.93518e-05 0.000168131 
-0.000156972 3.63435e-05 0.000110618 -0.00014178 -5.11921e-05 0.000812282 8.16208e-05 -0.00075079 -0.000513255 
0.000272464 -9.61765e-05 0.000315542 -5.36025e-06 0.000177525 -2.85023e-05 -0.000345213 0.0012872 0.000175587 
0.000357391 -0.00051945 0.000368707 -0.000119635 7.20015e-05 -1.96794e-05 0.000218419 -0.00020541 -0.000169556 
-0.000106469 -0.000180534 -1.44791e-05 -0.000249043 -0.000177969 0.000277585 -0.00015373 -0.000117412 0.00017962 
5.49233e-05 -0.000483244 0.000205031 -0.000434587 5.11167e-05 -0.000508687 1.14901e-05 1.13652e-06 -4.10267e-06 
-5.19256e-05 0.000247073 -1.63321e-05 5.29594e-06 0.000564794 -0.000120469 -0.000126278 -0.000204918 -1.2779e-05 
1.43526e-06 1.06204e-05 2.08316e-05 2.68066e-05 -3.68299e-05 3.35851e-05 -1.36846e-05 2.85913e-06 5.268e-06 
0.00025205 -0.000235137 -6.17585e-05 0.000155262 -0.000152555 -0.000141168 -0.000109149 -7.26933e-05 0.000143276 
-0.000651741 -0.000225465 -7.81222e-05 0.000231914 -4.59991e-05 -1.6865e-05 -0.000217194 4.93783e-05 0.000168572 
-0.000127588 -0.000226812 0.000317821 -0.000121038 -0.000264127 -4.80929e-05 0.000112859 -5.01284e-05 -0.000139918 
0.000127233 -0.000161598 -4.12573e-05 0.000155557 0.000491849 -0.000272022 -0.000577114 0.000359208 3.54004e-06 
3.80421e-05 -5.63448e-05 -1.54789e-05 4.71872e-05 -0.000160293 -0.000157471 0.000251433 0.000349541 -9.00022e-05 
-9.09726e-06 0.000135567 0.000207811 8.60778e-05 9.83017e-06 4.97895e-05 2.66606e-05 2.49278e-05 -3.14013e-05 
1.86736e-05 1.03001e-05 4.8292e-06 1.20532e-05 -1.16317e-05 4.07812e-06 1.21689e-05 -2.20242e-05 8.17789e-07 
3.62226e-06 -2.0904e-05 1.77487e-06 5.916e-08 -1.47661e-06 1.34957e-07 1.80214e-06 -3.31507e-06 1.77688e-06 
-4.3659e-06 -8.29626e-06 5.57388e-06 -7.95646e-06 2.83683e-07 1.25956e-05 -8.23045e-06 -7.4238e-06 1.91686e-05 
-1.35488e-05 -1.52877e-05 1.69327e-05 -1.7906e-05 3.65159e-07 2.69769e-05 -1.65747e-05 -3.86735e-06 1.98634e-05 
-4.03104e-06 -3.32378e-05 8.26146e-06 5.32785e-06 -3.48451e-05 -1.11129e-05 5.12767e-06 -7.85029e-06 -1.38771e-05 
1.78814e-05 -3.9436e-06 -1.68512e-05 2.01985e-05 1.73863e-05 -1.40087e-05 1.40147e-05 2.1713e-05 0.000133684 
-9.1455e-05 -1.43586e-06 -0.000253726 1.80945e-05 3.72814e-05 -7.00644e-05 -2.13065e-05 -3.04311e-05 -0.000150442 
-2.59209e-05 8.83002e-05 0.000141777 -5.45611e-05 -2.11595e-05 3.30766e-06 -0.000144999 -3.20369e-05 0.000194258 
-5.63785e-05 -2.25844e-05 7.18806e-05 -3.39827e-05 -7.72458e-05 2.74647e-05 0.00010225 -9.19817e-05 -8.25931e-05 
-5.68791e-05 -0.000107513 0.000156247 -5.74658e-05 -0.000140273 0.000177673 -0.000160108 -0.000116395 0.00017253 
-0.000232248 -3.74279e-05 0.000165359 -0.000181054 -5.9268e-05 0.000255958 -5.40833e-05 -0.0002374 0.000221097 
-6.08024e-05 -0.000315404 0.000310612 0.000106075 6.68204e-05 -7.20454e-05 -2.14571e-05 2.68575e-05 0.000275751 
-9.46017e-05 6.55624e-05 -8.17852e-05 -0.000102173 3.30875e-05 -7.85355e-05 2.45152e-05 -8.13733e-05 0.000199633 
-0.000160821 0.000136234 0.00014137 0.000100411 0.000271409 -0.000299558 0.000304182 -0.000149157 -0.000241929 
-0.000240692 2.05748e-05 -2.58717e-05 0.000524365 -5.79421e-05 -5.49569e-05 -0.000354114 0.000157629 -0.000151667 
5.00826e-06 -3.92223e-05 -8.24017e-05 -4.40469e-05 -2.98621e-05 3.41026e-05 0.000104346 -2.2303e-05 -0.000108009 
-4.25374e-05 3.35417e-05 9.39948e-05 6.8894e-06 -5.89793e-06 -5.50078e-05 -0.000123861 0.000212124 8.8552e-05 
-1.4617e-05 1.01865e-05 -8.26006e-05 -0.000140849 4.99156e-05 -0.000125629 -8.79051e-05 8.18065e-05 -4.29148e-06 
-0.000217768 -0.00012932 0.000225361 -2.19828e-05 8.14124e-05 5.7377e-05 -2.51893e-05 8.76356e-05 9.27088e-05 
-1.29167e-05 -9.96654e-07 2.84614e-06 1.27006e-05 -1.51191e-05 5.85575e-06 -9.10308e-06 -1.12433e-05 2.31408e-06 
7.58246e-05 -6.58434e-05 -7.77153e-05 0.000337773 0.000125589 7.63115e-06 -7.65031e-05 4.73753e-05 4.66682e-05 
4.22534e-05 -0.000226224 0.000277088 -0.000376577 6.36577e-05 0.000351247 -0.000123707 0.000157211 2.21133e-05 
-9.95271e-05 4.37138e-05 -4.71433e-05 -1.33396e-05 -7.58408e-06 -8.69745e-05 4.24336e-05 4.91034e-05 -0.000171105 
0.00012284 -3.17318e-05 -1.83354e-05 -3.1057e-05 4.25201e-05 -7.47982e-05 0.000309422 -0.000114209 -0.000164681 
5.65404e-06 1.92269e-05 1.31103e-05 1.59312e-05 -2.68482e-05 8.39289e-06 9.01994e-06 1.19446e-05 5.68495e-06 
-1.84607e-05 4.10927e-06 1.29689e-05 -1.5159e-05 1.34244e-05 6.08545e-06 -1.76935e-05 1.79003e-05 -4.22073e-06 
-2.16492e-05 3.34442e-05 -6.96258e-06 -2.0118e-05 2.89832e-05 -1.09619e-05 -3.07293e-05 1.40854e-05 -1.5335e-05 
-2.28953e-06 4.11697e-05 -4.99451e-06 -1.03623e-05 2.58132e-05 1.20504e-07 -4.69501e-05 -1.52353e-05 1.78062e-06 
-2.81401e-05 -1.47541e-05 2.7021e-05 1.38393e-05 -1.22117e-05 5.4763e-06 4.3823e-05 -6.51298e-06 -2.4281e-05 
-3.59317e-06 -1.64707e-06 7.04479e-06 4.20823e-05 -0.000134395 -0.000115485 0.000198616 3.23532e-05 -0.00013346 
-9.74792e-05 6.33725e-05 8.28633e-05 -0.000100459 4.13801e-05 -2.22211e-05 -2.35338e-06 5.08327e-05 9.74295e-05 
-5.95368e-05 -0.000119642 5.76308e-05 -0.000173804 -0.000208555 0.000196591 -0.000259173 -0.000118928 0.000306603 
-7.85333e-05 -0.000171477 0.000228803 -7.26261e-05 -0.000265479 0.000287425 1.35797e-05 4.05525e-05 1.95415e-06 
4.5615e-05 0.000190397 -2.93431e-06 0.000236908 3.72696e-05 1.1847e-05 -4.77126e-05 -6.35059e-05 -0.000265751 
7.60722e-06 2.36265e-05 -3.79093e-05 2.13625e-05 2.47839e-05 -2.61492e-05 0.000357614 -0.000108597 -0.00034524 
0.00031318 2.57446e-05 0.000107357 -2.12556e-05 2.87075e-05 -0.00014489 -8.98761e-05 -7.24444e-05 -9.70086e-05 
0.000202159 -0.000121655 -3.09781e-05 -1.01269e-05 0.000103822 -2.82931e-05 -6.95872e-05 7.11283e-05 -7.12243e-05 
-9.34294e-05 -2.25882e-05 2.91274e-05 3.27499e-05 -2.70807e-05 -5.66626e-05 1.14715e-05 3.87719e-05 1.6129e-05 
0.000125023 -8.30275e-06 1.27234e-05 7.99387e-05 -4.71709e-05 1.48705e-05 -5.31987e-06 -0.000194631 1.68839e-05 
0.000218418 -3.85343e-05 -1.45288e-05 3.80737e-05 -6.23083e-05 0.000119979 -0.000178248 0.000142052 -0.000155984 
0.000119415 -7.1306e-05 4.47182e-05 -1.6688e-05 -1.38406e-05 -3.15363e-05 0.000153843 -5.91653e-05 -3.24786e-05 
5.69793e-05 -2.54171e-05 7.23596e-06 1.12183e-05 -2.49179e-05 3.37494e-05 -5.70174e-07 6.64795e-06 2.42046e-05 
2.36706e-05 9.98079e-06 2.29828e-05 1.77433e-05 -6.17849e-05 2.03887e-05 1.74183e-05 6.5003e-05 -1.10627e-05 
8.74309e-05 2.16041e-06 3.82253e-05 1.19975e-06 -5.14214e-05 -7.76871e-06 -6.28234e-07 2.18758e-05 -7.2464e-05 
4.28506e-05 0.000136668 -2.94185e-05 1.24238e-05 3.18582e-05 1.69897e-05 -0.000135399 2.18047e-05 0.000113315 
-7.29912e-05 -6.844e-05 -0.000176487 -4.19999e-05 -1.6897e-06 3.9595e-06 1.67769e-05 -1.53729e-05 -1.69638e-05 
-1.68742e-05 6.89346e-05 -4.76952e-05 -1.33758e-05 0.000116874 -0.000135687 2.76454e-05 -5.42538e-06 -1.94387e-05 
4.36594e-05 1.30937e-05 4.06152e-05 -6.98933e-05 -0.000153406 -0.000175483 0.000239062 -4.52818e-05 2.18573e-05 
2.76877e-05 -3.91318e-05 -2.11421e-05 -1.06321e-06 1.1699e-05 -3.61816e-05 -4.70337e-05 6.14928e-05 0.000152812 
-8.55075e-05 3.35666e-05 -3.47853e-05 0.000121126 -1.6365e-05 -4.85723e-05 1.93387e-05 -3.31017e-05 -6.93676e-05 
5.68916e-05 0.000100951 -9.84158e-05 4.61634e-05 -4.89898e-05 4.186e-05 1.41746e-05 2.81656e-05 -2.29404e-05 
-1.37567e-05 -5.80878e-06 2.84404e-05 2.21523e-05 0.000167424 0.000279767 9.36792e-05 0.000114355 -1.50471e-05 
0.000219338 -9.29823e-05 -0.000213652 -2.66899e-07 -0.000126381 6.37835e-05 7.3019e-05 -2.46835e-06 3.65164e-06 
-0.00017621 0.000163989 -2.15123e-05 1.42103e-05 2.9229e-05 2.97566e-05 8.41712e-05 -0.000133998 -2.70428e-05 
-7.74872e-05 5.6875e-05 -1.55809e-05 -8.93818e-06 -3.10873e-05 -2.04045e-05 0.000100631 -6.12095e-05 -3.12789e-05 
4.73065e-05 -2.12493e-05 -1.7999e-05 4.74666e-05 -1.54939e-05 -8.62471e-05 1.0729e-06 -0.000156086 3.28184e-05 
2.29767e-05 -1.46765e-05 4.5366e-05 -5.76432e-05 -8.44481e-07 5.82222e-05 -4.19969e-05 -7.7442e-05 -0.000122365 
-0.000103283 6.95101e-05 6.79469e-05 3.41562e-05 0.00011349 -3.36476e-05 2.52052e-05 3.17485e-05 -7.98474e-05 
-7.24054e-05 -5.38598e-05 3.83289e-05 4.71056e-05 1.77724e-06 -4.50476e-05 -1.80045e-05 -1.1461e-05 -1.50967e-05 
4.47745e-05 3.92856e-05 -0.000125015 -7.77216e-06 -3.52994e-06 -0.000107883 0.000104947 7.7407e-05 -8.26783e-05 
6.71046e-06 -0.0926585 -3.52226e-05 -3.42284e-06 7.66327e-05 -5.98242e-05 5.40784e-05 -2.24061e-05 6.44779e-05 
-0.00011821 -3.79103e-05 7.76354e-05 -1.06277e-05 -9.16425e-05 -6.44319e-06 1.75458e-05 1.63617e-05 -0.000103744 
1.47561e-05 -2.05615e-06 3.06403e-05 6.99909e-05 5.48791e-06 -8.05065e-05 -3.27271e-05 2.63287e-05 -0.000112016 
5.41592e-05 3.29346e-05 1.83751e-05 1.03233e-05 2.53638e-05 -6.23229e-06 0.000129677 7.28196e-05 0.000110222 
5.53254e-05 -2.98857e-06 0.0499196 -0.0219194 1.04001e-05 2.24247e-05 2.23536e-05 1.51731e-05 1.21882e-05 
1.27457e-06 8.11425e-06 2.1829e-06 -3.39072e-05 -1.95982e-05 7.8822e-05 8.02591e-05 -0.000372537 -7.98918e-05 
-0.000990109 7.92308e-06 -0.000260547 0.000149559 -0.00101186 -6.13631e-05 -0.000711858 -0.00085596 -0.00158739 
-0.000445611 0.000315224 6.40545e-06 0.000167315 -2.1185e-05 0.0001348 -4.80264e-06 5.80621e-05 -3.61786e-05 
-6.5711e-05 -2.65826e-05 8.99034e-05 -1.39193e-05 0.000328876 -6.78434e-05 -0.000395847 5.60144e-05 -3.06167e-05 
8.43184e-05 -1.72371e-05 1.16564e-05 2.38059e-05 -7.89193e-05 -0.00015407 0.0478736 -4.55015e-06 1.38035e-06 
-0.0302318 0.00364788 -0.00104848 -0.00288073 0.000137041 -0.000380039 -0.000297667 -0.00010778 -0.000436238 
-0.000237473 -1.85533e-05 -0.000101309 -3.45731e-05 -4.15342e-05 -4.11576e-05 -1.20943e-05 -4.76323e-05 -3.27007e-06 
7.62311e-06 -8.57432e-06 2.90986e-07 -1.74591e-06 3.12591e-06 1.39526e-06 8.07379e-06 1.69893e-05 2.77165e-06 
2.6887e-05 5.43503e-06 7.39916e-06 1.3363e-05 2.76097e-06 2.66087e-05 3.74432e-05 6.27778e-06 1.59022e-05 
1.29175e-05 1.01903e-05 2.22719e-05 6.69252e-06 4.2891e-05 2.62844e-05 -7.87274e-07 2.94641e-05 6.71644e-06 
3.18739e-06 1.03703e-05 -4.42394e-06 -1.76696e-06 -5.94053e-06 -3.50219e-06 -4.52165e-06 -1.54591e-05 -1.31161e-05 
8.85783e-07 -2.13386e-05 -3.84723e-06 -3.0005e-06 -8.35997e-06 -1.28083e-06 8.51349e-07 1.22964e-06 3.71777e-06 
2.10543e-06 1.19044e-05 -5.35966e-07 4.00388e-06 6.45355e-06 1.21265e-05 -3.53362e-06 -7.471e-06 -7.82508e-06 
-4.51351e-05 -8.64958e-06 -1.50259e-06 4.6299e-06 3.66094e-06 8.85508e-07 -1.12871e-06 -1.49541e-06 -8.31188e-06 
8.56308e-06 2.36553e-06 8.70377e-06 1.56145e-05 3.26129e-06 7.10274e-06 6.4034e-06 3.35486e-06 1.9633e-05 
1.24984e-05 5.92908e-07 2.00668e-05 5.23148e-06 6.16889e-06 2.15872e-05 2.67964e-06 1.81151e-05 -4.02446e-06 
-4.74306e-06 -1.76261e-05 -7.15124e-06 -8.27645e-06 -3.64612e-05 4.21839e-07 -3.29883e-05 -4.65709e-05 -1.84829e-06 
-6.13496e-05 -1.79149e-05 -1.72114e-05 -5.02781e-05 -1.12879e-06 -3.15182e-05 -9.29738e-07 5.54628e-06 1.79495e-05 
1.00371e-05 1.10602e-05 4.25058e-05 6.33562e-06 2.41554e-05 2.04082e-05 4.33736e-05 4.36614e-06 3.63315e-06 
2.18151e-06 -4.57711e-06 -5.12302e-06 -0.00217406 -0.014784 -0.0302517 -0.00677084 -0.0114161 -0.00662653 
-0.00860788 -0.0004922 -0.0148638 -0.00260069 -0.015196 -0.00963808 -0.00886915 -0.00364804 -0.00901283 
-0.00618834 -0.0155917 -0.0210079 -0.0162643 -0.0339393 -0.00664697 -0.0341942 -0.0103063 -0.0196441 
-0.0146511 -0.00859415 -0.00546065 -0.0108592 -0.00434524 -0.0211242 0.00327409 -0.0174427 0.00357373 
-0.0163476 -0.00514348 -0.00740726 -0.00272902 -0.0171498 0.00062192 -0.0126872 -0.00710408 0.00217503 
-0.042006 -0.022879 -0.0458496 -0.0558062 0.0284428 0.00927107 -0.0275301 -0.0217175 -0.0111311 
-0.00726389 -0.00905157 -0.00170428 -0.00975783 -0.00100015 -0.00877319 -0.00446109 -0.0074627 -0.00118525 
0.00590356 -0.00382992 -0.00534743 -0.00328938 -0.00596863 -0.0115644 -0.00937401 -0.0126601 -0.0197253 
-0.0231319 -0.0189405 -0.0137013 -0.0157967 7.5958e-06 -1.22385e-05 5.46343e-06 5.97076e-07 -0.0223244 
-0.0178392 -0.0158191 -0.0120494 -0.0138494 -0.0516066 -0.0175637 -0.0141256 -0.0136876 -7.2632e-05 
6.9752e-05 3.51398e-05 0.0147888 -0.0185857 -0.0365973 -0.0451636 -0.0425764 -0.0284892 -0.0255019 
-0.0219982 -0.068944 -7.97754e-05 2.25061e-05 -0.000106879 8.54886e-05 -0.0216469 -0.0245773 -0.00559831 
0.00334217 0.0313267 -0.0221018 0.0033239 -0.0503829 0.00353632 -1.91298e-05 -1.82723e-05 2.66585e-05 
4.24122e-05 -0.000116144 -0.000169493 0.000282925 0.000162788 -5.29893e-05 0.000426332 0.000177873 -3.33075e-05 
0.000304468 -8.8663e-05 7.23031e-05 -7.71489e-06 -1.15269e-05 7.56249e-06 -1.9826e-05 -5.90356e-06 1.01531e-05 
5.23856e-07 9.66034e-06 3.04725e-05 -1.29912e-05 -5.8464e-05 2.35654e-05 -2.45759e-05 -5.74087e-06 -8.36258e-06 
-1.24049e-05 -2.84731e-06 -3.54426e-05 1.79169e-05 1.46038e-05 9.71843e-06 4.94141e-06 -1.67124e-06 2.34963e-06 
-7.04441e-05 0.000105224 1.50648e-05 -4.29259e-05 8.34209e-05 1.16429e-06 3.2775e-06 -3.4306e-06 -0.00010011 
4.75295e-05 -1.30354e-05 -5.23842e-06 2.58818e-05 1.78878e-05 0.00403252 -0.00561046 -0.00342035 -0.00187858 
2.4963e-05 -4.21365e-06 1.35728e-05 1.33166e-05 -1.94919e-05 1.35973e-07 -0.00205181 -0.000535852 0.00198158 
-0.00197732 -0.0060961 0.00644282 0.0104956 3.27362e-05 4.16657e-06 -4.64608e-05 2.43232e-05 -1.61185e-06 
2.93144e-06 -3.38794e-06 -1.91733e-07 1.84154e-06 -4.94119e-06 -1.72945e-05 -2.79698e-05 -3.16113e-05 -2.09392e-05 
-5.05849e-06 7.86249e-06 9.76427e-06 -1.3561e-05 6.13101e-06 0.000117505 0.000577986 -0.000262623 0.00374169 
4.42326e-05 2.82995e-05 -3.41313e-05 4.04719e-05 1.24843e-05 -3.18165e-05 -0.0016052 -9.20457e-06 -5.81599e-06 
3.0821e-06 2.77414e-06 -8.13661e-07 -3.53313e-06 -1.28695e-05 -0.000478259 -0.000307163 -4.28447e-07 2.13054e-06 
1.57646e-06 -4.39515e-06 -2.91466e-05 -4.15744e-07 1.76605e-05 9.05445e-08 2.34523e-06 7.24794e-06 0.000127592 
0.000349824 3.84073e-05 -1.36956e-06 -1.37004e-06 5.1146e-06 -2.38537e-06 -2.5816e-06 -1.61382e-06 -6.38975e-06 
-5.91254e-06 2.56583e-05 -1.73012e-05 -1.47778e-05 3.38192e-06 -1.81966e-05 5.59864e-06 1.04056e-05 -6.39642e-06 
5.67354e-07 -3.83656e-06 2.80963e-06 -0.000353999 -1.29796e-05 9.7831e-05 0.00107761 0.00018819 -0.00104251 
-0.00163403 -2.3644e-05 1.48236e-05 1.17586e-05 0.0287434 0.0228447 -0.0121914 -0.00325158 -1.13256e-05 
2.35718e-06 1.13905e-07 -7.89344e-07 2.69985e-06 -1.48328e-05 9.94341e-06 -4.43589e-05 0.000201237 -0.000154587 
-0.000111815 1.20197e-05 -1.45478e-05 -1.79667e-05 5.90123e-06 0.00466762 -2.37309e-05 4.25937e-06 -2.62251e-05 
-2.29387e-05 6.35386e-06 -4.31936e-06 3.49072e-06 1.45205e-05 -0.00148286 -0.000218985 0.0210919 0.0232669 
-1.39441e-05 7.1714e-06 -3.23639e-06 -1.0667e-05 -4.58816e-06 -1.1275e-05 5.08408e-06 -0.00206345 0.000120281 
-3.88059e-05 1.70933e-05 -1.3863e-06 -1.22262e-06 -1.22875e-06 4.9794e-05 0.000103526 0.00022309 4.61637e-06 
-3.03867e-06 -1.82663e-05 0.0137656 -0.000560288 0.00151935 5.2113e-06 4.54138e-06 -3.11329e-06 -8.75461e-06 
-2.69889e-06 -4.12458e-06 0.0123362 0.00686683 -0.011006 0.00325159 -0.00966926 -5.13311e-06 -2.23528e-07 
-5.46836e-06 -7.68466e-06 -3.8328e-06 5.71129e-06 -5.35529e-06 -6.14373e-06 1.81182e-05 -1.61308e-05 1.23924e-06 
-3.7006e-06 -4.45619e-06 -2.99101e-06 -0.00398389 -0.00144913 -0.00964168 -4.08899e-06 1.35649e-05 -1.98347e-05 
-2.96757e-06 -2.27197e-05 -1.38973e-05 1.34088e-05 1.64073e-05 -2.27963e-05 4.93797e-08 7.47144e-05 -6.54666e-05 
5.64837e-07 1.38269e-05 -3.16378e-05 2.02232e-05 0.000713878 0.000682481 -3.68e-05 -7.51838e-06 5.18791e-05 
-3.26108e-05 -3.75138e-05 4.17875e-06 6.1237e-05 -5.38171e-05 -0.000102071 0.000159062 0.0213429 0.00446677 
-2.18281e-05 1.4277e-05 -9.24857e-05 -0.000261773 0.000301409 0.000342232 -8.77849e-07 1.80138e-05 -4.41651e-05 
2.79675e-05 5.44154e-06 -1.35262e-05 1.06325e-05 -8.26241e-05 0.000267678 -8.04713e-05 -3.53002e-07 -7.8915e-06 
0.000394253 8.92999e-05 -7.49867e-05 0.0251372 -4.42959e-05 3.78903e-06 1.74567e-05 -2.04143e-07 5.11085e-06 
-2.75907e-06 3.67441e-05 5.27897e-05 0.000136274 5.78697e-05 2.64721e-05 0.0152625 0.000770419 0.0118099 
-0.0102262 1.27368e-05 -6.04598e-05 2.47198e-05 -4.51066e-07 -3.90142e-06 3.33093e-06 -5.44697e-07 1.09019e-06 
-5.43621e-06 0.00134789 -0.00227174 0.000376128 7.17414e-06 -5.96223e-06 -0.00024087 9.47608e-05 0.000185103 
-0.00192763 -0.000650773 -0.00059853 -1.42685e-06 2.50785e-06 -4.87643e-05 0.0323967 -0.00764621 0.0135072 
-0.0201314 -0.00545686 -0.00427508 3.40658e-05 -1.35058e-05 3.22449e-05 0.000197991 -5.49581e-05 -0.000110807 
-2.19155e-06 0.000399603 0.000295075 0.000980228 7.28685e-06 -2.36981e-06 -3.14542e-07 -4.1209e-06 -1.72383e-05 
9.11399e-05 -0.000418394 -6.91061e-06 9.56868e-06 1.18365e-06 -6.40643e-06 -1.30291e-05 1.52798e-05 -1.40469e-05 
1.36825e-05 -5.43514e-06 -1.23212e-05 1.09846e-05 -8.26984e-05 6.82644e-06 2.30155e-05 1.00675e-05 -1.22664e-06 
-3.64067e-06 -4.49489e-05 -3.82504e-05 -8.94113e-05 -2.62945e-06 3.24983e-06 -4.2711e-06 0.000153458 0.00014536 
0.000228867 -0.000184135 -1.16367e-05 -0.000103702 -1.89438e-06 0.029306 -1.47938e-05 1.84627e-05 6.87084e-05 
0.000115427 1.39983e-05 1.91081e-05 1.4137e-05 -4.60477e-07 -3.26403e-06 1.21715e-06 4.67921e-05 1.23796e-05 
-0.000149786 -1.20728e-05 1.65573e-06 -0.0121501 -0.00159261 0.0132321 -0.00716146 0.00389184 -0.0102291 
-2.66873e-06 -4.71141e-06 -1.15503e-05 4.26157e-05 2.14646e-05 5.7955e-07 -0.0162335 -0.00387857 -0.0112101 
-0.0138264 0.00525234 -0.000264128 -0.000142097 -0.000239156 0.000319674 3.33606e-06 -1.52538e-06 -6.67273e-06 
5.94435e-06 1.48916e-06 -8.71556e-07 -6.24617e-06 0.00109464 0.0022297 -0.00279081 3.44866e-06 4.73444e-06 
1.48172e-06 -1.16088e-06 5.75616e-06 9.75344e-06 9.55211e-06 8.91476e-06 -1.1624e-05 -4.01436e-06 -4.78096e-06 
-1.66964e-06 -4.1386e-06 1.38124e-05 -3.99693e-07 -0.000107084 4.16957e-05 -0.000256229 -1.81436e-05 5.54612e-06 
4.29171e-06 5.27605e-06 6.14725e-06 -7.92281e-06 -0.00606776 -0.00141301 0.00267605 1.1914e-05 -7.96699e-06 
8.95563e-07 5.25294e-07 1.27091e-07 1.36505e-06 3.23981e-05 -2.43753e-05 -1.06665e-05 1.81111e-05 0.00509894 
-0.00827571 0.00711986 -0.00234767 -0.000703979 -0.000250747 4.26398e-05 -7.42097e-05 3.10073e-05 -0.0113574 
-0.00783389 0.00976829 2.49963e-06 1.07037e-06 -8.23882e-06 8.29723e-07 -1.26403e-06 -1.17297e-05 6.47596e-05 
1.35867e-05 -0.000112032 9.93459e-05 0.00389563 -0.000289156 -6.14928e-05 -0.00453502 0.000689352 -0.00954102 
-0.000566581 0.00289682 0.00701192 -2.67074e-05 0.00735378 -0.00174507 -7.24614e-05 -6.18697e-05 0.000122035 
3.729e-06 -2.418e-05 1.86773e-06 4.35103e-06 1.21724e-05 -0.000128349 7.31863e-05 -4.5737e-05 2.28777e-05 
-4.35654e-05 6.66276e-05 -3.18628e-06 7.16789e-06 -1.18785e-07 8.27037e-07 -1.1817e-06 4.66684e-05 0.00101792 
-8.56143e-07 -6.06939e-07 3.01137e-07 -9.61843e-05 -0.000208044 -8.62698e-06 -2.27613e-06 -1.75271e-06 -1.89871e-05 
-9.50968e-06 1.19038e-05 1.27604e-06 -4.65423e-05 -0.000115407 -0.00396899 -0.0198931 2.65883e-07 5.96758e-05 
4.76032e-05 -4.06226e-05 -1.68482e-07 1.35359e-05 5.0628e-06 -8.57592e-06 2.02368e-06 9.82097e-05 -7.54974e-05 
-1.55928e-05 5.79521e-06 2.991e-06 -0.00013756 8.43432e-05 0.00348133 -0.00204757 4.53671e-06 -4.3302e-08 
-7.16828e-07 3.99079e-06 -3.93803e-06 -4.42086e-06 1.74173e-05 -1.10055e-05 -8.33265e-07 -1.84005e-06 -1.51373e-06 
4.38234e-06 7.6206e-06 4.00888e-06 3.3374e-05 3.69151e-05 -2.73047e-05 -7.35076e-06 5.6772e-06 -1.84954e-05 
1.95297e-06 -5.58285e-06 3.82656e-06 5.28042e-06 2.90062e-06 -5.54839e-06 6.09873e-07 2.53212e-05 -2.19614e-05 
0.0299109 0.0272982 3.95258e-05 -0.000213381 -2.3736e-05 1.38511e-05 1.59432e-06 -2.02973e-06 -2.86589e-06 
3.31158e-06 -0.000810008 0.000835725 0.000179551 2.04932e-06 -1.72853e-06 1.76921e-05 0.0362885 -5.17798e-05 
1.66505e-06 5.41359e-06 -4.30194e-06 2.25054e-06 -5.24025e-05 -9.74038e-06 -4.2425e-05 0.000136623 4.61382e-05 
0.00123225 0.000178793 -0.000259902 -9.72059e-05 1.46628e-05 1.91405e-05 -1.98624e-06 1.76436e-05 0.000106869 
4.73279e-05 2.98641e-05 -0.00351843 -0.00207291 -0.0163768 -1.96358e-06 -1.0893e-06 -3.27197e-06 -2.39062e-05 
3.43496e-06 1.44236e-05 -1.38972e-06 -4.2657e-06 4.41768e-06 7.12337e-06 3.86072e-06 0.000219068 -7.6888e-05 
1.59054e-05 3.84652e-06 -1.99304e-05 9.12401e-05 1.10198e-05 1.66006e-05 -3.52469e-05 7.45831e-07 4.84729e-05 
-3.98292e-06 -4.64605e-06 -1.56993e-05 -1.49658e-05 0.000148085 4.05374e-05 1.17691e-06 4.44607e-06 8.46593e-07 
-5.19329e-06 8.94837e-06 -5.52474e-06 -1.11977e-05 -4.32127e-05 1.38502e-05 -0.000209722 0.000987257 0.00157954 
-0.00296518 -7.80346e-06 3.33164e-06 6.86112e-06 -2.11861e-05 -8.88412e-05 3.30463e-05 -5.85021e-05 4.55388e-05 
-2.42461e-05 2.76301e-05 4.38357e-05 -1.68606e-05 7.17803e-06 6.3645e-06 0.000101887 -0.00024766 -1.36166e-05 
7.05142e-06 -0.000231924 0.000543988 -0.000162184 -0.000112651 5.77555e-06 -2.34478e-05 -2.99096e-06 8.20771e-05 
-1.04512e-06 -8.15694e-06 -2.81555e-06 0.00791276 0.00263606 0.000197874 5.26697e-06 -1.24407e-05 5.70576e-06 
4.43742e-06 5.64396e-06 -8.08057e-05 -0.000121938 0.000360247 0.000278601 0.0116339 0.0110902 -0.000901176 
-8.44355e-05 0.000573711 0.000110442 9.52601e-05 -8.56836e-05 -0.000138898 -8.95187e-06 9.24447e-05 1.94862e-05 
1.87905e-06 -3.63584e-06 5.15058e-06 1.69118e-07 -4.6755e-06 5.76301e-06 4.79509e-06 2.17687e-06 -1.34046e-05 
-1.20592e-05 -0.0127448 -0.00747332 1.22855e-05 -7.51616e-05 -3.16454e-06 0.000234554 9.94729e-05 -4.86202e-05 
-0.000573786 -0.00154563 -0.00310364 -1.96477e-05 4.45646e-07 0.000167465 0.000354212 -0.000412503 9.44977e-05 
0.000112112 0.000227906 0.000213524 2.1306e-07 6.32726e-06 -1.13671e-05 5.71906e-06 6.86147e-06 1.62208e-05 
2.34533e-07 -1.29297e-05 -6.42971e-05 0.000354971 -0.00283676 -0.00013196 -1.29879e-05 3.08441e-05 7.25632e-05 
9.67466e-07 1.40666e-05 8.39982e-05 6.92741e-06 -1.70627e-06 1.90507e-05 -1.65805e-06 0.0102724 -0.000724511 
-0.00377413 -0.0271886 0.0345876 0.0190734 -1.16322e-05 5.73842e-06 1.19971e-05 0.00052607 -0.00261325 
0.00096754 6.46729e-05 -2.59477e-05 0.000336368 0.000297902 1.66066e-05 -2.64126e-05 -8.90061e-06 -1.17399e-06 
-6.27841e-06 -5.53468e-06 -2.32264e-06 2.82305e-06 -1.55915e-05 -2.12982e-06 6.96977e-05 0.000120817 5.46584e-06 
-1.01216e-07 5.24898e-07 8.55094e-07 2.25168e-06 9.06622e-06 -2.33723e-05 1.52827e-05 0.0007076 -0.000385865 
0.000322446 3.56459e-06 -9.83557e-06 -0.00043612 -0.00042229 0.000405819 -0.00230753 0.0105546 -5.10646e-05 
1.49565e-05 6.74142e-05 3.30603e-05 0.000365392 -0.000157669 -0.0191918 2.10789e-05 9.18843e-06 -1.42317e-05 
-1.97588e-05 -1.37711e-05 -1.96892e-06 -1.71071e-05 2.52064e-06 3.061e-05 9.80146e-06 -2.84897e-05 -1.0138e-05 
1.8171e-05 -2.1737e-06 -0.000716188 -8.32934e-06 -3.35486e-06 1.01013e-05 2.68692e-05 5.21796e-05 1.74624e-06 
1.90357e-06 2.21312e-06 -8.11273e-05 -2.29535e-05 2.68894e-05 -0.000349306 0.00121619 0.000799711 -1.69354e-06 
-1.7334e-05 1.75426e-05 1.8764e-05 -0.000128531 -0.000267695 6.30012e-06 3.43144e-05 1.24467e-05 -2.97593e-06 
1.36359e-05 1.6348e-05 -9.69532e-05 6.60412e-05 3.44765e-06 -5.72778e-06 6.55405e-06 6.44043e-05 -0.000460423 
0.0243926 7.81089e-05 4.1913e-06 0.000543963 4.65757e-05 -2.58382e-05 -1.51567e-05 -2.64711e-05 -8.54625e-05 
-7.55431e-06 1.7083e-07 1.23006e-05 4.29621e-05 6.50039e-07 -6.21636e-07 -6.12269e-05 3.00944e-05 -8.22111e-05 
-1.40445e-05 1.50462e-05 5.37777e-05 -8.38597e-06 1.28801e-06 -0.000689361 -1.99916e-05 0.000168352 -0.000186024 
-2.11382e-06 3.12113e-06 -3.77288e-05 5.30838e-05 0.000115272 -3.4404e-05 -0.000308418 -3.37888e-05 9.87977e-05 
-4.56076e-06 3.34296e-06 5.7433e-06 -1.29782e-05 2.11994e-05 0.000460051 -0.000262497 -0.000264607 0.000974062 
0.000290392 -3.33137e-06 5.34341e-06 -6.05277e-05 -0.000108353 0.000102791 3.98129e-06 -0.00419869 -0.0129812 
-0.000367008 -0.00037159 2.15363e-05 -0.000307087 1.45417e-05 -0.00276117 5.35664e-05 -5.02637e-05 -3.6042e-05 
6.02357e-05 -2.13391e-05 3.08409e-05 -1.38049e-05 -1.13519e-05 -5.90504e-06 0.0201013 -0.00469128 -0.00662433 
-0.00435231 0.0158053 0.000813903 0.000218212 -1.05644e-05 -8.32307e-05 -1.03547e-06 -1.45834e-06 2.67385e-05 
0.0148576 -0.00265777 0.0103713 -4.22477e-05 -0.0192289 0.0123991 2.44296e-05 -4.35029e-05 -1.51994e-05 
-7.24202e-05 -8.28512e-05 -4.29442e-06 9.66728e-06 1.66407e-05 -1.53884e-06 -9.8908e-06 -1.17088e-05 -2.98839e-05 
-2.06899e-05 0.00123816 -4.43698e-06 -6.03878e-06 -1.04446e-06 -1.61332e-05 4.39644e-06 7.28413e-06 1.03811e-05 
-1.40059e-05 -2.16701e-06 0.000180619 -0.000538854 1.80865e-06 1.36875e-06 1.00146e-05 0.0454244 0.0253324 
-0.0153641 -4.30466e-07 -1.28102e-06 5.62562e-05 -2.9237e-05 5.52197e-06 -1.26817e-05 1.32613e-05 1.05502e-06 
-2.641e-05 9.9172e-07 0.00447889 -1.66263e-05 -3.13835e-06 6.08525e-05 -1.61209e-05 1.26181e-06 2.77843e-05 
4.78019e-05 5.05777e-07 -2.47282e-05 2.48755e-05 1.86184e-05 -3.23421e-05 0.000157654 8.44911e-07 3.07981e-06 
5.81593e-06 1.62747e-05 -3.25002e-06 4.21452e-05 1.33869e-05 -1.70497e-05 6.39643e-05 -3.98408e-06 -4.90522e-07 
-0.000167718 0.0001664 4.79619e-06 2.78686e-06 -2.58957e-05 -2.9141e-05 7.0436e-06 0.0107869 -0.00180277 
-0.00246193 -2.86665e-06 4.3065e-05 -1.19547e-05 0.000163997 -6.35566e-05 7.7047e-05 -1.36124e-06 -1.36372e-06 
3.75413e-06 0.000237884 1.8366e-06 -3.65763e-06 7.25365e-05 -7.75923e-06 9.99487e-06 -9.75208e-07 -9.70017e-06 
-1.91216e-06 1.88602e-07 -1.319e-06 1.74676e-06 -2.33923e-06 2.04129e-06 -1.22656e-05 -8.76175e-06 1.92813e-06 
0.000140609 5.71443e-05 8.03612e-06 1.50683e-06 1.93908e-05 -5.55618e-06 -3.63402e-05 -2.20413e-05 1.40594e-06 
1.07568e-05 6.87219e-07 -1.31267e-05 -9.51438e-05 -3.90636e-05 4.95123e-05 1.42654e-05 3.80564e-05 6.79047e-05 
-0.000237322 -0.000547794 0.000186386 9.18228e-06 1.06829e-06 -2.53247e-06 3.93916e-06 4.50187e-06 -4.98691e-05 
-1.53329e-06 1.27465e-05 1.24537e-05 -1.50889e-06 -2.88864e-05 6.9667e-05 -9.09312e-07 -1.87441e-06 4.10674e-06 
-0.00427435 1.36082e-05 0.000261413 0.000502979 2.02182e-06 5.08623e-06 -1.88629e-05 -3.98144e-05 7.45242e-07 
6.67965e-05 -1.07671e-05 -3.24982e-05 -1.17217e-05 8.479e-06 2.6601e-06 -3.91911e-06 -1.14673e-05 2.48343e-06 
-1.75115e-05 1.94256e-05 2.91572e-05 -2.74671e-05 -4.96089e-05 4.53997e-06 6.60384e-05 9.17429e-06 -8.59747e-07 
2.88761e-06 -5.44781e-05 6.10172e-05 -1.81462e-05 4.33754e-05 2.48442e-05 -6.52397e-06 0.000125366 -1.26357e-07 
-3.05919e-06 4.00684e-06 -6.67533e-07 -0.000205317 0.000120864 0.00020382 -7.34599e-06 -2.887e-05 1.08493e-05 
1.08899e-05 -1.73337e-05 2.22797e-05 2.52272e-05 -0.000533699 -4.7204e-05 7.70515e-05 -6.17144e-06 -2.90323e-06 
2.1309e-06 2.73518e-06 2.69809e-07 -3.35088e-07 -7.25296e-05 2.48345e-05 -8.89188e-05 0.000170546 2.56746e-06 
7.51404e-07 -8.92566e-07 9.38832e-06 2.81445e-05 -8.67257e-06 7.86895e-05 -6.82677e-05 -4.60414e-05 4.26273e-05 
-1.66413e-05 -5.66246e-06 0.000263291 0.000148118 0.0299622 -0.0107021 -1.31376e-07 2.20557e-05 -5.26227e-05 
0.000122437 -3.05798e-07 -1.18159e-05 -1.73295e-06 1.14967e-05 -1.57068e-05 3.0099e-06 -3.35269e-06 -5.68148e-06 
-6.32691e-06 7.87062e-05 -2.35991e-06 -1.31123e-06 -8.77304e-06 3.0896e-06 8.49816e-07 4.17439e-06 1.57658e-06 
2.24837e-06 -1.31641e-05 1.29733e-05 -0.00257725 0.000253924 0.000957016 2.55814e-06 2.46002e-06 8.80247e-06 
-1.55492e-05 -1.33484e-05 -2.33893e-05 0.000184626 3.63573e-05 -2.45087e-05 -7.14058e-05 -5.2387e-05 -0.000129992 
-1.28416e-05 4.69107e-05 0.000163911 -0.000314068 0.0100976 3.83732e-05 3.24749e-05 -4.02724e-05 7.20303e-05 
0.000260849 -0.000476406 -7.45705e-05 -4.60997e-05 4.87146e-05 -3.81156e-05 -2.48426e-05 2.90182e-05 -7.03477e-05 
3.67143e-06 3.08584e-06 5.45729e-05 1.06732e-05 1.00453e-06 -7.78882e-06 -1.8016e-05 2.29952e-05 6.87834e-05 
-0.000154726 -1.10424e-05 -8.23863e-05 6.78314e-06 -2.05583e-05 1.57405e-05 -0.000118328 -0.000422782 0.00264041 
-0.0006488 6.11858e-05 2.18997e-05 0.000181615 5.38288e-06 -0.000187664 5.33763e-06 -7.7837e-07 5.17873e-07 
7.94066e-06 -6.34025e-05 0.000177208 4.0143e-06 2.05561e-07 1.15985e-06 -1.56434e-05 4.93349e-05 -5.75677e-06 
1.20809e-06 3.46229e-06 -2.55789e-05 4.14757e-05 -1.77207e-05 -1.66762e-05 -4.76373e-06 2.21636e-05 -1.7837e-05 
-1.71201e-05 -3.06977e-05 -9.87241e-06 -5.63802e-07 -6.0733e-08 1.0212e-06 -0.000798391 3.14442e-05 0.000861422 
0.000180565 -7.65616e-07 -7.68315e-06 -3.23405e-05 -2.93416e-05 -6.09842e-05 4.56397e-05 -2.98967e-05 9.64039e-05 
-0.000104365 -5.1369e-05 -4.96155e-06 3.89416e-05 0.000240914 1.00507e-05 -3.45369e-05 2.83533e-05 -0.000206472 
0.000142434 3.93295e-05 -1.21773e-05 -3.51855e-05 -7.62213e-05 9.88535e-05 9.79137e-08 -5.05704e-05 0.000114839 
1.05374e-06 -3.63266e-06 8.72052e-06 -8.85179e-06 -4.16738e-05 -7.70216e-05 7.34985e-06 -6.55087e-06 3.06357e-06 
-3.07147e-05 8.90818e-06 -7.14515e-07 1.95792e-05 6.31285e-05 -3.05128e-05 -3.17494e-06 0.000171029 0.00270242 
1.50642e-06 -1.39606e-06 2.37706e-06 -7.17078e-06 9.76987e-06 -3.80368e-05 -3.94152e-06 1.01337e-05 1.16768e-05 
2.00876e-05 -2.27621e-05 2.123e-05 -6.26245e-05 1.91997e-05 -1.85023e-05 -1.90215e-05 3.10049e-06 -4.76059e-05 
-4.05448e-06 3.77568e-06 -1.35319e-07 -0.00296876 -0.00104216 0.00135112 -6.274e-05 -1.18066e-06 0.00489194 
-0.00141801 -0.00712883 6.48561e-06 2.34831e-05 7.5322e-05 0.000167183 2.97381e-06 -4.45173e-05 6.75601e-06 
-2.81105e-07 1.63175e-05 -6.90693e-05 0.000217417 -3.24619e-05 -0.000278786 -5.11041e-05 -3.10328e-05 -0.000170543 
8.73954e-05 9.82867e-05 -0.000127456 0.00261805 0.000149134 -8.18694e-05 -2.12735e-05 -4.93284e-05 1.41986e-05 
1.22123e-05 2.78231e-05 -8.63761e-05 -6.01031e-05 -4.98552e-05 5.99721e-05 -4.78118e-05 9.52356e-05 -3.72715e-05 
-5.41594e-05 3.83644e-05 -4.22668e-06 -5.58158e-05 -3.85158e-05 1.40217e-06 4.80668e-05 -3.54801e-05 -3.02839e-06 
-8.58362e-06 -0.000151384 8.34372e-05 8.56186e-05 3.38091e-06 -1.10212e-05 -3.40791e-05 -1.15705e-05 -5.49142e-05 
5.55351e-05 7.4693e-06 -5.22615e-06 1.08454e-05 -8.60096e-06 -1.85902e-05 7.45105e-06 -1.01936e-06 1.88934e-05 
7.0978e-05 -0.000584068 0.00013413 -5.94844e-05 6.25519e-06 -1.36498e-05 -1.23427e-05 2.56488e-05 3.87567e-06 
7.01826e-05 -2.82481e-05 2.56339e-06 4.25e-06 1.18364e-05 -9.38585e-06 6.24066e-06 1.23927e-05 3.00915e-05 
-6.56678e-07 -1.81663e-06 -4.76249e-06 2.84268e-05 5.40313e-06 -0.00011731 6.75906e-06 -8.81252e-06 8.57291e-07 
-1.66623e-05 2.33112e-05 -7.52129e-06 -1.63636e-06 1.36145e-05 3.33051e-05 4.08919e-09 -3.88598e-06 -1.4761e-06 
-1.01807e-05 -1.14847e-05 9.72928e-06 2.13932e-06 -1.96215e-06 -3.85013e-06 7.40126e-06 -5.83399e-05 1.47766e-06 
-1.50756e-05 1.98152e-05 8.73603e-05 -5.00203e-05 -0.00245731 0.00241312 -0.000474374 -0.00101882 -8.69635e-05 
0.0028482 -8.4784e-06 3.03864e-06 8.72786e-06 -8.15946e-06 2.86485e-06 -1.29122e-05 0.000326284 0.000120442 
5.5501e-05 5.89262e-06 6.61194e-06 2.76898e-08 0.000142639 -6.14453e-05 6.52707e-05 1.72242e-05 0.000516497 
-0.000923739 -3.24415e-05 -2.6091e-05 7.38035e-05 -4.9761e-05 0.00110134 -0.0165277 -0.0133336 0.0400759 
5.05479e-05 -9.5342e-05 0.000294236 -1.14223e-05 -2.0263e-06 -1.45114e-05 -7.27253e-06 -5.87538e-06 -1.0469e-05 
5.49661e-07 3.76116e-06 3.56873e-06 -4.14291e-05 0.000239109 4.78752e-05 -2.04157e-06 -5.7646e-07 8.79712e-05 
-0.000221946 -3.3466e-05 -3.81445e-06 7.35325e-06 -2.25396e-07 -1.50189e-06 5.32481e-07 -4.00517e-06 4.50946e-06 
9.47166e-07 -4.56266e-06 1.13193e-05 1.28755e-05 1.35065e-06 -4.94698e-07 -2.36389e-07 -0.000224106 -7.43496e-06 
-3.31074e-05 -4.75316e-07 -2.19695e-06 -1.32512e-05 -1.46769e-06 -0.000383533 -2.16525e-05 -1.75673e-06 4.47079e-06 
0.0144871 0.0114958 -2.88656e-06 9.21676e-08 -8.88859e-06 0.000238363 0.000106255 -1.60967e-06 3.92502e-06 
6.57786e-07 -3.29458e-06 -1.93669e-06 -3.8791e-06 5.48029e-06 5.36909e-06 0.0118698 0.0103852 3.33644e-05 
0.00154816 -0.000106281 0.000592099 -0.00378757 -1.42888e-05 1.13126e-06 -8.64251e-05 0.000187074 -8.86872e-05 
0.0366854 0.00186162 7.46477e-05 1.63208e-05 -7.42535e-06 -0.000741435 0.000185148 -0.000315587 -9.86343e-06 
-4.72252e-05 -1.49083e-05 3.6078e-07 1.35881e-07 0.00133119 -0.000144723 1.03541e-05 -1.42021e-06 7.3443e-06 
0.000670054 0.000397063 -7.26298e-05 0.000125494 -0.000122673 3.82439e-06 1.29209e-05 -5.5883e-05 -1.96166e-06 
7.10085e-06 -3.00001e-06 -6.72087e-06 3.75111e-05 -9.72112e-06 6.95497e-07 -3.22991e-06 -1.31782e-06 1.78216e-06 
-1.11282e-05 -7.11214e-06 5.33028e-05 -3.04899e-05 2.78546e-06 3.0418e-06 -7.69932e-07 0.0314331 1.61485e-05 
-1.20933e-05 -3.3457e-05 1.12734e-06 -2.62922e-06 -2.71267e-05 -2.72552e-05 1.61753e-05 4.0156e-05 -1.61323e-05 
2.55107e-06 -1.40601e-05 -4.84831e-06 -1.29843e-05 5.04574e-06 3.68918e-06 0.00047136 6.43601e-06 -0.0124015 
0.00882092 -0.0015036 6.85622e-06 8.8711e-07 -9.95559e-06 -1.11401e-05 0.00153231 -3.53174e-05 6.74164e-05 
-4.08352e-05 -5.35465e-05 -1.54607e-07 -8.69228e-06 3.59203e-07 -6.04665e-07 2.33887e-06 1.48685e-05 6.88959e-06 
0.0035875 -0.00488263 0.00317335 -1.06428e-05 3.25615e-06 8.30003e-06 1.67437e-05 0.000176617 -0.00578878 
-6.50407e-06 0.00150924 -0.00836876 0.00459472 -5.63317e-05 6.37416e-05 4.29993e-05 -6.12555e-05 0.0393446 
0.033724 0.0250192 0.0255055 -0.0156238 2.60997e-06 -1.86323e-06 8.60656e-06 4.56465e-05 1.72456e-05 
-0.00582586 0.00402494 3.40049e-06 -6.6497e-06 8.14707e-05 9.74848e-06 -1.68505e-05 3.38701e-05 -1.3716e-08 
0.0031989 -4.51842e-05 -2.47382e-05 5.13126e-06 1.17607e-05 2.10168e-06 -0.00486428 -0.00361493 0.00151598 
-0.000108029 0.000205215 3.09491e-06 0.00572687 -0.00157753 -0.000171292 1.87528e-05 -1.26084e-06 -2.72202e-05 
-4.01939e-05 -4.23956e-06 -5.25716e-06 3.07519e-06 -1.23138e-05 0.000115486 0.00293337 -0.000129929 0.0194687 
0.0104579 -2.00111e-05 0.00838466 0.00958449 -9.27891e-05 -0.000291981 -3.24682e-05 0.00401928 -0.000178698 
-0.001046 -0.000152577 0.00013251 -4.11e-05 7.99223e-06 -5.49352e-06 5.3297e-06 -8.67926e-06 -4.24144e-06 
4.02868e-06 1.45341e-06 5.94171e-06 -1.52616e-06 1.47928e-07 0.000341607 -0.000127122 3.43626e-05 -0.000137945 
0.000509709 0.0031604 3.08172e-06 -1.91273e-06 5.22538e-06 -1.87929e-06 2.87317e-06 -9.30545e-06 -2.63661e-06 
8.08013e-06 -4.17027e-06 1.30125e-05 7.57335e-07 5.09464e-06 9.96816e-06 0.000328309 -3.89376e-05 -8.50166e-05 
2.60924e-05 1.39153e-05 -2.30227e-05 8.63359e-06 7.94207e-06 -2.86628e-05 -6.48928e-07 1.89214e-05 -2.07326e-05 
8.25991e-06 1.35359e-05 -2.48296e-06 6.52397e-07 -3.73432e-06 -7.71166e-06 1.82219e-06 3.58423e-06 -1.27441e-05 
-1.76543e-06 1.98519e-05 -6.14148e-06 -1.68467e-06 2.41071e-07 -7.28557e-06 2.64236e-05 -5.57134e-05 0.0458277 
0.00693794 -1.18751e-05 1.04236e-05 -2.39931e-06 3.62061e-07 -6.14143e-07 1.93138e-05 0.00121141 3.7663e-06 
-0.00201313 -4.41251e-05 2.99845e-05 7.94875e-05 0.00050605 -4.26241e-06 8.97509e-06 0.000114574 6.9155e-06 
-6.22373e-07 7.61717e-05 0.000980694 -8.13e-06 -2.518e-06 -4.97176e-06 -4.60416e-06 -4.05782e-05 3.95304e-05 
-0.000123427 0.00132461 0.000189322 -0.000430075 3.88225e-05 -7.84366e-06 -4.34011e-06 1.80988e-06 8.39388e-06 
-9.90053e-07 1.32171e-05 0.00822304 -2.94232e-05 2.89359e-06 -2.50765e-05 -4.88948e-06 4.35476e-06 6.87024e-05 
-4.08512e-05 4.66969e-05 -7.91308e-05 -3.84672e-06 2.68837e-06 0.000132566 5.12576e-07 2.29467e-06 8.18714e-06 
-0.00236527 -0.000735692 -3.51463e-05 1.72853e-05 -0.000104774 -1.7372e-06 -0.00494843 2.96891e-05 1.70514e-05 
-9.34208e-06 -1.01666e-05 8.02966e-06 2.30361e-07 -3.50172e-05 -1.34328e-06 1.17764e-05 -5.30755e-06 -7.36109e-06 
-8.80448e-07 1.34297e-05 -0.0151621 0.000964707 0.00140324 0.00142705 0.00012254 -5.42757e-06 1.05872e-06 
2.92418e-06 -5.43702e-05 4.22957e-05 -5.62534e-05 1.54805e-05 -2.70251e-05 1.48114e-05 1.81642e-06 1.04038e-05 
-0.000428038 -0.000467616 0.000698439 -3.55758e-06 2.61269e-05 1.80286e-05 -1.031e-05 0.000421806 7.49086e-05 
2.34492e-05 1.12796e-06 -2.63682e-05 8.46429e-05 4.04083e-06 -1.78412e-05 6.05195e-06 4.04342e-07 2.46711e-05 
0.0002678 -0.000589588 0.000420886 -0.000204618 -1.39754e-05 5.28753e-05 8.59549e-05 0.024436 -2.96151e-05 
-6.18791e-05 3.60996e-05 -2.42783e-05 -6.51911e-05 4.2084e-05 -0.000182934 5.46616e-05 2.06591e-05 6.24446e-07 
-3.79951e-06 0.0130652 0.00863151 -0.00147846 0.000536178 1.10556e-05 9.11916e-06 0.000161818 9.60544e-05 
-1.72309e-05 -7.23562e-05 0.000115505 -3.9936e-05 -7.09715e-05 -1.38309e-06 -7.87363e-06 5.86013e-06 0.000118177 
9.48984e-05 0.00012109 7.19233e-05 -1.08889e-05 -2.116e-05 3.33578e-05 0.000109719 -5.99114e-06 2.21326e-06 
1.27288e-05 -2.13555e-06 -2.77184e-06 2.90594e-06 -0.00662625 2.56453e-05 5.07041e-06 -6.44494e-06 -6.98631e-07 
5.87034e-07 -9.93413e-06 -1.01677e-05 -1.90109e-05 -5.85666e-06 5.38439e-06 -6.17322e-06 6.56095e-05 -5.11328e-06 
-5.272e-07 -8.19365e-06 -1.26282e-07 1.84188e-06 3.63762e-06 2.18604e-05 2.52945e-07 -3.68501e-06 5.70345e-06 
-4.8198e-05 0.00590368 -4.36858e-05 3.78574e-07 -6.50768e-06 7.08996e-06 -0.000190314 -0.00100111 0.000664705 
-3.36481e-05 3.99562e-05 -1.66336e-05 7.0089e-06 7.35872e-06 4.95525e-06 -6.84142e-05 2.05253e-06 -5.03179e-06 
8.27207e-05 -0.000498159 6.04918e-06 -0.00214495 0.00690495 -1.91163e-05 1.2778e-06 2.15692e-05 -1.79556e-05 
1.88377e-06 3.75405e-06 2.05276e-06 -3.59692e-06 6.63963e-06 -7.77459e-06 -7.408e-06 -1.92365e-06 3.56675e-06 
-0.000103082 8.56842e-05 -7.59292e-05 -3.12364e-05 -1.69346e-06 0.000102842 7.1132e-05 2.14437e-05 -1.52616e-06 
3.35092e-05 -2.64852e-06 -0.00579546 -0.00175918 0.00612524 -5.03429e-06 8.13061e-06 -0.000108814 0.000417722 
-1.986e-06 1.06378e-05 -2.93107e-05 6.29983e-07 -2.20901e-05 -7.79045e-06 2.4913e-05 -0.010769 -0.00304045 
-0.00887529 9.72712e-06 5.449e-05 1.78697e-05 -8.44817e-06 1.05595e-06 7.48127e-08 2.99639e-06 -1.21514e-05 
7.99713e-06 -0.000218152 9.29207e-06 -6.08548e-06 -9.96156e-06 4.36547e-06 1.55584e-05 2.42978e-05 -1.20592e-05 
-3.95203e-05 1.77593e-05 2.12671e-06 5.1276e-05 7.2884e-06 -0.0002756 -2.49776e-08 -1.29106e-05 -4.26213e-06 
-4.85421e-06 1.57255e-05 4.64414e-06 1.30314e-05 1.55267e-05 8.67447e-06 1.26483e-05 -8.03604e-06 -4.54459e-06 
3.56618e-07 -8.27947e-06 9.75092e-07 -3.05047e-07 0.00066094 -2.79488e-06 0.000302966 -1.19051e-05 -1.28136e-06 
2.3605e-05 0.00917053 -0.000461988 0.000411489 4.07399e-05 3.2866e-06 -4.99292e-06 0.00139822 0.00397231 
0.00601416 -0.00129893 -0.0017071 2.54353e-06 2.98049e-05 -5.5059e-05 -0.000152927 -1.20047e-05 -3.08081e-06 
-5.3219e-06 3.79226e-06 2.90959e-06 -6.95711e-06 5.91502e-06 6.70711e-06 -7.30001e-05 0.00013535 -0.000315991 
0.000117619 -2.21635e-05 -0.00989117 -1.60702e-06 -3.56722e-06 0.00379135 0.0071927 2.0775e-05 -7.203e-06 
-1.66932e-06 7.72139e-07 -3.17844e-05 -3.34337e-05 0.000841691 0.00188589 -0.00424484 -0.000608169 -0.000416759 
0.00149238 8.10085e-07 -7.52928e-06 1.83077e-06 -3.60957e-06 1.91415e-05 1.82136e-06 1.11844e-06 -2.15817e-06 
-4.37876e-05 -9.80215e-06 1.90932e-08 -2.01291e-05 0.00680815 0.00218374 0.00102084 -0.00420256 -0.00663293 
-4.53235e-06 0.000108378 3.44956e-05 -7.70339e-06 0.000185167 3.85037e-06 6.21179e-06 3.80557e-06 -0.00478026 
-0.00406885 2.26153e-06 4.38288e-06 -1.46146e-05 1.11492e-05 -1.65691e-05 -6.92881e-05 -4.66302e-05 -6.46604e-06 
-7.92039e-06 1.68648e-05 -7.45775e-06 5.28553e-05 -1.08116e-05 2.56404e-05 8.69797e-07 3.28699e-06 -6.29798e-06 
-2.23895e-06 -8.60651e-06 9.13669e-06 3.38881e-06 -1.4988e-06 -5.7688e-05 9.10775e-05 1.5832e-05 4.46681e-07 
-4.08476e-06 7.7849e-06 -2.69232e-05 -6.63507e-05 -0.00723779 7.55065e-06 -3.70593e-07 6.356e-06 3.76514e-05 
-7.03905e-06 -9.09086e-07 0.000220387 0.000278113 -2.29482e-05 4.8122e-06 9.14895e-05 -3.07776e-06 -2.91768e-06 
-7.35321e-06 -5.21025e-06 -3.07197e-08 -1.95986e-05 -5.0569e-06 -5.87884e-06 -2.27308e-06 -1.19964e-06 6.7746e-07 
2.81009e-06 -0.000225761 3.75373e-05 3.55394e-05 -2.73563e-05 -0.000187825 0.00163244 0.000934573 -0.000282054 
-5.86306e-06 -1.01414e-06 -8.10852e-07 0.0109942 -0.0157858 0.000207239 0.000239123 0.000188215 -6.62323e-05 
0.000232117 -0.000100164 0.00111686 -0.019887 0.000317622 -0.00168459 -2.2999e-06 -0.00201903 -0.005086 
-0.000459773 -7.66562e-05 -7.8759e-05 -4.10145e-05 2.56305e-05 -5.43349e-05 -9.82971e-06 8.13795e-06 7.66492e-07 
-5.27792e-06 -2.4547e-05 1.98325e-05 4.37637e-06 1.80717e-06 2.09192e-06 1.10663e-06 0.0033082 -6.0741e-08 
-8.88667e-06 -4.73226e-05 1.09411e-06 -0.000101282 0.000104057 6.4987e-06 0.00964664 0.0132731 2.14445e-06 
-1.81624e-06 -3.95614e-05 -0.0157262 0.0363399 -2.66795e-05 1.19124e-05 -7.42714e-05 -1.16044e-06 2.98198e-05 
-0.000321584 0.000217519 -5.33209e-05 0.000995767 -0.000563462 -0.000102677 3.76847e-05 0.000382718 2.19979e-06 
3.49178e-06 0.000252819 8.61367e-06 -7.28054e-06 2.24449e-06 5.0411e-06 8.42234e-06 0.000137474 2.07103e-07 
1.11577e-06 8.07929e-07 -0.000550329 7.48871e-05 5.28844e-05 0.000169911 6.68212e-06 3.43647e-07 7.2903e-07 
7.93558e-06 -3.64698e-05 4.2434e-05 2.87757e-06 1.12329e-05 3.19115e-06 5.27063e-06 7.15829e-06 3.53495e-06 
-5.88994e-06 4.12868e-05 7.08943e-06 -9.0169e-05 1.30546e-05 -2.01186e-05 0.000298281 -0.00132495 -2.79318e-05 
6.09633e-06 -0.000485735 5.92056e-06 -0.00049846 0.00030614 6.68346e-06 7.2304e-06 -0.000396201 4.22832e-05 
5.62706e-05 2.99307e-06 -3.32418e-05 -4.96593e-06 7.60751e-06 0.000345834 -3.46479e-05 3.04716e-05 7.47744e-06 
-9.04195e-06 9.76438e-06 -0.00101763 1.40645e-05 8.19853e-05 0.000184645 0.000100815 -0.0110684 4.11524e-05 
-0.000750069 -7.42883e-05 -5.0389e-06 4.40354e-06 7.50953e-05 6.18097e-07 -1.25742e-05 -4.20109e-07 1.44793e-06 
-5.79223e-06 -1.94313e-05 1.34416e-05 -3.1851e-05 0.000130313 -2.73936e-05 0.000106702 -8.85113e-05 5.46244e-06 
0.00208868 0.000750891 -0.000102114 4.79797e-05 3.5476e-06 6.6099e-05 -1.91531e-05 6.83166e-07 -1.6339e-05 
1.65029e-06 -6.62862e-07 -8.84138e-06 9.72731e-08 -1.42196e-05 -3.37361e-06 -1.88196e-06 3.49227e-05 -1.34239e-05 
-2.03054e-05 1.47066e-06 5.892e-06 2.09001e-05 -8.66461e-06 -5.1361e-05 -0.000129693 9.44255e-05 4.38187e-05 
4.19623e-05 -1.70746e-05 -1.41153e-06 -1.51637e-05 1.85292e-05 -8.23876e-06 -2.20346e-06 -1.3771e-05 7.04463e-06 
-2.56376e-06 -3.91888e-06 5.27349e-06 9.58305e-05 -9.93244e-06 -2.82584e-05 1.93734e-05 3.89717e-05 2.90105e-06 
-0.000208411 0.000741453 -0.000113015 -1.16312e-05 -1.45532e-05 -2.69132e-06 8.6822e-06 -9.03494e-06 6.44658e-06 
8.46102e-07 5.00687e-06 -6.51274e-06 3.48707e-07 -3.29308e-06 -1.65997e-05 3.3436e-06 8.53228e-06 -2.29878e-05 
-1.28641e-05 -5.73355e-05 3.65853e-06 -8.60163e-06 -6.64753e-07 -0.00500205 -0.00139221 0.000620469 3.52309e-05 
2.12034e-05 0.0289356 1.71611e-06 -9.83139e-06 -0.000601966 -2.5866e-05 0.000190354 -0.00334464 -0.000110329 
-0.00165442 0.000172314 0.000101003 -0.0144963 2.29822e-06 -4.22397e-06 -0.000107768 -0.000175822 -7.70986e-05 
0.00458286 -0.0145654 0.000266404 0.00267335 -3.32136e-08 -2.47928e-05 -1.58608e-05 7.31612e-06 5.57251e-07 
-3.70385e-05 1.45536e-05 4.81455e-05 -6.96905e-06 4.97082e-05 -2.30728e-05 -3.93288e-05 1.39312e-05 -1.67916e-05 
-2.42586e-06 -1.78462e-05 1.87899e-05 -6.02318e-05 -4.83845e-06 -7.13772e-05 -7.25045e-06 -2.74366e-06 -0.0104755 
-5.98544e-06 3.43443e-06 -0.000149003 -4.99221e-05 -4.26683e-05 3.49855e-07 0.00085854 -7.06808e-06 -1.59645e-05 
2.14797e-05 4.63463e-06 6.24586e-06 -1.36233e-05 -3.97412e-06 -6.65071e-07 -9.27993e-06 -0.000125535 8.08599e-05 
7.1312e-05 -1.53565e-05 -3.10951e-05 -0.000105389 0.00237746 2.47495e-06 -9.9521e-06 -7.01987e-06 3.84453e-06 
-2.77096e-06 -4.33286e-06 0.000172519 -0.00827937 0.0109792 -0.01141 -1.76518e-05 -4.15088e-05 -1.79907e-05 
-3.61607e-06 -5.28591e-06 7.34535e-05 -0.000272486 -2.79718e-05 0.000288735 -6.67511e-06 -1.51382e-05 2.72749e-05 
-0.00126611 -6.56882e-06 -4.59318e-05 1.35196e-05 4.0341e-06 3.84238e-06 6.98974e-06 6.26551e-05 -3.82803e-05 
0.00757203 -4.56235e-06 -1.37856e-05 -4.28141e-05 -2.94083e-06 -0.00535561 -3.18354e-05 -3.22547e-05 0.00834205 
-2.24821e-06 0.00123892 0.00329952 -0.00657848 -0.000138721 0.000105988 -4.08558e-05 7.27054e-06 -1.18087e-05 
0.0151585 1.07346e-05 -9.35269e-06 0.000352195 4.10896e-06 -3.91157e-06 1.99733e-06 -0.000709069 2.16061e-06 
-6.39737e-06 4.44214e-05 -4.78684e-05 1.28513e-05 1.78118e-05 0.00630703 0.00104569 1.47488e-05 -4.30534e-05 
-9.71392e-06 -1.785e-05 1.06695e-05 -3.05194e-06 3.00023e-06 -1.9733e-06 -1.74465e-05 9.8034e-05 -0.000554493 
-0.000390202 -0.0121117 4.02623e-05 -0.000146985 -0.00174782 0.000183525 -0.000697063 2.46783e-05 -3.32137e-05 
2.49775e-05 2.02807e-05 -1.45003e-05 -6.41439e-06 1.60357e-07 6.94567e-05 1.66832e-06 -6.1726e-06 1.5068e-06 
9.58793e-06 0.000573984 1.50743e-05 1.72027e-05 -1.56944e-05 0.000316306 -1.02188e-05 -3.4706e-06 2.38508e-05 
0.000378062 -0.00536061 7.8619e-05 6.97216e-06 6.32388e-05 2.03008e-05 3.10482e-05 -9.99918e-06 1.29529e-06 
0.00010083 4.83026e-06 5.96132e-06 9.35205e-06 -2.00961e-05 1.14093e-05 -3.66022e-06 -4.32082e-05 4.09191e-06 
-8.27027e-06 -4.89399e-06 -2.20961e-05 0.000648837 -2.08442e-05 0.000726522 -6.49421e-06 -2.37308e-06 -0.000143899 
-1.6538e-05 -2.26752e-05 1.43927e-05 1.27746e-05 -4.77869e-05 -3.81982e-06 0.000978905 -4.05188e-06 0.00162585 
-0.000163454 0.00223937 -1.49286e-06 -1.91687e-05 5.89482e-05 -0.00394012 0.0122661 8.60915e-05 1.76566e-05 
-4.33598e-07 0.00200337 -0.00173032 -0.000381808 -1.85195e-05 -3.42294e-06 -3.11274e-05 -0.0084792 -0.00111523 
9.54948e-05 1.07931e-05 -0.000399587 1.34587e-05 -3.12231e-07 0.000566622 6.23413e-06 -0.000982948 0.00208057 
3.94016e-06 2.92556e-06 -3.8132e-05 1.3235e-05 -4.14132e-05 -1.09503e-05 -1.20819e-05 6.44727e-06 1.1483e-05 
-1.41997e-05 -2.72024e-05 -1.9764e-05 1.2431e-05 1.51226e-06 -7.01804e-06 -1.07632e-05 -1.38528e-06 -0.000152962 
-1.12521e-05 -0.00443531 -0.0030476 0.0171215 2.67851e-06 -0.000184855 5.10786e-05 -1.26223e-05 0.000472514 
7.39941e-05 6.40291e-05 -4.06022e-06 -2.27151e-05 6.28142e-05 0.00132451 1.82559e-06 5.51462e-05 0.000131234 
-0.00113256 -0.000843235 6.46486e-05 0.00019056 -6.02654e-05 0.000888037 0.00075829 4.45209e-05 -2.78088e-05 
3.14806e-05 -1.36256e-06 3.86933e-06 -3.71847e-05 -3.30286e-05 -7.12629e-06 1.07111e-05 1.12198e-05 -2.251e-05 
-1.26197e-05 7.67356e-06 1.69856e-05 -8.28823e-06 -2.68361e-05 5.58716e-06 5.62904e-06 -3.75413e-05 -1.67589e-06 
-1.94518e-07 -0.000347947 -6.3433e-06 -1.45027e-05 1.26756e-05 8.55741e-06 -5.93827e-06 -1.32353e-06 -1.05849e-05 
-1.74894e-06 -5.0598e-05 0.00195647 -1.40922e-06 1.15547e-06 -0.00011251 -0.00438458 1.7235e-05 0.00097787 
4.96156e-07 -3.61167e-05 -0.000605659 -2.47795e-06 5.54248e-06 -0.000231474 -5.62225e-05 1.03494e-05 -8.04415e-05 
2.32639e-07 7.68986e-06 -0.0388316 -4.63831e-06 0.015922 -7.83043e-05 4.6169e-06 -2.25645e-05 -1.96021e-05 
-0.00128612 0.00020064 4.34633e-07 -1.27371e-05 7.20383e-06 0.000162429 0.0072233 -2.31596e-05 0.0101914 
0.0083814 1.48187e-07 0.000131394 0.000382546 0.00011624 1.15787e-05 2.91923e-05 2.37881e-05 -0.000208663 
1.29842e-05 0.0132665 -6.06078e-05 -1.34949e-05 -2.06926e-05 -2.72522e-05 0.000450757 2.25764e-05 0.0113863 
-1.83132e-05 -0.000152304 -4.16695e-06 -2.14995e-06 -0.000178492 1.43257e-05 -4.69954e-06 -0.000177741 
Major%20Principal%20Stress 1 9350 double
1.0182386734 0.87240461076 0.88592154229 1.0228345767 0.33337100322 0.3333490017 0.333332 0.33333400004 0.53059229938 
0.51552534774 0.27617944292 0.29090547913 0.59568545156 0.66373833266 0.48041252062 0.45251699579 0.47154594173 0.40223555622 
0.36202656235 0.35204317 0.33819023108 0.33300200092 0.32467870674 0.32034310054 0.32067525959 0.31944226359 0.31708233194 
0.3081665686 0.31605136621 0.31760392088 0.3214028354 0.32100372229 0.32981143158 0.33920804714 0.35000044482 0.35935150434 
0.39368812259 0.48201472828 0.45837471903 0.4036668787 0.38698894131 0.35795132438 0.34847780702 0.3418190021 0.33805139996 
0.36209759597 0.34323910723 0.32399719741 0.32399069043 0.32323410574 0.32205631628 0.35380767383 0.32301555798 0.32509839515 
0.3260496563 0.32787072319 0.35743482088 0.34805199779 0.34145414056 0.34826476554 0.35509624228 0.38963247809 0.41559141795 
0.43752258056 0.33332800041 0.33333800007 0.33333800025 0.3333380002 0.33334200009 0.33334400067 0.33333500104 0.33334400372 
0.33334300325 0.33333400277 0.33333400621 0.3333270046 0.33331600649 0.3333050071 0.33332200246 0.33327900174 0.33332300019 
0.33328300186 0.33329600131 0.33332400336 0.33331200839 0.33333100473 0.33334200627 0.33335600666 0.3333390024 0.33337700417 
0.33333501429 0.45234114523 0.34304892458 0.32206928483 0.30966670923 0.30292951365 0.30013975717 0.29966282442 0.30069336461 
0.3023461878 0.3047481156 0.30734411144 0.3100100631 0.31280006177 0.31559404557 0.3183310364 0.32094302813 0.32366401349 
0.32599701404 0.32819001591 0.33027501914 0.33210300974 0.333599004 0.33497000382 0.33594000514 0.33662800666 0.33705600049 
0.33714500009 0.33687500077 0.33644700009 0.3358040002 0.33506300137 0.33420500058 0.33347600041 0.33284200048 0.33233000021 
0.33198600003 0.33186800036 0.33189300021 0.33206900023 0.33233200074 0.33263500058 0.33296300045 0.33322400037 0.33338200002 
0.33336300066 0.33351803631 0.33271900132 0.33049000816 0.32700603409 0.32320401851 0.32190007542 0.3257456732 0.33026498763 
0.32900502171 0.31953945561 0.3041945687 0.28725654028 0.27764506012 0.28447038727 0.29838405756 0.30758308322 0.30971917069 
0.30643138531 0.30220541688 0.30049135405 0.30488410355 0.31556059162 0.34069104558 0.40513790353 0.53478671634 0.69595802785 
0.60590857486 0.75647138642 0.73245082367 0.69528354382 0.59465662369 0.59963855559 0.5485687361 0.45104607493 0.37551793725 
0.52206634072 0.60599068342 0.64922950052 0.67239725386 0.55974245907 0.5617204835 0.61778771559 0.50037220473 0.5153248144 
0.57094184489 0.58271768009 0.33332900123 0.33334200003 0.33334400014 0.33334400002 0.333348 0.33335000109 0.3333500017 
0.333341002 0.33333400408 0.33332300579 0.33330300596 0.33328800758 0.33326900071 0.33327900718 0.33327700438 0.33330000681 
0.33331001613 0.33333101828 0.33335701383 0.33337201119 0.33338600623 0.33333401166 0.41125149559 0.34491820719 0.31693300029 
0.30539960733 0.30087104906 0.30023603786 0.30154203321 0.30390103467 0.30737501743 0.31055502265 0.31398101273 0.31747400876 
0.32087900513 0.32414200327 0.32709900334 0.32972600173 0.3321790004 0.33413000097 0.33556300008 0.33651400048 0.33704400039 
0.33709800204 0.33673500214 0.33599200466 0.33501500389 0.33401000385 0.33316100259 0.33245100208 0.33200900019 0.33189400028 
0.3320570002 0.3324060001 0.33281400008 0.33316100001 0.33336700021 0.33338400194 0.33341001104 0.33312300006 0.3315460058 
0.32875002732 0.32527303083 0.32237702578 0.32252759543 0.32739081716 0.33061660376 0.32678609358 0.3163193568 0.30139591156 
0.28650618636 0.27711615657 0.28622063806 0.30184600824 0.30929101594 0.30885115779 0.30467456059 0.30095785357 0.30021223624 
0.30287850711 0.31457234931 0.34075465147 0.47624501917 0.81958951125 0.69735245444 0.77451063296 0.69763531913 0.58482082632 
0.5619050591 0.60654532762 0.45704455244 0.46576531709 0.42891837516 0.37568552997 0.4410004671 0.48537312914 0.53032641679 
0.6254959607 0.68240559103 0.67604279611 0.53133768578 0.62772181336 0.6767448523 0.54664371359 0.49369966345 0.3332890029 
0.33328804933 0.33328618418 0.3332774549 0.33326989897 0.33326844991 0.33326122877 0.3332642087 0.33328024899 0.33330177363 
0.33332906244 0.33337076983 0.33341874366 0.33346815154 0.33350175223 0.33352600751 0.33353341866 0.33350802549 0.33346435213 
0.33341925893 0.33336648086 0.33331031714 0.33325380771 0.33319686053 0.33312619007 0.33302751125 0.43902330552 0.36403007339 
0.34137896954 0.32646119301 0.3187490724 0.31450090333 0.31264702785 0.31239711527 0.31235886395 0.313291691 0.31493949688 
0.31653475922 0.31830929666 0.32022776199 0.32210368617 0.32403359052 0.32594026789 0.32768733613 0.32939338745 0.33088262028 
0.33217185321 0.33331781531 0.33419241393 0.33485623032 0.33532137445 0.33551002369 0.33552006636 0.33526439303 0.33493277883 
0.33445310067 0.33392519237 0.33335709528 0.33286582854 0.33244545646 0.33216119035 0.33197403466 0.33195800465 0.33203506762 
0.33220516163 0.33242922001 0.33268920683 0.33293613853 0.33311905459 0.33325200804 0.3311126125 0.32903767645 0.32624902773 
0.32346169717 0.32167709523 0.32084652021 0.31799605093 0.31229933425 0.30353899008 0.29702813638 0.29378323486 0.29808607455 
0.30816895728 0.31420739481 0.31725775653 0.31763010501 0.31754623481 0.31920540468 0.3251467443 0.34047862515 0.35914707832 
0.40848491119 0.38740048878 0.37900042801 0.35393119304 0.33499434788 0.3259709954 0.32048579035 0.31806116093 0.31872056224 
0.31428551142 0.30993667638 0.30878304485 0.30821363229 0.30330752594 0.30716659112 0.30720871283 0.30913598614 0.31112442192 
0.31763322315 0.32274519043 0.32458980141 0.32536024865 0.33563018037 0.34386507421 0.36605374323 0.40073228889 0.44860875422 
0.32831783689 0.30035129153 0.27873013496 0.27329972925 0.27313706523 0.27329084122 0.27469524177 0.27780519474 0.27780276892 
0.28122774362 0.2680923915 0.37124751389 0.29849281511 0.23743165867 0.24032851346 0.26256067672 0.28442402061 0.30436926098 
0.32258260576 0.33741087223 0.34336391313 0.35434832672 0.36243385027 0.36485640955 0.33244952124 0.35013711184 0.36409663903 
0.29216208261 0.30337859199 0.30699419737 0.37307706706 0.3331783716 0.33313405245 0.33310009414 0.33306869257 0.33304511585 
0.33305478791 0.33309773741 0.3331613669 0.33328064837 0.33342624457 0.33359604824 0.3337933828 0.33396653848 0.33410473806 
0.33415026078 0.33412248125 0.33400846854 0.33384196839 0.33358679526 0.33332519793 0.33310818218 0.33292337177 0.33276351287 
0.33079585028 0.36123144889 0.34602031028 0.33542027765 0.32908767261 0.32457360624 0.32214504871 0.32093073849 0.32047337746 
0.32063252217 0.32107330569 0.32194672241 0.32299319746 0.32414618581 0.32541518233 0.32674933706 0.32800760014 0.32922016322 
0.3303605465 0.33136775729 0.33225108241 0.33303058194 0.33358543311 0.334017252 0.33426644752 0.33432200761 0.33422459863 
0.33401072797 0.33368288406 0.33333449167 0.33296644775 0.33259083125 0.33225888526 0.33200994662 0.33184527025 0.3318040041 
0.33188011754 0.33201241484 0.33222766964 0.33246575259 0.33271961488 0.33294939823 0.3331581447 0.37969453534 0.38316033578 
0.32858309894 0.32573026441 0.32107404849 0.31684400125 0.31281193625 0.30698141625 0.29944620159 0.32246165219 0.32675782082 
0.32719626553 0.32698812975 0.32744553105 0.32948006949 0.3337595815 0.34042047526 0.34846202427 0.32299922204 0.38489074273 
0.36067233243 0.35051361011 0.34001041802 0.33358142102 0.32950626174 0.32300206405 0.31991002792 0.32045837665 0.31849479134 
0.31744769627 0.31716799063 0.3166964109 0.31722826645 0.31877351734 0.32050197664 0.32272011356 0.32425823656 0.32881023267 
0.33632833503 0.34308268906 0.35340900033 0.36941317003 0.34355214405 0.31256001327 0.292037337 0.29010384111 0.28807272409 
0.28648977435 0.28989766498 0.28897104561 0.29166146402 0.2864613599 0.35194286307 0.31290458219 0.28148584309 0.34520411296 
0.33223297882 0.32520030755 0.37971508049 0.3023551441 0.29253537966 0.29563370206 0.27858071985 0.29932115211 0.33569086018 
0.35518898471 0.34381876735 0.36292866276 0.34033405137 0.30505951814 0.35834295793 0.3196560687 0.33287266038 0.33279203056 
0.33273051596 0.33268752315 0.33272426528 0.33286744424 0.3330780808 0.33336043045 0.33370717964 0.33414354355 0.33459484962 
0.33496698417 0.33514717598 0.33516558818 0.33507204656 0.33474152951 0.3342114453 0.33358379913 0.33303613058 0.33266786196 
0.32910159825 0.33296201758 0.34585219892 0.33921151473 0.33478383963 0.33109884497 0.32882098056 0.32738800378 0.32661436383 
0.32624479925 0.32615120016 0.32641795586 0.32684220543 0.32745930697 0.32815308599 0.32895217245 0.32972143728 0.33046326262 
0.3311559117 0.33173887403 0.33227834231 0.3327468545 0.33307343958 0.33327204422 0.3333461098 0.33329939934 0.33315507374 
0.33291922719 0.3326099396 0.33232550393 0.33203379601 0.331760258 0.33156142694 0.33146085492 0.33144006349 0.33153312698 
0.33170567565 0.33194032689 0.33221272011 0.33250363108 0.3327651255 0.33082455534 0.31111075082 0.32537924685 0.34231587555 
0.36044386041 0.36338793497 0.33563719761 0.33759564266 0.34027710308 0.34308251103 0.30211396469 0.3065026669 0.30885342591 
0.35304877736 0.3526866141 0.34497562897 0.33948733649 0.33419034391 0.32894258607 0.32595733654 0.32437477593 0.32327988757 
0.32207745076 0.32129759577 0.32092101782 0.32123646641 0.32226722711 0.32376280161 0.32565245466 0.32778272598 0.3313717167 
0.33636352219 0.34301333418 0.35107249381 0.33540844777 0.35416287628 0.31331088103 0.29805622092 0.30382146214 0.29794982405 
0.33791636701 0.33389160987 0.31766312588 0.30941261137 0.34008023499 0.3652092921 0.29963441808 0.3267645421 0.34465116436 
0.33476320118 0.31808561552 0.33216745999 0.35608366051 0.29601581168 0.31206690802 0.32305766219 0.33589059259 0.34758164097 
0.31400382249 0.35367523492 0.3221030204 0.33265692189 0.33235462119 0.33221660388 0.33218761829 0.33232234296 0.33262647065 
0.33310837426 0.33365025574 0.33429426881 0.33517590323 0.33596167292 0.33641873755 0.33660227312 0.33658257146 0.33626047642 
0.33535680651 0.33412619293 0.33312260282 0.33204933136 0.33255461678 0.34838139364 0.33991482564 0.34071639448 0.33774798341 
0.33530076934 0.33342456154 0.3321520875 0.33120568773 0.33059014773 0.33021362443 0.33010668014 0.33014543008 0.33029654674 
0.3304965146 0.33073934439 0.33107013899 0.33139217677 0.33169235021 0.33196762928 0.33222537791 0.33243043956 0.3325419746 
0.33256084574 0.332489115 0.33232501926 0.33207635057 0.33177157613 0.33150000343 0.33123466342 0.33102442563 0.33091153668 
0.33082782822 0.33079922838 0.3309581425 0.33122314843 0.33152938234 0.33190836223 0.33229037957 0.33080601489 0.35089628846 
0.32828738398 0.31080957493 0.32300579533 0.34502078543 0.34022137967 0.34015169845 0.34162208509 0.33961305227 0.33956130345 
0.33459027737 0.33148754729 0.3306570646 0.3291407719 0.32762583077 0.32662496979 0.32639380903 0.32647728341 0.3268412047 
0.32789273634 0.32963395755 0.33159513009 0.33418315732 0.33753143818 0.34199762832 0.34758016205 0.30339497908 0.31452800498 
0.31742101217 0.33249991619 0.31282883238 0.3332882461 0.33265243222 0.3398413512 0.33772734581 0.31035211748 0.35071965 
0.34426240937 0.34878189864 0.31784435647 0.34170784314 0.33318745148 0.34253525761 0.34116998978 0.33279278679 0.33724575113 
0.33151950636 0.33147696503 0.33181373402 0.33252021102 0.33336198012 0.33467527176 0.33718802559 0.33775122075 0.33847172983 
0.33827955023 0.33861082865 0.33504857445 0.34753170637 0.3203684563 0.34100398734 0.3391982925 0.33769707491 0.33641545502 
0.33536601405 0.33449742055 0.33381457866 0.33330885026 0.33293407899 0.33255760246 0.33227511447 0.33211332555 0.33206843908 
0.33201428367 0.33198038861 0.33197805339 0.33199840901 0.332030798 0.33200757876 0.33194421632 0.33180500004 0.33158081727 
0.33127733433 0.33087372111 0.3305368211 0.33031436037 0.33009045595 0.32996414612 0.33010125669 0.32990357014 0.33010716959 
0.33054601963 0.33100136959 0.33150921654 0.33203443005 0.3365317088 0.3433284541 0.34533091827 0.32690999061 0.32808370067 
0.34028054687 0.33861619812 0.34197782959 0.34148492106 0.33617039213 0.3345464013 0.33323210795 0.33136537602 0.33145297901 
0.33169088515 0.33206952357 0.33160662566 0.33336337345 0.33468582381 0.33642625449 0.33841737155 0.34092713491 0.32342820527 
0.33173949383 0.33042608762 0.31992715807 0.33407202863 0.31931988032 0.3414040237 0.33746966747 0.31836844297 0.33223917303 
0.31838397446 0.34344116586 0.34167017043 0.32211409155 0.33749220862 0.3237064045 0.3204168175 0.3431801676 0.33051476019 
0.33283163557 0.34064506215 0.32762809136 0.34208431778 0.33960361866 0.33897551522 0.3382198285 0.33745607534 0.33672650532 
0.33611534664 0.33550261177 0.33498599435 0.33428942134 0.33347195357 0.33335193888 0.33293321033 0.33249781841 0.33217068649 
0.33194309629 0.33174208161 0.33152321894 0.33136064418 0.33115710913 0.33088149828 0.33045946613 0.3297979136 0.32931993832 
0.32908824765 0.32911266744 0.32872094866 0.32902396855 0.32876733369 0.32970931306 0.33033627951 0.33104304409 0.34022930642 
0.34106721958 0.32952133452 0.33620048577 0.33545036973 0.33652679775 0.33629081932 0.33712234402 0.33805932477 0.33907580231 
0.32354850779 0.33319890608 0.33087795114 0.33142256358 0.34089561084 0.32831141493 0.32548777873 0.33058544665 0.32421854035 
0.33982418218 0.33763491768 0.34173588375 0.33939354605 0.32435915833 0.32750456222 0.32622076638 0.32437110048 0.34050096121 
0.32624267465 0.32469495795 0.3395335896 0.33958377515 0.3392843225 0.33884312441 0.3383222957 0.33764405101 0.33691417192 
0.33606339714 0.33486955069 0.33399962079 0.33311472839 0.3323745519 0.33185556626 0.33148920557 0.33090428075 0.33049436577 
0.33044028652 0.32996240311 0.32974005976 0.32874578694 0.32739123164 0.32756067005 0.32726989257 0.32739051686 0.3293025194 
0.33856566762 0.33632699253 0.32338575059 0.34088497684 0.34111530758 0.32856592157 0.33924680336 0.33911022207 0.34010609319 
0.33918253481 0.33032845536 0.3352848014 0.32914800024 0.33265837416 0.34030352309 0.33656802959 0.33495012608 0.33357014463 
0.33045998984 0.3282815151 0.32691505665 0.34084372548 0.33883200653 0.3276690512 0.33991737705 0.33983566927 0.33982880503 
0.33942035557 0.33846667814 0.33786396281 0.33252618424 0.33141127492 0.32940009057 0.33596515386 0.33347341718 0.33182935836 
0.34048936924 0.33964520252 0.33325900916 0.33327210791 0.33327134608 0.3332460044 0.33323214349 0.33322680777 0.33324048041 
0.3332740031 0.33333938864 0.33342850871 0.33351715771 0.33359531183 0.33365100449 0.33364959727 0.333591467 0.33351729172 
0.33337438191 0.33324373459 0.33311790486 0.33301031007 0.33306349748 0.40031959617 0.3622514356 0.33526863121 0.32199848331 
0.3157661367 0.31350001727 0.31324157306 0.31444754863 0.31608875158 0.3177202953 0.31986437502 0.3222380111 0.32455931335 
0.32666215538 0.32886564244 0.33070989679 0.3322934332 0.33359467905 0.33453471604 0.33514747067 0.33537300723 0.33527223768 
0.33489388334 0.33435945945 0.33372863135 0.33307736755 0.33254581898 0.33215928728 0.33199802148 0.33202503224 0.33221415878 
0.33250625795 0.3328202367 0.33307511022 0.332672763 0.33180767634 0.33035349477 0.32812076062 0.32553982024 0.32037535078 
0.3189135349 0.31515484997 0.30945524669 0.30201066526 0.29417158346 0.30053170088 0.31236118307 0.3167752409 0.31767102933 
0.31750015009 0.31728819222 0.31889565127 0.32373034199 0.3371124756 0.36112922029 0.39573488249 0.42205436043 0.36502193442 
0.3521200882 0.33814557657 0.33015989577 0.32355527167 0.30683033699 0.31634932155 0.31403591876 0.31265379076 0.3141974221 
0.31475286647 0.31586635756 0.31732722895 0.31767444761 0.30967891382 0.32745894182 0.33532134324 0.34943973924 0.35946928939 
0.47948738973 0.34766383189 0.29793134535 0.28289918713 0.274221878 0.2715503713 0.27324326536 0.2749231025 0.27637976087 
0.279049979 0.28007506352 0.26879752623 0.39410965789 0.28518452987 0.23526827652 0.24240817581 0.26480105266 0.28623537376 
0.30530091996 0.31860421795 0.33092589787 0.35022820751 0.3567453587 0.36404849771 0.36413945899 0.32345156545 0.29456948883 
0.35798442281 0.37419198109 0.37459749211 0.28889343508 0.30093224539 0.29455112673 0.33313172942 0.33308537063 0.33295854737 
0.33290668272 0.33291630759 0.33303455913 0.3332416026 0.33355123061 0.3338747307 0.33425506938 0.33454205049 0.33464222511 
0.33454263122 0.33420873228 0.33376734222 0.33325805199 0.33278552765 0.33229928828 0.33206371235 0.30279921498 0.33945759596 
0.35344551923 0.37067373689 0.33041728681 0.32485196114 0.32282144473 0.32233686405 0.32207437916 0.32262335365 0.32362290286 
0.32473249098 0.32593487236 0.32739026654 0.32883100261 0.33022035024 0.33136264283 0.33237799644 0.33316922035 0.33371926721 
0.33403445031 0.33406009466 0.33387341238 0.33356525321 0.33308948175 0.3326083995 0.33223800399 0.33193438281 0.33179625397 
0.33183201046 0.33198231707 0.33223075785 0.33254592859 0.33283374806 0.33045282605 0.31937941181 0.32768886508 0.31039443561 
0.31449886464 0.29700923581 0.32985103327 0.33021044117 0.32712679405 0.32793865006 0.33005971351 0.33326436451 0.34085724254 
0.35185154152 0.36324191048 0.3135364861 0.38392518091 0.34920426091 0.33949226105 0.3315968089 0.32543482075 0.32199865354 
0.32055829863 0.31991565739 0.3187270253 0.31846320418 0.31952705304 0.32157282402 0.32293467613 0.32550045522 0.32970543856 
0.33575778909 0.34476003281 0.35759712074 0.39449037584 0.27869555622 0.30634533817 0.29712465958 0.28936615884 0.29084714607 
0.29020017176 0.29157681017 0.32560659404 0.29418901991 0.288561436 0.27878008479 0.33709892451 0.32621026159 0.34984500156 
0.34534847063 0.33304700181 0.32784066549 0.31532999546 0.34100010618 0.30099172246 0.35245641001 0.33770531741 0.35745401305 
0.32736413587 0.31106367835 0.30587480844 0.35831023474 0.35663317649 0.28858737997 0.28690335168 0.32798290566 0.31427523205 
0.33251129689 0.33245343396 0.33284100504 0.33340708706 0.33411521156 0.3349580583 0.33569946902 0.33615800487 0.33611788928 
0.33568170259 0.33477799384 0.33366302688 0.33278369209 0.33173764882 0.30837577679 0.33288756923 0.36964231068 0.3401399403 
0.35466994973 0.32942476722 0.32835220072 0.32778755604 0.3276800813 0.32792801706 0.32841673096 0.32899282338 0.32972089206 
0.3304704107 0.33117266306 0.33181084062 0.33234482186 0.33277131203 0.33302442547 0.33310305097 0.3330040975 0.33274610745 
0.33236902316 0.33197873947 0.3316322882 0.33138942542 0.33131294815 0.33140000534 0.33160639158 0.33188330644 0.33222202122 
0.33119209755 0.33093120108 0.33045822945 0.33239614949 0.33764623193 0.33633427357 0.33541053492 0.34022950223 0.34455697845 
0.34589750189 0.33131197092 0.32811986177 0.32533799621 0.32356843909 0.32277824848 0.32269603532 0.3232815182 0.32444815019 
0.32618311299 0.32849186868 0.33216717706 0.33668786156 0.34215477098 0.2986218208 0.33552676554 0.30133390798 0.33698137321 
0.34277081831 0.35095112459 0.33793587629 0.36001112349 0.34435790077 0.34695157601 0.30536277247 0.30987918235 0.33447774622 
0.31857124767 0.3020243083 0.29808042336 0.3271674211 0.33263166936 0.33876369679 0.31176973236 0.33357364935 0.3325761124 
0.35413189166 0.31324949388 0.34637700699 0.3341739993 0.34871405615 0.3393802403 0.3320543983 0.3353673137 0.33683523925 
0.33803547496 0.33851240169 0.33772687281 0.33707149232 0.33456216371 0.33254105718 0.32250952635 0.34240055508 0.33288941146 
0.33402044038 0.33160383591 0.33148598089 0.33132903775 0.3313036089 0.33139929036 0.33157467383 0.33180190551 0.33199869701 
0.33218556011 0.33229860233 0.33230672364 0.33217744585 0.33193223444 0.33158801805 0.33117967324 0.33085434178 0.33059947247 
0.33053316321 0.33070506658 0.33101551124 0.33141005626 0.33181966498 0.31694773966 0.33992422162 0.31355865318 0.3407888655 
0.34103176555 0.32920301127 0.33153301306 0.33389305649 0.32815536028 0.32819013634 0.32833898613 0.329180126 0.33060370704 
0.33235736557 0.33467338222 0.33787568588 0.34177312856 0.33390088058 0.33273981777 0.35442110079 0.34277944528 0.33548990867 
0.33201556338 0.35460247683 0.34436150348 0.32260200179 0.3123070927 0.34665713535 0.32998357193 0.31732917991 0.3401866154 
0.33655922563 0.31554283664 0.34950995436 0.33224915181 0.33985264777 0.33174071399 0.31004213095 0.33173946948 0.33190479909 
0.34097721496 0.34008365451 0.33995459374 0.33657375983 0.33632037368 0.32832513381 0.34298690895 0.33971539774 0.30921340772 
0.33782079235 0.34134118248 0.31868674184 0.34409494579 0.33691703151 0.34767268217 0.33412479522 0.33465282187 0.33275941846 
0.33239532289 0.33220467077 0.33202400992 0.33188078754 0.33176079147 0.33167546062 0.33149405169 0.3311827906 0.3307747886 
0.33030440331 0.32988332647 0.32955882726 0.32950403521 0.32974615704 0.3302339783 0.33081479984 0.33138378925 0.34164127683 
0.33340010347 0.33404345506 0.33850040569 0.33329525462 0.33307515237 0.33267528713 0.33715543898 0.34146832995 0.33326859368 
0.33365272801 0.33454012878 0.33563414175 0.33701553086 0.33887335529 0.34075767813 0.33504177526 0.33801992096 0.33967458163 
0.3418121711 0.34250803205 0.32219937644 0.31930594937 0.32332995026 0.3314299285 0.32175366151 0.33580733617 0.33612258402 
0.33256942121 0.33507886293 0.34121808431 0.33081855593 0.33974207908 0.34338122033 0.31939236647 0.31964355393 0.3464406112 
0.33085267541 0.33108836919 0.33984665853 0.33228089434 0.33280471153 0.32595984641 0.31741964305 0.32276299238 0.3333321913 
0.33948647409 0.32727516524 0.33287561772 0.33338777044 0.33170796146 0.33130194465 0.33100039185 0.33069100554 0.33030138825 
0.32983610658 0.32918676953 0.32873575046 0.32831438828 0.32810899879 0.32846413723 0.32929648673 0.33022539838 0.33720145462 
0.33704754664 0.33679416909 0.32955083195 0.32112936418 0.34015072971 0.34125900108 0.3378613298 0.33846188467 0.33890376595 
0.33942742316 0.33986869325 0.3235238749 0.32430319016 0.33922782663 0.33009240956 0.33224175032 0.3367651383 0.31735669423 
0.32503022119 0.33865865431 0.3335264844 0.33751202952 0.33434470763 0.34156130757 0.32948165078 0.32320845515 0.32635534052 
0.32612409241 0.33769890296 0.32520866639 0.34007572953 0.33557208672 0.33712614397 0.3247847987 0.3298590642 0.33058025342 
0.32873236632 0.32742250048 0.32703013655 0.32592812377 0.32686200058 0.32827593128 0.32969484445 0.33765006932 0.34032430846 
0.33983289421 0.32448667712 0.33146591894 0.34015165049 0.32973109102 0.33405332156 0.32745492382 0.34001003186 0.32371784237 
0.3389455415 0.3296006711 0.32873333274 0.32712297463 0.34113133679 0.32732882061 0.32199515929 0.33917221246 0.33761407392 
0.33264584983 0.32865158031 0.33954065273 0.3276340592 0.32956496378 0.33576379446 0.33581515167 0.33079273078 0.33735423129 
0.3323210728 0.33312242827 0.34035657469 0.33496127272 0.33954700035 0.32718640603 0.35339301663 0.2834535142 0.97737536209 
0.98486522498 0.65455969097 0.46972367539 0.38355669995 0.45732476081 0.4419491766 0.4328083335 0.42855494455 0.32936918692 
0.42050720145 0.41886815086 0.41594642163 0.41952709968 0.40930921119 0.4130303174 0.41390268053 0.4199226009 0.3324529418 
0.43321183578 0.44472557529 0.45894163029 0.3856861932 0.45571773716 0.73724675738 0.73253392503 0.43902668161 0.43341014345 
0.43512708435 0.44795184397 0.44279302253 0.43420075393 0.40511488567 0.35173207592 0.39561726194 0.41926878373 0.41916000932 
0.417062305 0.39430995198 0.39466263056 0.4189152356 0.42109829104 0.42058772543 0.39449766112 0.35189179527 0.40830241727 
0.43846355462 0.44503841235 0.43748274588 0.40049553276 0.42894051887 0.62189921787 0.33332500036 0.3333400002 0.33334300015 
0.3333480004 0.33335400042 0.3333570004 0.33335000094 0.33335300248 0.33336200475 0.33335800428 0.33334100398 0.33332900551 
0.33330600704 0.33329000988 0.33326900644 0.33326800215 0.33326300021 0.33323700288 0.3332460054 0.33327600487 0.33329700516 
0.33332100641 0.33334400863 0.33336701022 0.33338500567 0.33342400307 0.33347300313 0.33329000817 0.61106006638 0.35031388929 
0.32898085674 0.31276314593 0.30482751542 0.30079764464 0.29967483484 0.29992064803 0.30127833947 0.3033482044 0.30593911331 
0.3086470831 0.31144606919 0.31420006918 0.31695905209 0.31962603198 0.32233201955 0.32489501666 0.32715101952 0.32927902076 
0.33121501472 0.3329160058 0.33437500533 0.33554100531 0.33636500658 0.33690800307 0.33715900017 0.3370600005 0.33672300066 
0.3361740003 0.33545500047 0.33462700103 0.33381500084 0.3331240008 0.33256500042 0.33212400011 0.33189000014 0.33183300032 
0.33194600034 0.33218600044 0.33248000078 0.33280600072 0.33311600047 0.33332100006 0.33339600047 0.33334900017 0.33344200521 
0.33328201607 0.33178400145 0.32883502318 0.32493903364 0.32202100071 0.32354963498 0.32841546607 0.33103539965 0.32563209563 
0.31213590883 0.29545787234 0.28042173164 0.27817999509 0.29200512663 0.30442947916 0.30970400176 0.30843724454 0.30400741942 
0.30031140089 0.29993360467 0.30696731044 0.32138326576 0.36942853435 0.60777707012 0.62713527562 0.61475636061 0.69231834815 
0.70689546028 0.70869367445 0.8447626782 0.80786957997 0.62388438615 0.70114623903 0.5353364279 0.48121742868 0.42730487653 
0.32561767348 0.43334389082 0.6925155888 0.69648608236 0.72370959392 0.75196480883 0.64373831044 0.64441605236 0.62846447447 
0.51858813722 0.51164413886 0.58183592874 0.61311249028 0.63119552044 0.33331900035 0.33336000056 0.33335300022 0.33335300011 
0.33336300037 0.33337700037 0.33337400161 0.33336600323 0.33334600389 0.33334100651 0.33329500883 0.33325300657 0.33319200361 
0.33319100024 0.33319300486 0.33322901084 0.33326901546 0.33329402162 0.33336402212 0.33341801293 0.33344800125 0.33343801105 
0.33332100595 0.6130411212 0.36578308936 0.32282912198 0.30894913562 0.30195555302 0.29984109389 0.30056606332 0.30250805662 
0.30551906182 0.30890402491 0.31222902675 0.31573501618 0.31920601221 0.32255900686 0.32568500661 0.32847800409 0.33104800208 
0.33324400237 0.33493500061 0.33613000005 0.33688300062 0.33717400067 0.33701100174 0.33641800394 0.335531006 0.33450500503 
0.333560004 0.33275500241 0.33216700084 0.33190000052 0.33193200003 0.33220800028 0.33261000015 0.33300500008 0.33330500003 
0.33339900105 0.33336100054 0.33340000221 0.33337500833 0.33248500183 0.33024702235 0.32699103331 0.32346501469 0.32187712143 
0.32449632546 0.33003820146 0.33043216649 0.32275408263 0.30891692871 0.29310334859 0.27907231292 0.28011726183 0.29467403244 
0.30694161497 0.30983401625 0.30693432546 0.30228665051 0.29939216923 0.30026315183 0.30466466358 0.32079615949 0.35148783232 
0.59349143358 0.64495860555 0.85113501874 0.87098445132 0.71172557357 0.87506020548 0.6974380329 0.6688828998 0.63429471829 
0.59380884236 0.44556895066 0.47435132865 0.47518465654 0.38960845461 0.43822903297 0.60550333526 0.54433030891 0.59745503199 
0.631583786 0.76689096878 0.75988724678 0.62421294532 0.51933485723 0.67701781458 0.65129057665 0.56571097642 0.54583535896 
0.33335400084 0.333332 0.48550925723 0.50320767703 0.26593095168 0.61638913296 0.64885207879 0.65598027109 0.44952746352 
0.44113213519 0.41253805853 0.37111827054 0.3626665312 0.36257429321 0.36170082059 0.34445878418 0.34437117907 0.34022040205 
0.33349018056 0.3345540959 0.33202927143 0.3098636266 0.31161371229 0.3169812686 0.32309141871 0.31781203608 0.31854966046 
0.31896454392 0.31331140261 0.32158828648 0.31829379481 0.31542878311 0.3193916683 0.32016467658 0.31881970482 0.3229398011 
0.31906783199 0.32895431696 0.3212208346 0.31374923344 0.32491796219 0.33508910196 0.34275126738 0.33967811519 0.34508282641 
0.35163085823 0.34744945116 0.34633308618 0.36350199764 0.40898245819 0.46577600798 0.32314852299 0.31424648103 0.31818226559 
0.38696897589 0.33333500039 0.33331000023 0.3333070012 0.33331400971 0.33330601443 0.33330102001 0.33330904535 0.33330205034 
0.33330110565 0.33330611528 0.33329812107 0.33330330348 0.33329922875 0.33329824843 0.33329466517 0.33330136692 0.33329439219 
0.33328914913 0.33329856829 0.33328860356 0.33328782234 0.3332988424 0.33329086522 0.33329471591 0.33330111981 0.33329215705 
0.33329775692 0.33331425215 0.33331730829 0.33330753131 0.33332935774 0.33332834309 0.33331595105 0.33335929884 0.33335326633 
0.33334695122 0.33337402398 0.33337799011 0.33336733294 0.33340460442 0.33340254754 0.33339296369 0.33342622528 0.33342017694 
0.33342338902 0.33342000968 0.33343900093 0.33344923394 0.33344708881 0.33344112094 0.33345008014 0.3334265013 0.33342155732 
0.33342908023 0.33340609593 0.33340623547 0.33341214633 0.33337960504 0.33336373989 0.33339731747 0.33334996688 0.33334797022 
0.33338093908 0.333307965 0.33331691709 0.33332948231 0.33329055219 0.33328852158 0.33330567856 0.33326004172 0.33324797016 
0.33327288077 0.33322860904 0.33321353754 0.33321602924 0.33317816602 0.3332160623 0.33314524093 0.33332401043 0.56093767912 
0.3332280594 0.4147963232 0.43978534018 0.3838461295 0.3595565323 0.34489927543 0.38102906289 0.33419240179 0.3263875639 
0.34762773245 0.3192651556 0.31513454743 0.33193638788 0.31149290742 0.30964090432 0.32146249838 0.30757501264 0.30724568946 
0.31599565143 0.30649711604 0.30685812596 0.31298496369 0.30674825438 0.30748130341 0.31214610611 0.30745553103 0.30858162255 
0.31207665787 0.30909874484 0.31033996673 0.31266454112 0.31119584578 0.31247574817 0.31402259066 0.31328605474 0.31466897162 
0.31567917385 0.31557404305 0.31694198017 0.31739430306 0.31791391932 0.31925284492 0.31924534745 0.3202075701 0.32150654371 
0.32116741357 0.32248501979 0.32382285598 0.32308063117 0.32476562527 0.32592452759 0.3250209343 0.32681602755 0.32790297527 
0.32685941453 0.32876155018 0.32978650506 0.32858247107 0.33055808817 0.33146799536 0.33020154333 0.33210763268 0.33283752743 
0.3315757006 0.33342204411 0.33410298501 0.33280982418 0.33453966319 0.33501762476 0.33383311447 0.33535034811 0.33568632038 
0.33460378918 0.33592111919 0.33615308692 0.33515474682 0.3362410108 0.33629300456 0.33548514699 0.33628201225 0.33615502071 
0.33558400298 0.33602809937 0.33582910672 0.33544820291 0.33566019376 0.33535720685 0.3351435854 0.33511427721 0.33475529422 
0.33471695052 0.3344873194 0.33406930829 0.33419514831 0.3337822896 0.33343328254 0.33363316563 0.33318321963 0.33287720968 
0.33308797766 0.33266612202 0.33241711273 0.33262664023 0.33226205352 0.33209804302 0.33226631181 0.33200001111 0.33194900703 
0.33202809567 0.33194000107 0.33194600205 0.33192800343 0.33198501779 0.33206402114 0.33196102842 0.33214904172 0.33227404626 
0.33210011354 0.33238506029 0.33253205942 0.33230719111 0.33266405705 0.33281805543 0.33255621902 0.33294303884 0.33306603617 
0.33282217633 0.33316001622 0.33323501151 0.33304609441 0.33331300207 0.33331400059 0.33319902565 0.3318107546 0.33077220161 
0.3296622396 0.32807869844 0.33015313734 0.32655978661 0.32485538104 0.32766485797 0.32347514445 0.32286231746 0.32472453303 
0.32216213215 0.32365380483 0.32245213283 0.32364006872 0.32509168953 0.32135897182 0.32405615325 0.32295954565 0.32013504248 
0.31996666046 0.31557097004 0.31591889977 0.3108712314 0.30387739956 0.30832248978 0.30042928962 0.29275568853 0.29973259047 
0.29107829358 0.28674197781 0.29435973248 0.28889523256 0.29201003103 0.29337334837 0.29727996391 0.30276676087 0.3035894819 
0.30611054817 0.31032181153 0.3120180177 0.31203085497 0.31327721592 0.31634559015 0.3132586962 0.31214550836 0.31768540643 
0.31173852037 0.31031284193 0.31743655568 0.31067619973 0.31067103179 0.31771791794 0.3131021955 0.31654756871 0.32069810353 
0.32342307673 0.33118998925 0.33042864815 0.34033838571 0.35368538824 0.34677757215 0.37601184561 0.41997926022 0.37112987574 
0.38955535335 0.40262208356 0.34882883312 0.37883935757 0.35325326669 0.39491536379 0.33339765779 0.32737629762 0.37222518719 
0.32404353763 0.31368314644 0.35178975064 0.31256126112 0.30656543963 0.3371335916 0.30355753474 0.30166382344 0.33053499506 
0.30266432259 0.29847868414 0.32420110314 0.31280946639 0.31058312136 0.32062985737 0.28865264295 0.29339107863 0.32206140995 
0.29329950036 0.29087414639 0.31824677298 0.28994868448 0.29100338625 0.31647780026 0.28907173622 0.29214204262 0.31547403097 
0.29139102438 0.29124565711 0.31720847606 0.28770391497 0.2935086319 0.31497879311 0.29039818516 0.29178943872 0.31812354285 
0.28856920199 0.29289192699 0.31777229556 0.28966105715 0.298125936 0.31813669827 0.29518854767 0.29873915918 0.32115979941 
0.31356495584 0.31459474602 0.32318108405 0.29096199791 0.30684855281 0.32903442334 0.30420220434 0.31406858147 0.33335503546 
0.31251950383 0.32350482509 0.33709332148 0.32359953596 0.33221214127 0.34381670257 0.357132006 0.3642586084 0.36022035366 
0.3734599597 0.39262701838 0.38021074492 0.51693379152 0.46676624506 0.32253942079 0.34518507668 0.27934864765 0.29078863527 
0.3126590452 0.26495530017 0.26377391275 0.28610960672 0.26399651711 0.25801579032 0.27657180658 0.26502146616 0.26053793716 
0.27505427231 0.2679786281 0.26322295827 0.27645240336 0.26975138202 0.26446030224 0.27713213505 0.2738641179 0.2705228342 
0.27957700037 0.27400454849 0.2671130758 0.28315486082 0.27650997207 0.28364418935 0.28000556999 0.27519425507 0.26565261293 
0.27823045289 0.26140051704 0.4101476615 0.33186294911 0.2639086767 0.22404951837 0.20552197299 0.22350501648 0.24744971147 
0.22075186613 0.2406899646 0.2513588315 0.26870029065 0.25160520148 0.28140787127 0.29083120327 0.30150084232 0.31179269913 
0.29682661925 0.32410911935 0.33382053598 0.31605993414 0.34241792702 0.34478345079 0.35141564289 0.35071473066 0.33807115612 
0.36157508584 0.36433291866 0.34865267871 0.37163016996 0.3698676015 0.38236195796 0.38677942562 0.36409775325 0.33332100001 
0.43427383665 0.33295622296 0.3325184197 0.40353624245 0.38013143604 0.4243874938 0.40299183477 0.40558509643 0.34575198363 
0.28141780378 0.28189966237 0.33954442086 0.29186102317 0.30067087078 0.31123531637 0.31447402852 0.41117527144 0.37150063817 
0.36702804482 0.33029897129 0.2335421667 0.27590690968 0.36256395052 0.33187693336 0.41352801515 0.29188399818 0.4240640896 
0.33323116803 0.33322627676 0.33320952515 0.33319174235 0.33316166719 0.33319111328 0.33317147224 0.33312752742 0.33317002707 
0.33315250939 0.33309884564 0.33315434584 0.33313802884 0.33307181408 0.33315297436 0.33315077132 0.3330723818 0.3331718086 
0.33318064616 0.33309525006 0.3332135289 0.33323207953 0.33314407643 0.33328445151 0.3333087035 0.33322510048 0.33336458166 
0.33341424239 0.33335657533 0.33347353179 0.33353166462 0.33349826597 0.33359641753 0.33366808236 0.33367124634 0.33372235674 
0.33377314089 0.33383382033 0.33382081984 0.33385118627 0.33398128626 0.33386602839 0.33387039623 0.33406403246 0.33386250209 
0.33382087583 0.33406338528 0.33379928527 0.33374431876 0.33400858493 0.33368682123 0.33361971254 0.33387809581 0.33352720264 
0.33346830228 0.3336895706 0.33337679655 0.33329755982 0.33344181222 0.33322555995 0.33316034597 0.33321983639 0.33309668764 
0.33302503908 0.33303185298 0.33298498943 0.33289650264 0.3328794203 0.33092327803 0.32995407839 0.33325700465 0.36550788881 
0.35189568795 0.34535622338 0.33659319193 0.35191577139 0.33184622288 0.32784699477 0.33950454307 0.32451468656 0.32211779661 
0.33118113492 0.31987927239 0.31892701922 0.32610110452 0.31771650662 0.31747706149 0.3228160575 0.31683276043 0.31681439443 
0.32114605589 0.31657774707 0.31701942429 0.32042887695 0.3170503331 0.31784762056 0.32037275354 0.31807416303 0.3188475895 
0.32071405845 0.3192470588 0.32016552693 0.32142964038 0.32069290423 0.32165269981 0.32240703281 0.32219553421 0.32312093923 
0.32352937503 0.32375787554 0.32472845025 0.32475429485 0.32539715572 0.32634284461 0.32608729447 0.32693666533 0.32782211894 
0.32740349781 0.32843316337 0.32928960927 0.3286421132 0.32985320796 0.330586736 0.32981283654 0.33109466944 0.33174805095 
0.33090757632 0.33216810486 0.33275146586 0.33185678603 0.33313648546 0.33357837561 0.33269526516 0.33385187291 0.33418393846 
0.33336041332 0.33439577327 0.33463609506 0.3338586838 0.334764457 0.33486215294 0.33420217385 0.33489000351 0.33489003957 
0.33435708294 0.33483525479 0.33471850572 0.33431619024 0.33460592431 0.33445424233 0.33415811426 0.33429064186 0.33406192064 
0.33387329217 0.33387911217 0.33363120266 0.33352522114 0.33344019631 0.33316810366 0.33315051434 0.33298188893 0.33274467403 
0.33276515583 0.33257432282 0.33236704223 0.33240037502 0.33224270833 0.33210448047 0.33210538769 0.33201924985 0.33193011396 
0.33189155957 0.33191501859 0.33189900013 0.33179408471 0.33194203962 0.33197209372 0.33181102072 0.33204119484 0.33211427971 
0.33192524835 0.33222736369 0.33232941923 0.33210554463 0.33245444587 0.33257443449 0.33233972277 0.33270638582 0.33281833155 
0.33259469427 0.33294325637 0.33302618468 0.33284150636 0.33313109949 0.33320504988 0.33306325728 0.4022697327 0.38168254811 
0.36356221556 0.39390617683 0.37090776351 0.37027362322 0.3287206551 0.32749923495 0.3258753883 0.3246238405 0.32728601442 
0.32225438823 0.3212212051 0.3193455789 0.31837208918 0.31916327777 0.31703609034 0.31504673163 0.31544586698 0.31231179848 
0.30966848789 0.31036810575 0.30559516581 0.3019843444 0.29523529646 0.29496729165 0.31030864775 0.31390707201 0.31747465699 
0.31995273843 0.32059058013 0.32233860096 0.32710255503 0.32190000519 0.32256556394 0.32235095124 0.32292331898 0.32689833286 
0.32345364797 0.32500947276 0.32797360077 0.32661027808 0.33056187634 0.3308077032 0.33302903081 0.34114122121 0.33607995589 
0.35165479784 0.34486048795 0.35310029015 0.3441008388 0.37077570527 0.32347457407 0.34115943393 0.38930865836 0.41687224689 
0.35368791275 0.34780566685 0.37154330001 0.35155537225 0.3402074613 0.35653683785 0.33415126663 0.33158691686 0.34515139072 
0.32751231575 0.32547572478 0.33641056852 0.32202431685 0.32677268794 0.33097123674 0.31389031589 0.306020935 0.32684269943 
0.30494693792 0.3097620279 0.32239338061 0.31816533102 0.31332157302 0.32030459783 0.3132890464 0.31120406412 0.31875630159 
0.31160142554 0.31092487001 0.31734018042 0.311497134 0.30805670079 0.31672940404 0.30261326876 0.30705424816 0.31736222074 
0.31379727459 0.30813654702 0.31811139907 0.31449572895 0.31013103752 0.31967064294 0.31467711387 0.31281105959 0.31948345637 
0.31683660149 0.31786194219 0.32135268985 0.31194368864 0.30843317424 0.32346670998 0.31059487516 0.32133939158 0.3277550618 
0.33470324324 0.32630654585 0.33390111672 0.33880546306 0.33284636232 0.34115097814 0.34637193746 0.34106933913 0.34841611626 
0.34600423219 0.3569788722 0.3697061946 0.36210521715 0.35528303059 0.32608274916 0.30677067072 0.3147946862 0.31795343139 
0.2828223114 0.28370998161 0.2816321363 0.28172829393 0.29079875433 0.28042483447 0.28076799809 0.28890387676 0.27986604984 
0.2802325588 0.28747510622 0.28604164539 0.28366180719 0.28849301668 0.28111230955 0.28655949463 0.28965520249 0.28212734504 
0.28392339786 0.29034406698 0.38890328839 0.27482759429 0.28719900145 0.35243110826 0.36186413285 0.30775730099 0.31974312357 
0.26482875708 0.26321230281 0.3465001665 0.35099984243 0.34887723184 0.33235036171 0.33167342161 0.32269550962 0.33137272127 
0.31875000984 0.28884861838 0.40695653649 0.37512826481 0.37958209887 0.2930770439 0.30145086797 0.30811137452 0.28361622575 
0.28574452853 0.29608450282 0.29185330238 0.29024201864 0.26317289575 0.28604965757 0.26213398272 0.27265833795 0.27612032586 
0.29115201308 0.30367828501 0.305110413 0.33585314242 0.34101760224 0.33008335876 0.35877518373 0.35699032749 0.35510078982 
0.33323504313 0.33322009698 0.33317524409 0.32976983425 0.33149463037 0.33269710214 0.33264238765 0.33273994113 0.33428741056 
0.34695288408 0.36501041278 0.29131365441 0.37669343946 0.37335140461 0.35295151978 0.29695210547 0.32371723839 0.30322775364 
0.29758637758 0.2949794393 0.32598043788 0.30152206456 0.3268813697 0.37546077851 0.3609242286 0.34280919961 0.27997369029 
0.30003613835 0.30048612731 0.30109895792 0.36068360099 0.36050646019 0.3586055438 0.29514676187 0.33000713578 0.3292540675 
0.31771403286 0.31673826152 0.34006056402 0.33300576033 0.3329734199 0.33295441077 0.3329164243 0.33283874982 0.3329068452 
0.33286634155 0.33276564813 0.33286747756 0.33285614546 0.33271886651 0.33288457914 0.33289845479 0.33272627327 0.33297250442 
0.33302027126 0.33281285388 0.33310966742 0.33319858312 0.33299240799 0.33329704732 0.33341080676 0.33321994438 0.33353388827 
0.33367644513 0.33354053616 0.33383667365 0.33402310532 0.33391310089 0.33417703644 0.33433475487 0.33434172867 0.33445987615 
0.33459428687 0.33474241607 0.33463144342 0.33467500613 0.33501378145 0.33468204879 0.33466109955 0.33509133962 0.3346363358 
0.33454796146 0.33505284893 0.33442020737 0.33425828882 0.33486426526 0.33407137294 0.33385283252 0.33444415311 0.33363872826 
0.33341983395 0.33389750593 0.33320999735 0.33303816559 0.33331838567 0.33290858885 0.33276962732 0.33286099634 0.3286817148 
0.32743632785 0.33305946087 0.33307465947 0.3329586651 0.34691779186 0.34098051881 0.33793416308 0.33438501801 0.3418449972 
0.332399287 0.32992256045 0.33641610475 0.32829364612 0.3267954211 0.33240920706 0.32577133971 0.32503035572 0.32954819287 
0.32437860282 0.32409817707 0.32774676581 0.32370335574 0.32374304443 0.32676733502 0.32352928167 0.32374418323 0.32621710444 
0.32371211183 0.32412010158 0.32605509409 0.32425731637 0.32476170523 0.32619526134 0.32495280118 0.3255205215 0.3265663153 
0.32580078684 0.3264391695 0.32708156725 0.32678669988 0.3274624993 0.32777144954 0.32785260071 0.3284830748 0.32854777931 
0.32885741888 0.32945712121 0.32934291915 0.32982706928 0.33038514053 0.33010092638 0.33073067227 0.33123911083 0.33081602165 
0.33153080604 0.33197518137 0.33147576662 0.33223832533 0.33263484946 0.33204995694 0.3328563552 0.33312973721 0.33254886555 
0.33330804879 0.33350805832 0.33294441363 0.3336102325 0.33374706854 0.33321192282 0.33377527021 0.3338170121 0.33335376751 
0.33377911541 0.33374551478 0.333365024 0.33365720761 0.3335699214 0.33325509334 0.33344179743 0.33329856714 0.33305608711 
0.33313326944 0.33297666308 0.33277912971 0.33281890794 0.33265285918 0.3324722966 0.33249658918 0.33232517433 0.33216921304 
0.33218156385 0.33203195887 0.33188104191 0.33192419199 0.33180558926 0.33163830704 0.33175492983 0.33166651037 0.3314815505 
0.33166216387 0.33163702276 0.33141634753 0.33168901833 0.33171512455 0.33146100323 0.33181133012 0.331862541 0.33159735823 
0.33199078551 0.33208297681 0.33181399052 0.33223012689 0.33233418605 0.33207054645 0.33249114533 0.3326060558 0.33235770058 
0.33274585394 0.33285071123 0.3328600822 0.33263837452 0.33070133862 0.32971360666 0.31429815324 0.31151045699 0.32541348529 
0.32306269986 0.32770481558 0.33202841752 0.33375178516 0.36180048104 0.36570467505 0.36485364205 0.37384658773 0.36204859907 
0.33145983444 0.33310180525 0.33347346347 0.33628199746 0.33619775897 0.33688735358 0.3408259312 0.33850322264 0.34164745042 
0.34569717352 0.34145441355 0.29499024664 0.30089811486 0.30222525642 0.29265932665 0.30479239057 0.31061986072 0.36275577939 
0.3495137908 0.35455704546 0.35135995182 0.34662057448 0.34199415647 0.34918197566 0.33945318967 0.33580616479 0.34229555285 
0.33345475359 0.3310576524 0.33728020024 0.3285731416 0.325041786 0.33163508417 0.32332402379 0.32147751092 0.32742292129 
0.32115127598 0.32165604305 0.32528647333 0.32145447657 0.32030543 0.32385410368 0.31992192856 0.3192085273 0.3227924103 
0.3189656855 0.31875492277 0.32179869785 0.31883414146 0.31764620744 0.32115476553 0.31784272544 0.31886203965 0.32106975166 
0.31934080475 0.32010560171 0.32175191528 0.32108204321 0.32168203295 0.32312468297 0.32268029605 0.32388915095 0.32480120058 
0.32462923073 0.32527242933 0.32673568866 0.32685010216 0.32905285787 0.32967128669 0.33163998767 0.33514815763 0.33404211797 
0.33899432788 0.34242823292 0.33988780366 0.34679444298 0.35151384876 0.34748271667 0.35794892756 0.33112734021 0.33164154967 
0.35895572509 0.35022503155 0.34951168743 0.35820162391 0.31308981665 0.3169390606 0.31164969423 0.33304205401 0.29348799304 
0.29414090084 0.29757832794 0.29796107586 0.30077420487 0.36019403311 0.28961660554 0.29232105349 0.29849475887 0.33233912019 
0.33289770847 0.33608900978 0.33982195846 0.33456002968 0.33957456039 0.31912958513 0.3166472733 0.31456929783 0.30476545388 
0.31117851479 0.30464060368 0.34174277957 0.34610490922 0.33696204102 0.33327575893 0.34366185476 0.37571152675 0.37429767464 
0.35828166156 0.29206954784 0.28873120282 0.29719080048 0.32562192925 0.33150158391 0.33010117638 0.3470085191 0.34965330917 
0.34268251142 0.33076882032 0.33157852961 0.33474712194 0.31557550883 0.32176080443 0.32196040705 0.35689435702 0.33256784925 
0.33245516986 0.33240633445 0.33008713042 0.31307638256 0.3604444671 0.35869824718 0.35772585522 0.30790481387 0.30839904597 
0.33220625708 0.33154699425 0.30144612391 0.29812772408 0.30448672324 0.30946695422 0.30881858297 0.32231561399 0.30529976292 
0.33453679244 0.31804623815 0.32278696907 0.33268115027 0.30220976571 0.33292473115 0.34488294145 0.33635790295 0.35817303388 
0.34671248566 0.35008952527 0.35167989489 0.29273188181 0.29477626477 0.29376415019 0.30977810776 0.31206671649 0.31517250774 
0.35115307262 0.33142548041 0.33205363629 0.3523904203 0.36597135866 0.33005664471 0.31924438831 0.32930478533 0.35874129565 
0.35252002414 0.29130242535 0.29213654092 0.29677989509 0.331654725 0.33076235622 0.33258772894 0.33252464873 0.33249145093 
0.3324371683 0.33227639777 0.33244386331 0.33244405238 0.33220731896 0.3325143844 0.33259855472 0.33227125788 0.33273197816 
0.33287125197 0.33250248279 0.3330591169 0.33325999348 0.33288719628 0.33346838189 0.33372503618 0.33338426321 0.33394084368 
0.33425710774 0.33396601831 0.33460802631 0.33496032281 0.33476720697 0.33523416102 0.33552583456 0.33554917419 0.33567937614 
0.33583331233 0.33616035342 0.33588700052 0.33590617599 0.33645050693 0.33590672631 0.33583292438 0.33653150644 0.33571185933 
0.33544733292 0.3363466012 0.33512144231 0.33470228831 0.335767543 0.33423140891 0.33377778318 0.33478259541 0.33338598463 
0.33302627662 0.33363357275 0.33261410766 0.33239325453 0.3325584132 0.33058580539 0.32848919943 0.33252982691 0.35417234349 
0.34412355252 0.35433342941 0.33768750194 0.33920016428 0.34043810096 0.33781299932 0.33663396962 0.33450549127 0.3387368366 
0.33352078544 0.33218765283 0.33616288883 0.33140957147 0.33058237225 0.33401957218 0.32998331484 0.32951684163 0.33255957673 
0.32907012952 0.32881034744 0.3314463207 0.32856960472 0.32844068121 0.3307150011 0.32830276116 0.32838636257 0.3302688215 
0.32834869101 0.32853318916 0.33006587454 0.32853095328 0.32883294879 0.33005284101 0.32890405157 0.32925144725 0.33015185948 
0.32936129717 0.32975153847 0.33035785004 0.32986664911 0.33023780909 0.33061254504 0.33039246417 0.33076072293 0.3308978644 
0.33091189676 0.33125836533 0.33122521693 0.33141330385 0.33170680912 0.33154369527 0.33184807401 0.33211763653 0.33184283209 
0.33224213492 0.33247128892 0.33212225641 0.33255877184 0.33272819788 0.33234807346 0.33278376026 0.33288433056 0.33251031143 
0.33289541294 0.33293938202 0.33258046667 0.33289700016 0.3328832378 0.33255508078 0.33278601727 0.33273505233 0.33243078474 
0.33258347459 0.33250178217 0.33221254049 0.33232616759 0.33220121404 0.33192995593 0.33204282994 0.33192715915 0.33163441411 
0.33177302345 0.33164957982 0.3313559693 0.33152964286 0.33141669556 0.33111060242 0.33134542512 0.33125737613 0.33094892886 
0.3312071414 0.33116628018 0.33083705182 0.33114052424 0.33113213253 0.33078184615 0.33122000216 0.33125413717 0.33085200206 
0.33139649909 0.33146189285 0.33107354331 0.33163237784 0.33172681496 0.33137075193 0.33193420721 0.33205146306 0.33172190003 
0.3322564782 0.33238641826 0.33210741672 0.33484824828 0.34219881937 0.32824371576 0.3573358437 0.35326841613 0.32749589137 
0.33131391256 0.30596270741 0.30416029988 0.32072296478 0.32506826016 0.32532947538 0.34408289061 0.34665041469 0.33875222841 
0.34064457162 0.33978657706 0.34002527293 0.34181294748 0.34003982039 0.34565941794 0.33963973841 0.34611176008 0.33716541912 
0.33803702425 0.33946804007 0.33927679147 0.3368484533 0.33421329098 0.33179410758 0.33708019968 0.33015875048 0.32857268428 
0.33321832834 0.32830779922 0.32751389053 0.33098909611 0.32679051113 0.32610458957 0.32995464993 0.32538632972 0.32478327523 
0.32850213744 0.32433451212 0.32391776921 0.32721033868 0.32382837935 0.32368908712 0.32659439382 0.32371230618 0.3238497308 
0.3265551094 0.32403080394 0.3245477798 0.32676250599 0.32510659317 0.32579682119 0.32748465498 0.32663622806 0.32760040612 
0.32891723526 0.3284619258 0.32966399006 0.33076062106 0.33087180299 0.33271944706 0.33305278477 0.33424232158 0.33681399503 
0.33609179996 0.33898069558 0.34224890583 0.34007825682 0.34502305404 0.34919704187 0.34506868827 0.29832471683 0.30290385807 
0.30353189148 0.29794726806 0.31099719121 0.30678209033 0.31221867444 0.31388220942 0.31790291887 0.31976412408 0.30601962345 
0.33270072678 0.33263902594 0.33241860722 0.34823138681 0.30807830418 0.31119653079 0.31448606954 0.33346491951 0.33691295731 
0.33062974355 0.33281664839 0.33274856226 0.33257054085 0.33270871196 0.33763713422 0.33779276066 0.33845083665 0.34122064834 
0.33554444653 0.30491144576 0.30620075412 0.31071235766 0.30972553254 0.35400286171 0.35751184874 0.35043655801 0.34545438974 
0.34153867721 0.34193716866 0.33230458509 0.32742617472 0.33249270556 0.32417095001 0.35125302153 0.35231816234 0.30252932699 
0.3104419286 0.31134476029 0.33257801869 0.35275286497 0.35225329896 0.34863183693 0.33929702674 0.31519070581 0.31241982872 
0.31616642537 0.33830710525 0.34593108906 0.34646491704 0.34131566504 0.34236713881 0.3374007409 0.33379307001 0.34035465455 
0.3396113328 0.34042076857 0.34357815702 0.34241298971 0.34416295086 0.33970230139 0.34539259551 0.34209804648 0.31265138575 
0.31850290723 0.46575864141 0.52581549978 0.31582605596 0.33151764873 0.30766435643 0.33984604123 0.31923969749 0.33247991139 
0.33233614707 0.33177997115 0.33271784327 0.3329721295 0.33510509269 0.33530573788 0.33189212677 0.33183613959 0.33184227028 
0.33188849163 0.33149220994 0.33205862964 0.3322343948 0.33167652186 0.33252643598 0.33284052204 0.33219725157 0.33318497261 
0.33352543372 0.33293451448 0.33405715254 0.33446887773 0.33394613443 0.334980922 0.51781717586 0.33606167487 0.33665068299 
0.33598076245 0.33687527188 0.33715208559 0.33758541654 0.33741764512 0.33756812221 0.3380417614 0.33747739422 0.33745854598 
0.33836610698 0.33759597249 0.33742355116 0.33850765942 0.33529784868 0.33447165776 0.33351235491 0.35124474349 0.34751838302 
0.34865040349 0.31706001414 0.31900598136 0.34131547294 0.33942202857 0.33877669901 0.33724300514 0.33972810778 0.33676570697 
0.33561387275 0.33810669217 0.33522660052 0.33442001866 0.33680028394 0.3339510007 0.33338441835 0.33572386819 0.33300519921 
0.33262246224 0.33475792034 0.33234293338 0.33207982325 0.33402196006 0.3318794772 0.33176494085 0.33345614798 0.33160620053 
0.33158923287 0.33302769527 0.33139395631 0.3314569876 0.33266019014 0.33133624222 0.33140480924 0.33235315586 0.33134571217 
0.33145576713 0.33214765537 0.33143183866 0.33158810999 0.33206758122 0.33155186044 0.33170110808 0.33201647358 0.33168846224 
0.3318340708 0.33195890469 0.33184035471 0.33197579572 0.33195964536 0.3319882275 0.33211279566 0.33198205573 0.33212570738 
0.33222348055 0.33201377142 0.33221149963 0.33226367585 0.33202322702 0.33222649444 0.33224845239 0.33197787444 0.33216922021 
0.33214902945 0.33188454284 0.33202068135 0.33195789606 0.33170346768 0.33178280076 0.33168979484 0.33143278218 0.33145113179 
0.33134702616 0.33107593794 0.33114042145 0.33104124178 0.33069641611 0.330905084 0.33079885822 0.33040579263 0.33066058304 
0.33057825964 0.33016806639 0.33050732127 0.33045875087 0.33000324447 0.33052088283 0.33049348666 0.33001901737 0.33036716297 
0.33036937201 0.32996866715 0.33047700245 0.3305421604 0.32998003044 0.33076778284 0.33087453868 0.33031587408 0.33112145752 
0.33125127177 0.33077314763 0.33152103648 0.33168865664 0.33126033033 0.33197376033 0.33215175605 0.33178837275 0.33849343063 
0.33525141839 0.34414840033 0.34215594859 0.34171088353 0.33239010931 0.34836379861 0.3483056728 0.32512988107 0.32767195298 
0.33098880579 0.3320386289 0.3256997431 0.34001657753 0.34048353071 0.33929141019 0.33956440441 0.33933315145 0.34577430903 
0.34251972444 0.34348722387 0.34073181663 0.34084031312 0.33228068504 0.33218952255 0.33392479563 0.3334070873 0.33264274622 
0.33172584351 0.33539524587 0.3311217888 0.3303638117 0.33410495951 0.32941474428 0.32891212389 0.3323614993 0.32899480202 
0.32884750075 0.33147814167 0.32898902592 0.3290244956 0.33172696664 0.32921671501 0.32941699998 0.33208482623 0.32913807769 
0.32966405843 0.33191162658 0.33059129772 0.33139042838 0.33258563749 0.33207421333 0.33299131528 0.33426240124 0.33385162352 
0.33513916171 0.33575298148 0.33615254948 0.33774592434 0.33770321153 0.33909933866 0.34108002277 0.3400013319 0.34267351433 
0.34488568894 0.34479825863 0.32077265301 0.32337020375 0.32490392133 0.3215592698 0.3320811049 0.33196704344 0.33161011914 
0.32944994125 0.33190498289 0.32843107754 0.31740640885 0.3152390719 0.33356747808 0.33599043666 0.33214493179 0.31670820632 
0.31623287782 0.34048902477 0.34095068943 0.3407633281 0.34132394494 0.34685606827 0.34606705924 0.33789079058 0.33396100537 
0.33696844996 0.3362967859 0.3363081128 0.33884140252 0.31565954712 0.31890996301 0.31482933654 0.3379822548 0.33777545756 
0.33449680827 0.33239616472 0.3339709776 0.3391747125 0.31885484305 0.31502730375 0.31429188685 0.34517753535 0.34595354131 
0.34251959585 0.31860655902 0.33743048508 0.34218132665 0.34115108231 0.34125586471 0.3200570014 0.31842461773 0.32099351873 
0.33742139456 0.33932741022 0.33568492397 0.33187171787 0.34260995666 0.33531511453 0.35519787775 0.42021453408 0.32550685692 
0.32255363572 0.3171344986 0.31984330789 0.32099589446 0.33583251381 0.33794793457 0.34537467356 0.34555662 0.34349941987 
0.33101743892 0.33118191425 0.33260687832 0.33316614854 0.33912335041 0.33964945861 0.33945554916 0.339877981 0.33766346648 
0.33540117534 0.33370475003 0.33019317734 0.33028019918 0.3401978039 0.33943442802 0.3398642005 0.34181453571 0.3397138723 
0.33864668425 0.3385253801 0.33772243257 0.33907811274 0.33756119034 0.33685499515 0.33843820961 0.33657906695 0.33603249248 
0.33772108272 0.335737204 0.33533428323 0.33697119877 0.33509264295 0.33476364595 0.33632770267 0.33451733079 0.33426204526 
0.33572934002 0.33404721526 0.33381380959 0.33516212998 0.33348526441 0.33331540394 0.33455549484 0.33295525912 0.33281361035 
0.33382234162 0.33278833467 0.33272466313 0.33341882361 0.33254138134 0.33249102661 0.33311233065 0.33228206589 0.33224922823 
0.3326602782 0.33209403447 0.33208578797 0.33227030906 0.33198545705 0.33197879685 0.33202381097 0.33188719237 0.33189099726 
0.33181939304 0.3317848315 0.33177394867 0.33161470367 0.33168485326 0.33165691734 0.33142192041 0.33154883609 0.33149302877 
0.33124124896 0.33134436781 0.33124863085 0.33101420212 0.33102009117 0.33089880186 0.33066793275 0.33053082474 0.33039194192 
0.3300978516 0.33009673719 0.32997242938 0.32953823686 0.329815274 0.32973193991 0.32916094676 0.32972842354 0.32964087172 
0.32907547023 0.32940391139 0.3293524543 0.32887244859 0.32950596709 0.32956917872 0.32885392953 0.32948550455 0.54411821419 
0.50235354496 0.32933501619 0.32945824498 0.32886534177 0.32990521827 0.33010060141 0.32928352948 0.33044053249 0.33064707729 
0.33003255777 0.33102233556 0.33125741031 0.33071976635 0.33161566875 0.34095170454 0.34020110024 0.34105386014 0.33651848453 
0.3433602932 0.34194819969 0.34140134116 0.34135755698 0.34288095422 0.34148634909 0.33095097421 0.32864557555 0.33452360984 
0.33371917331 0.33379010856 0.59023332875 0.61570740762 0.33344925982 0.33343308582 0.33595724677 0.33407520896 0.33425749485 
0.33608585782 0.33407650329 0.33386986158 0.33667229153 0.3347155251 0.63078249566 0.56612390055 0.3352439328 0.3357288713 
0.33698753641 0.33630975482 0.33700133226 0.33781546164 0.33764288504 0.33851667118 0.33882065498 0.33923487746 0.34271879041 
0.3455883162 0.3214823115 0.32095004405 0.32285136467 0.33195648717 0.33366835013 0.32904782006 0.33067302138 0.33194050736 
0.33143044542 0.33126498862 0.3315846221 0.33201198081 0.33205401314 0.33103683754 0.33712977609 0.33970800674 0.66281462973 
0.58909467439 0.31789377812 0.3261429067 0.3276933222 0.32933317931 0.339208422 0.32381098549 0.32276349662 0.33109124656 
0.33099387557 0.33079521351 0.33972632536 0.34363936815 0.32221548192 0.32127052177 0.32478957597 0.34033947865 0.34164228571 
0.33883651158 0.33538934122 0.33728826682 0.33603075404 0.33170370134 0.33054685663 0.34158249119 0.34167101633 0.34071469361 
0.34018426031 0.32206688838 0.32251924232 0.32203030868 0.32396566444 0.34146548463 0.32829855311 0.32730989367 0.34491984795 
0.33884502404 0.33835822733 0.33995902057 0.32369234265 0.3249099392 0.32699184604 0.33050233148 0.34119110286 0.32249398723 
0.32506094088 0.32173399445 0.34055898691 0.33890349878 0.33965757014 0.3408950723 0.33388395936 0.33879345599 0.34129058116 
0.32727231323 0.33045174348 0.32429204282 0.32585237333 0.32630601804 0.32576521418 0.339810816 0.33924500041 0.32999991136 
0.33947637065 0.33888282508 0.33942597492 0.33895781463 0.33839703345 0.33934101694 0.33827513464 0.33782189609 0.33896477457 
0.33768604008 0.33724524436 0.33852308529 0.33699793464 0.33660030666 0.33791005508 0.3363093426 0.33597806559 0.33723334895 
0.33561764905 0.3352132395 0.33644663752 0.33466254996 0.3342181332 0.33536355422 0.3340953816 0.75618982676 0.60123154254 
0.33369042203 0.33348122325 0.33437725483 0.3330668312 0.33282769218 0.33346898702 0.33247173999 0.33230510474 0.3326457531 
0.33204068937 0.33191277706 0.33204102289 0.3317702219 0.33163309917 0.33162685099 0.33137579836 0.33122645147 0.33119790445 
0.33104269534 0.33095761199 0.33063479769 0.33092848932 0.33083119589 0.33043938422 0.33058117964 0.33044442485 0.33018709673 
0.33032277125 0.33012722387 0.32983576869 0.32962917318 0.3293127151 0.32924489322 0.32860325577 0.32842173085 0.32803902039 
0.32846307221 0.32838567377 0.32743429381 0.3281712057 0.32823364311 0.32733736707 0.32802541284 0.69706623495 0.70081107496 
0.3280559832 0.32819081717 0.32721484858 0.32625207383 0.32405390931 0.32738339581 0.32606450071 0.32981900239 0.3293217022 
0.32853085048 0.33001880129 0.33253116159 0.33890045309 0.33970505743 0.32275712446 0.32430638913 0.32981600026 0.33471610323 
0.33518338411 0.33676737176 0.33930235922 0.32109976395 0.3209328661 0.32362107899 0.68837680897 0.58939897638 0.33869934803 
0.3391223626 0.34091386534 0.3411931949 0.32487715048 0.34140044576 0.34072739264 0.34168373107 0.33931186777 0.34068016055 
0.65369003217 0.72990939406 0.32894175882 0.32809972366 0.32816918424 0.32947073152 0.327076438 0.3264998301 0.32356287219 
0.33991348819 0.33852094835 0.33961122739 0.33813395954 0.33741663029 0.33773154664 0.33831620631 0.33818914215 0.33923532378 
0.33760957402 0.33805297058 0.33940781041 0.34124346987 0.32553706748 0.32592076419 0.32848008822 0.32935970223 0.33326569542 
0.33423716432 0.33839607128 0.3429390183 0.32703247867 0.32781395565 0.32953849788 0.33068403084 0.3317424543 0.33381074491 
0.33992462828 0.34036301132 0.33975279644 0.33136428615 0.34025798771 0.33989537953 0.32598859654 0.33933012216 0.33640987832 
0.33575008937 0.33499426669 0.33452150626 0.33567949019 0.33388529911 0.33337807173 0.33415057507 0.33123555492 0.33103612869 
0.32851008196 0.32906716246 0.32695268903 0.32833891842 0.32563110651 0.32519377329 0.32776294808 0.3380915702 0.33816426899 
0.33719761703 0.33709222778 0.33957065021 0.34084115986 0.34070086078 0.33868205791 0.3397852503 0.32576643831 0.32611348171 
0.32822501399 0.3271383493 0.3395528875 0.33990808701 0.33955173597 0.3394956573 0.33741372992 0.34033349169 0.34062937064 
0.34085622555 0.33964587207 0.33934146295 0.33984169353 0.33947643665 0.33906247716 0.33979525126 0.3389698575 0.33854999656 
0.33956105852 0.33812073402 0.33769734225 0.33889634043 0.33745494856 0.33697812538 0.33718177836 0.33814700803 0.33295202516 
0.33289696911 0.33248462518 0.33196726319 0.33166593788 0.33194463034 0.32684801926 0.32755262124 0.33018162044 0.32996874916 
0.32957617855 0.32956804165 0.32928110696 0.32913430671 0.33084757686 0.32725706466 0.33566342905 0.33987798232 0.34008027442 
0.3355592055 0.33710897221 0.33740739579 0.33205069509 0.33309298039 0.33430016317 0.33356801519 0.32885406977 0.33067376854 
0.32983451136 0.33107700203 0.33254678889 0.33281564813 0.33055210536 0.33545266108 0.33458619832 0.32605711834 0.32589003166 
0.33443074904 0.3362927233 0.34064024798 0.34011817181 0.34004592946 0.34025065544 0.3399050367 0.33959567657 0.33905976157 
0.3387376805 0.34004815345 0.33219627759 0.33157991092 0.3282290219 0.34029737247 0.33837598728 0.33764711771 0.32862142496 
0.32915910152 0.32981399318 0.33925506122 0.33037003454 0.3400674939 0.33333900128 0.33329500279 0.33330400025 0.33330202841 
0.33330202212 0.33327504356 0.33329709735 0.33330508068 0.33328821034 0.33328227716 0.33329624478 0.33327562573 0.33327359977 
0.33328952303 0.33326052825 0.3332750427 0.33328296863 0.33325691926 0.33328148853 0.3332914168 0.33325662735 0.33330292678 
0.33330283098 0.33327626531 0.33333597723 0.33332499192 0.33331229983 0.33337971719 0.33337680078 0.33337207196 0.33342106628 
0.33341220087 0.33344134445 0.33347428834 0.33346143115 0.33348559772 0.3334940151 0.33348200229 0.33353930914 0.33348750612 
0.33348738291 0.33355242665 0.33345559301 0.33345536905 0.33354631144 0.3334060183 0.333428698 0.33349479884 0.3333434241 
0.33337038319 0.33341657082 0.33328214645 0.33328628084 0.33331430122 0.3332203217 0.33323655565 0.33321443989 0.33317291805 
0.33318427186 0.33312851114 0.33320107708 0.33318712944 0.33309592973 0.33330500745 0.4148297755 0.386023112 0.4226522953 
0.34080159194 0.35907143027 0.37901129555 0.32095306385 0.32791340017 0.34531018464 0.31181775299 0.31471129382 0.32691560011 
0.30815744107 0.30879757249 0.31770229247 0.30758211327 0.30712902822 0.31417177185 0.30862960356 0.30757432244 0.31304451682 
0.31089359372 0.30928630669 0.31360222623 0.31333716147 0.31178695767 0.31514190822 0.31582360419 0.31419860043 0.31680129761 
0.31862547678 0.31692655513 0.31873676029 0.32150330237 0.31985937471 0.32102630839 0.32431878579 0.32269695608 0.32340733466 
0.32683693702 0.3254020628 0.3256318359 0.32924323614 0.3279634034 0.32781803736 0.33138649554 0.33018167264 0.32983627249 
0.33315961808 0.33219773913 0.33158212761 0.33452689011 0.33382500085 0.33302701932 0.33547439833 0.33500847196 0.33414462022 
0.33604010011 0.33578813256 0.33492699292 0.33618300007 0.33614400434 0.33534514675 0.33597808316 0.33614405744 0.33539204065 
0.33542727308 0.33577923456 0.3351465327 0.33468641297 0.33514239786 0.33466218306 0.33388645023 0.33435945047 0.33405258789 
0.33313937403 0.3335463958 0.33338652667 0.33252821491 0.33286424428 0.3327781065 0.33211906618 0.33233309587 0.33231152547 
0.33196700484 0.33203401008 0.3320331193 0.33205401149 0.33198200491 0.33196900033 0.33231404442 0.33215703902 0.3320910901 
0.33265206801 0.3324660664 0.33234621308 0.33297605795 0.33281606349 0.33266825809 0.33320602278 0.33310303058 0.33296017279 
0.39461489569 0.33286922313 0.3330731084 0.33164171926 0.33239659419 0.3323025951 0.32956400064 0.33087265681 0.33109889776 
0.32680949534 0.32838149702 0.32926899045 0.32412567595 0.3254201631 0.32676945611 0.3233644273 0.32191457111 0.32387644156 
0.32308309884 0.31999181527 0.32017709259 0.32221824338 0.31809548812 0.31267816238 0.31714070202 0.31295682126 0.30276491524 
0.30879490282 0.30594198473 0.29346244166 0.29834342316 0.29758494803 0.29299558318 0.28958286029 0.30644094655 0.29963943645 
0.3076595973 0.3125980751 0.30903257379 0.31535925016 0.31320818654 0.31303304707 0.31764315152 0.31144641292 0.31293973497 
0.31763636852 0.30977284 0.31091759304 0.31699451683 0.3107943179 0.31024307479 0.31713422174 0.31522983722 0.31309656775 
0.31994105752 0.33105826024 0.32188278122 0.327704541 0.36030930874 0.34092775093 0.34438890869 0.41241591043 0.37361564702 
0.37229866463 0.46027905405 0.39532217588 0.41871793273 0.32591494518 0.33811422148 0.39763638263 0.31948179991 0.33905318611 
0.3626749161 0.30608244805 0.31570380764 0.35207154962 0.30101471531 0.30482011762 0.34289805123 0.30711943951 0.29991519171 
0.33372318384 0.28747850954 0.28985529249 0.31719915539 0.28795539666 0.30139450282 0.31307117286 0.28683205445 0.28745491951 
0.32383320638 0.28592508174 0.28515121611 0.32096020196 0.29198833866 0.28364785309 0.32130070754 0.28607332442 0.28968023712 
0.31991147159 0.28762156759 0.28363170122 0.32479130531 0.29149578412 0.28657602441 0.32487043756 0.30467902234 0.28856986915 
0.32680748112 0.29281829435 0.28757338774 0.31497441969 0.30679272498 0.31078154388 0.32051747324 0.31551029576 0.30313947063 
0.34100465752 0.33889140265 0.31502105677 0.34896201414 0.3571594766 0.33689468428 0.35525477544 0.44536593161 0.54368583706 
0.34234215344 0.34146416191 0.28613822605 0.28669455366 0.30390290095 0.26470582432 0.26595523954 0.28616267099 0.26154986618 
0.26449517118 0.27832307645 0.25858052085 0.26317437748 0.27429841192 0.26129324961 0.2661746681 0.27482278957 0.26405572765 
0.27083598569 0.27647097985 0.2696189911 0.27476818987 0.27819566134 0.27466873915 0.278330183 0.27785055593 0.27395483769 
0.27636024477 0.27997570785 0.28408140915 0.27290121069 0.27567312172 0.25881577576 0.3240138617 0.45424044653 0.22155180849 
0.25087016332 0.21569227874 0.19230802845 0.24953459346 0.24391585544 0.22228705651 0.27012162397 0.25678452067 0.2541164539 
0.29521618292 0.28339644959 0.27765721858 0.31778951422 0.30598960224 0.29801654719 0.32949558567 0.31955441486 0.33305155685 
0.33501527563 0.32528366389 0.35901594462 0.35364586315 0.36467491843 0.35934534184 0.35561166489 0.37907423158 0.36862353745 
0.36576294793 0.37678189689 0.37466173267 0.33331300029 0.33324706299 0.33328800239 0.32174200442 0.32316942436 0.32330018255 
0.29761826481 0.2873068459 0.29103030195 0.29458310219 0.47048625353 0.3999750377 0.40328669193 0.42782035236 0.40248280487 
0.44087105776 0.35808068792 0.3826063084 0.39161197337 0.36757284444 0.28397330942 0.27983937844 0.23572112084 0.26750428227 
0.36837420395 0.29266473438 0.30372608957 0.30916093378 0.31436936768 0.34276615077 0.36360931792 0.28683422758 0.33227713989 
0.33318404554 0.37731098328 0.3331925353 0.33319933777 0.33318022499 0.33316911403 0.33308222071 0.33311753389 0.33308335137 
0.33311045214 0.33304812918 0.33307486342 0.33294644122 0.3330746101 0.3330671983 0.33293436794 0.33316271803 0.33312544974 
0.33299594757 0.33330912245 0.33324173871 0.33315124243 0.33351818815 0.33341501649 0.33339472336 0.33374022797 0.33362118954 
0.33369863826 0.33397279356 0.33387312133 0.33402628246 0.33414617518 0.33406429881 0.3343318499 0.33417651995 0.33415627877 
0.33451800086 0.33405780606 0.3341285581 0.33451545042 0.33383472741 0.33394977657 0.33431619601 0.33353138719 0.33369340966 
0.33395226705 0.33321531164 0.33336488564 0.33349982166 0.33290233214 0.33305276186 0.33304432307 0.3326056635 0.33271545316 
0.33257766129 0.33257348664 0.33253682214 0.33220903999 0.30592119297 0.30885427502 0.33109013363 0.33860524915 0.34453814669 
0.35875264131 0.34517099511 0.36407458869 0.38393732823 0.36721727065 0.36169394071 0.32333891129 0.32716007503 0.33423668067 
0.31935896068 0.3208614756 0.32696964975 0.31817075935 0.31841017185 0.32341922292 0.31848795436 0.31792651725 0.32225626494 
0.31915906181 0.31834605268 0.32194796036 0.32025217905 0.31944899276 0.32219853547 0.32173682605 0.32073812047 0.32301202914 
0.32346288855 0.32230668542 0.32411406121 0.3252353294 0.32408634222 0.32529063025 0.32702805746 0.32597260538 0.32665587932 
0.32881081789 0.32774192066 0.32812026318 0.33042244822 0.32951060802 0.32955768564 0.33180558542 0.33100326715 0.33082294398 
0.33295627133 0.33230648306 0.33192520306 0.33381827553 0.33334888834 0.33283537013 0.33438946585 0.33408550635 0.333506482 
0.33465912752 0.3345434967 0.33393952808 0.33464317342 0.33466500655 0.33409803191 0.33437218117 0.33453866134 0.33401657508 
0.33396233014 0.33420585206 0.33375429766 0.33341589896 0.33370277431 0.33333892322 0.33285466688 0.33315590709 0.33284151792 
0.33241471247 0.33266214536 0.33240672637 0.33207471387 0.3322611165 0.3320561472 0.33191009928 0.33200229957 0.33183171331 
0.33193502265 0.33193600182 0.33177803941 0.33210524156 0.33202113114 0.33187811845 0.33236447757 0.33224139369 0.332088531 
0.33267651866 0.33253453853 0.33238286625 0.33294334638 0.3328294574 0.33269185476 0.33296355076 0.3293636569 0.33036784822 
0.31971483369 0.3216307125 0.32670380295 0.32780079242 0.32916985952 0.31249444102 0.31469053412 0.30695702732 0.31620536621 
0.3175530009 0.31706754025 0.29954580215 0.30294688784 0.29978973109 0.32330309554 0.3210431952 0.32063288861 0.31528738166 
0.33037279978 0.322643567 0.32223152499 0.32318265428 0.32263651308 0.32710808062 0.32539134355 0.32385720213 0.32834024811 
0.3297512963 0.32660910273 0.33079730203 0.34075114384 0.33275282003 0.33573842269 0.35802296859 0.34516577254 0.34513987055 
0.37995699245 0.36154695299 0.35744724605 0.3209814682 0.3089478227 0.40017336108 0.39548749096 0.34009476329 0.34749705005 
0.38420591646 0.33258321064 0.33357717102 0.34296539414 0.32526493521 0.3259709527 0.33465661863 0.31716475335 0.31646356896 
0.32776441725 0.31158359123 0.31376007581 0.3245473415 0.31442687743 0.31482365455 0.320706564 0.31318532931 0.31389297962 
0.31930495325 0.31340823117 0.31274275414 0.31828004704 0.30877736054 0.31013193652 0.31822463244 0.31201119634 0.31269476204 
0.32011855386 0.31548579899 0.3166828511 0.32006744021 0.31769727964 0.31709368595 0.32097135479 0.3183983943 0.31588893712 
0.32369009032 0.32102635659 0.31946029374 0.32833936635 0.32874538115 0.32503201609 0.33336781223 0.34044974356 0.33878194782 
0.34040105157 0.35739043065 0.34581777515 0.35143151762 0.36608574681 0.39736339058 0.41326575161 0.37927218365 0.26278990559 
0.26176591039 0.30500975274 0.29767609164 0.29235793986 0.28799616092 0.30024251059 0.28321514162 0.2813395138 0.29249288109 
0.28260529186 0.28300501187 0.28996180037 0.28299390494 0.28311586473 0.29036198155 0.28653388903 0.28631429056 0.33233205867 
0.33436685239 0.2677150848 0.29457627837 0.28301983875 0.28954440298 0.27749169238 0.27371774355 0.26254475269 0.2816868154 
0.3421392899 0.33847083267 0.33195960775 0.32409881216 0.33149521995 0.35621352584 0.35118328122 0.35049475857 0.34585118945 
0.34099524652 0.34798455836 0.33313350433 0.33316899083 0.33309128089 0.33300613968 0.32296077404 0.32208767257 0.32717640827 
0.32115094207 0.30952047567 0.30887750185 0.32180651364 0.32872576505 0.35118427979 0.30566752295 0.29372481093 0.29373286004 
0.3564503966 0.35428822803 0.35195939393 0.36691861451 0.33122524739 0.33123718696 0.34748702085 0.33621280568 0.31285897468 
0.36592792062 0.3588935145 0.3555164768 0.324367786 0.32534324602 0.33281261544 0.33194582782 0.33236174206 0.30347799331 
0.29972659294 0.32457874723 0.29649456171 0.29444744951 0.32859131166 0.29216436787 0.29440668932 0.29981020829 0.30081462906 
0.32219032759 0.30649964439 0.31977583377 0.36201974333 0.35255270635 0.35836127764 0.38205732096 0.27562662975 0.28824208376 
0.36256537562 0.37349328635 0.34695748323 0.28210373106 0.29014793117 0.28484662172 0.29056649796 0.29239583082 0.28379610707 
0.28217073737 0.28156384683 0.28758701488 0.325684887 0.33969618758 0.34002436269 0.32173109178 0.32734478382 0.28849067833 
0.29352607389 0.2954430367 0.32412876754 0.31668750155 0.33278353216 0.33270517692 0.33266272131 0.33271821196 0.33307111953 
0.33291702129 0.33269572814 0.33351342941 0.33328865373 0.33314053008 0.33405615297 0.33378071455 0.33375574786 0.33468707201 
0.33436581284 0.33451391447 0.3351806896 0.33495743453 0.33529206656 0.33543931931 0.33533435394 0.33586434392 0.33533693276 
0.3354046566 0.33606786986 0.33488206185 0.33517073922 0.33584805783 0.33420026835 0.33457029799 0.33518927919 0.33339044149 
0.33378437862 0.33420702593 0.33273942816 0.33307433218 0.33323689264 0.33194717293 0.33230686782 0.33229400008 0.3139874429 
0.31692215855 0.30921902077 0.3115402388 0.33301411882 0.33297984996 0.33286311759 0.38015283912 0.38079998233 0.33536387746 
0.34049240983 0.35372656431 0.36102829417 0.35708616048 0.32599835581 0.32631660505 0.32528094354 0.32547912257 0.32859328771 
0.32526339685 0.32509392506 0.32786691708 0.32568661216 0.32527830179 0.32758977747 0.32635073474 0.32583142521 0.32770156157 
0.32718280512 0.32661329564 0.32810152698 0.32819520118 0.32749073279 0.32864688953 0.32926712633 0.32857306699 0.32933776655 
0.33032418171 0.32965922649 0.33009930954 0.33123436403 0.33067653804 0.33083804186 0.33206508657 0.33156344033 0.33150664553 
0.33272731492 0.33234368466 0.33210607597 0.33321581508 0.33294992444 0.33259810534 0.33349620687 0.33334590383 0.3329423234 
0.33355800288 0.33352922041 0.33309878664 0.33343127334 0.33350043177 0.33308517615 0.3331617284 0.33328553526 0.33290341831 
0.33274269581 0.33293892546 0.33257358867 0.33231194165 0.33251803051 0.33216951826 0.3319534685 0.33211635057 0.33178910951 
0.33168626636 0.33182025378 0.33148482585 0.33157253185 0.33164019579 0.33132201318 0.33161600038 0.33161709498 0.33133127275 
0.3317973639 0.33173612304 0.33147808113 0.33205302177 0.33195071743 0.33172881717 0.33237841876 0.33224629993 0.33204667985 
0.32486032264 0.32854915027 0.32700725618 0.32821444095 0.32983070506 0.32911462249 0.33029326022 0.33264184692 0.33265844255 
0.33243643588 0.33246901196 0.33326327624 0.33356917432 0.30774926738 0.30350774886 0.33378944895 0.33214920642 0.33218800164 
0.33127188079 0.33537701085 0.34099459542 0.33679133704 0.34801348898 0.34220711148 0.34186535711 0.35305447729 0.34871271743 
0.34566901682 0.35537040243 0.32793180801 0.33048932695 0.3416103036 0.34646685994 0.3246964105 0.32645306923 0.32980528049 
0.3221308213 0.32324041713 0.32680493246 0.32064172229 0.32132521119 0.32446585257 0.31991652313 0.32040115213 0.32312339635 
0.32012193463 0.32004612524 0.32276790397 0.32071125156 0.32056246376 0.32306396308 0.32206148599 0.3214110327 0.32393311459 
0.32380406123 0.32280021828 0.32535447409 0.32658001689 0.32480616083 0.32745865915 0.3305703713 0.32831541627 0.33047016516 
0.33581833611 0.33253147989 0.33467085873 0.34267411407 0.33831038568 0.33967992523 0.28890534889 0.29055224219 0.30459696177 
0.32986443328 0.33181123589 0.33165171764 0.33595614986 0.33495674409 0.29520657947 0.29614057832 0.32922919813 0.3333480759 
0.33688335756 0.34144083335 0.33418870746 0.34706331941 0.34537360976 0.36176240377 0.34809839729 0.33621289777 0.33407953958 
0.336586389 0.33847643233 0.36240611801 0.37277381611 0.36305092852 0.33751079877 0.33796984355 0.34005534772 0.34311572117 
0.35021330528 0.35104369114 0.34349517813 0.2922280433 0.30179459542 0.30071769254 0.31192025935 0.30536641021 0.32978580738 
0.33303223498 0.33692228823 0.33226986362 0.3225422953 0.31584524707 0.31347353694 0.30151396149 0.29587980416 0.30510779762 
0.29332690447 0.28960470456 0.29679586814 0.29893417229 0.33208452806 0.32621770831 0.32255118961 0.33254921522 0.33278168673 
0.33285122314 0.32368053895 0.31078323056 0.33624601533 0.34605377335 0.30855852876 0.30243392031 0.30838204482 0.33284124533 
0.33030347534 0.33269832921 0.33257345764 0.33239910624 0.33273487212 0.36345241892 0.35725134682 0.35610524284 0.35871653526 
0.29385196689 0.296681764 0.3329657941 0.30183375603 0.30575269916 0.31064053704 0.3069077995 0.31827628286 0.3512984816 
0.34872533095 0.34488684752 0.31143140039 0.33173141615 0.34902714211 0.29696162721 0.3314463815 0.33108667381 0.30472775457 
0.33493405725 0.33053541029 0.33977061267 0.35174968454 0.34614698222 0.34579314658 0.35173709238 0.33304747224 0.33115792749 
0.34460006775 0.29197627826 0.34142025429 0.34436660296 0.34155939647 0.33246649985 0.33226129655 0.33528712932 0.33464721952 
0.33635564695 0.33579796624 0.33607138688 0.3371703416 0.33682109605 0.33739148777 0.33731597024 0.33732548124 0.33819118039 
0.33668617474 0.33700775646 0.3381097621 0.33579243 0.3364634695 0.33744602984 0.33397226029 0.33470768108 0.33580349737 
0.33267162938 0.33318876541 0.33355090671 0.32288458591 0.32941446274 0.31996232188 0.34868587822 0.3374845998 0.33776762101 
0.33044235386 0.33083792812 0.33127701003 0.33190573575 0.33320107084 0.32981163528 0.32977571806 0.32998579096 0.32978657476 
0.33145890902 0.33017889646 0.32993838817 0.3313458155 0.33052164741 0.33020109486 0.33126151521 0.3309275917 0.33058655694 
0.33131180516 0.33135908502 0.33102877364 0.33146067421 0.33178716101 0.33148258598 0.33168380625 0.3321523941 0.33189762964 
0.33190561598 0.33245854351 0.33225139161 0.33209868532 0.33264022409 0.33251801606 0.33225687825 0.33269028657 0.33263749093 
0.33232092467 0.33258474379 0.33261104029 0.33226200738 0.33234217112 0.33244036469 0.33207290685 0.3320000014 0.33214326054 
0.33177054241 0.33160354837 0.33174919749 0.33138453043 0.33127013495 0.33140505399 0.33099319983 0.33101779995 0.33111745421 
0.33069345176 0.33093847414 0.33097380674 0.3305350993 0.33105102735 0.33102740675 0.33059374709 0.33130745398 0.33122409475 
0.33084105746 0.3316436595 0.33152304819 0.33120420412 0.33201276495 0.33187131346 0.33161187489 0.33291888591 0.33146803833 
0.3327508512 0.31789966766 0.31363985995 0.33855671714 0.33765538961 0.30612323687 0.31021383393 0.29988323112 0.28068704052 
0.342657484 0.34242509333 0.33901174713 0.34284867965 0.34045266597 0.34097875543 0.32635337899 0.32719644952 0.32836327903 
0.32973196651 0.33052395389 0.33093380297 0.33254460617 0.33291702176 0.32539508991 0.32587609985 0.32871654742 0.32537362744 
0.32548608123 0.32827714315 0.32574100519 0.32546915038 0.32839114193 0.32670871996 0.3262013371 0.32891740542 0.32829767903 
0.32747291861 0.3300391098 0.33031190071 0.32921848862 0.33168436046 0.33328452786 0.33149427134 0.33374992876 0.33709964497 
0.33483633242 0.3365564391 0.34176881037 0.33906222473 0.3401995447 0.3340644523 0.33358628247 0.33464651666 0.33312045666 
0.33275562878 0.33242671848 0.33336508059 0.36033250611 0.35434111477 0.34234049528 0.3497515399 0.33257811483 0.33348777282 
0.33438743373 0.32991172178 0.33008311776 0.33227034378 0.33169046468 0.35824595632 0.36233159385 0.35347081976 0.33311213925 
0.34188183051 0.34615505705 0.34183702655 0.34457109544 0.32501038456 0.32052894567 0.31924919405 0.31511031949 0.31124154952 
0.30785056105 0.31385516064 0.35109588344 0.34670176339 0.35059736697 0.34765540748 0.32733277244 0.33348871462 0.33560214733 
0.31132388664 0.31446458731 0.31535259589 0.33821518863 0.33977474035 0.33956204559 0.33950647425 0.33751944737 0.31391032135 
0.31059849346 0.31376710144 0.35209958439 0.35297931325 0.34821239569 0.34778638188 0.33224998084 0.33203895929 0.33240902598 
0.33951287723 0.33805930393 0.33204759301 0.33211489882 0.30533530398 0.31118996805 0.3040983281 0.33771862724 0.33211816026 
0.33207656815 0.3317456205 0.3319130601 0.33935114127 0.33527868329 0.33694949413 0.33215973985 0.33228766627 0.33182276365 
0.33880469483 0.33935646875 0.33985026867 0.34051888376 0.33908636732 0.33992529711 0.3430182078 0.34102981469 0.3384978978 
0.34808055761 0.33573833901 0.33388119055 0.33581162925 0.33208810884 0.33379876781 0.33626208831 0.33867136366 0.33521339959 
0.32744110195 0.32516885325 0.33153429146 0.34185200546 0.34413102578 0.34164299435 0.34515441286 0.34458711517 0.33702959865 
0.34013792551 0.34135502341 0.3379292936 0.30577409537 0.30459021547 0.30881606682 0.30998240276 0.34461629245 0.3326062385 
0.33751640973 0.3364336623 0.33934244383 0.3400218262 0.31553324417 0.32060278204 0.31745225652 0.34459552794 0.348554447 
0.33496737945 0.33569087945 0.35148516653 0.35131748341 0.3327825 0.3329042239 0.33311924815 0.33325746364 0.33431238564 
0.33210233389 0.33209804411 0.33199559739 0.33192799172 0.33252974123 0.33200466098 0.33190940029 0.33228068021 0.33200843769 
0.33192664129 0.33209081514 0.33202962638 0.33195533316 0.33193464315 0.33202407946 0.33198211894 0.33181066304 0.33198846942 
0.33198231244 0.33170828853 0.33183919787 0.33188710461 0.33158144513 0.33157099021 0.33166268053 0.33133821166 0.3312008512 
0.33132708097 0.33096898347 0.33077989381 0.33092039098 0.33052483784 0.33040503821 0.33051390847 0.33006971694 0.33011142076 
0.33020072194 0.32967175464 0.33003701651 0.33006628306 0.32947916302 0.33021910889 0.33014991717 0.32959544765 0.33061371359 
0.33049012185 0.32999010035 0.33109783929 0.33092776222 0.33054825096 0.33158766654 0.33140469586 0.3311308272 0.34102367115 
0.34082249298 0.33418792786 0.34229351322 0.33238513803 0.33244965344 0.33368371919 0.33300335174 0.33158233765 0.33258977244 
0.33938568013 0.33967312426 0.3375564725 0.33067261878 0.33078427596 0.33620605094 0.33324584065 0.33071769956 0.33506716594 
0.33030295682 0.33087625914 0.33353235842 0.33442885797 0.33551181265 0.33558827345 0.34100219426 0.34133581219 0.34133489412 
0.33069798682 0.33069932335 0.33341729972 0.33130636309 0.33095353512 0.33360861531 0.33240892292 0.33181079693 0.3342896416 
0.33379368424 0.33306578372 0.33530762159 0.33565404125 0.33465887675 0.33659300276 0.33813475875 0.33665006853 0.33823163954 
0.34098086899 0.33920480165 0.34016210061 0.34867136415 0.33536735593 0.33430986549 0.33641520679 0.33607259628 0.33708880383 
0.33722533593 0.33899938247 0.33815031821 0.33857353974 0.34015808331 0.33975806329 0.34096556391 0.34132831496 0.34231975222 
0.34360225267 0.32250049676 0.31974811237 0.31818285631 0.31619031128 0.32025890406 0.34215831343 0.34504915006 0.32237143813 
0.32605157635 0.33212382257 0.33171855452 0.32169637865 0.31769426509 0.31954893738 0.34555043285 0.33454357821 0.33617346986 
0.3339829124 0.33795260251 0.33609853376 0.34149933444 0.34231233305 0.34424793216 0.33453707169 0.33440576317 0.3325555608 
0.3347896123 0.33340567381 0.33369631158 0.33187088688 0.33163928384 0.34058373113 0.34132408684 0.34092923206 0.33297630218 
0.3312550958 0.33131880153 0.33854674782 0.33755890931 0.33829532793 0.34627706387 0.34466948835 0.3418056414 0.33207817462 
0.34009342375 0.31476640609 0.31683694479 0.3204619659 0.31856717839 0.31584548076 0.31742352272 0.34578461393 0.35026751636 
0.33143934191 0.3313160624 0.33082871829 0.33114792641 0.33138541732 0.33151209217 0.3312272602 0.33093787732 0.33243545708 
0.34009344901 0.33991960864 0.34048838191 0.33176103824 0.33725060542 0.33340006024 0.33265561343 0.33218276513 0.33397702902 
0.32433163967 0.32374168435 0.32731357558 0.3178248468 0.31493020674 0.31395848983 0.33967494328 0.33529852564 0.33953043597 
0.34385667562 0.33779346922 0.33864227298 0.33857085552 0.32058598795 0.32296269771 0.33933000298 0.33434853141 0.33279630164 
0.34334337776 0.34454001866 0.33612750925 0.33953598626 0.33793999574 0.34140385529 0.32586751704 0.32810465597 0.3294177596 
0.33254768273 0.33266875458 0.33290715254 0.33314064421 0.33310988816 0.3318095797 0.33189616082 0.33154844185 0.33162843036 
0.33144612483 0.33135440421 0.33140260987 0.33111100219 0.33111400378 0.3311926916 0.33080818847 0.33076255737 0.33090805127 
0.33048478069 0.33034571372 0.33050066799 0.33003159134 0.32979574534 0.32996252278 0.32948635895 0.32935960226 0.32951360426 
0.32892425059 0.32899806836 0.32909932376 0.32844550233 0.32883536071 0.32884100701 0.32815432146 0.3290951374 0.32899948091 
0.32821729536 0.32973661086 0.32953332427 0.32892345571 0.33048981509 0.33023380174 0.32981120462 0.33093507671 0.33511762032 
0.3352604298 0.33514545256 0.33489797063 0.33716900199 0.33499315564 0.33498700554 0.33719181673 0.33128012487 0.32870518507 
0.32764334815 0.33125565748 0.31841570917 0.31990394854 0.320426834 0.34092801928 0.34126912037 0.34151850586 0.341462616 
0.33608207118 0.33583997196 0.33729021536 0.3368074765 0.336408192 0.33838633038 0.33769393271 0.33723602507 0.33899881419 
0.33889010828 0.33819282489 0.33949859954 0.33997497555 0.33929774921 0.33998903726 0.32268635705 0.32053379474 0.32154007419 
0.32327834211 0.32204684826 0.33808303988 0.33898683507 0.33166735731 0.33085101468 0.3315100804 0.3408500243 0.34015206685 
0.33215083844 0.3322529068 0.33192279306 0.33548516763 0.33583271616 0.31332369644 0.31431067139 0.31803499645 0.31689547723 
0.34015917723 0.34167679446 0.32210876473 0.33963316761 0.34115807015 0.3389497071 0.33530592851 0.32384387016 0.3259562536 
0.32409649041 0.34051470662 0.33251182639 0.33728130929 0.33797185654 0.33881564808 0.34794359947 0.33706956177 0.33830157605 
0.33467963666 0.33281420563 0.33612450977 0.33643701109 0.33706284894 0.33375838939 0.33358289509 0.3339483506 0.3306959939 
0.34150310762 0.34158123954 0.34149360588 0.34484645658 0.33038893599 0.33023523792 0.32972991979 0.32335469626 0.32128478622 
0.32063157815 0.34291076785 0.34065300668 0.3241074765 0.32490493265 0.32437356834 0.32496778413 0.32613697582 0.33926658482 
0.33806095835 0.3360948213 0.33570081426 0.32350454362 0.32573958007 0.32234552733 0.34010583898 0.34050204711 0.33856303771 
0.33494969643 0.33608564496 0.33453367552 0.33048621683 0.33641650947 0.33543149975 0.3383049446 0.32297978132 0.32379540634 
0.33046480048 0.33066772957 0.33098277328 0.33118398105 0.33011918592 0.32957574095 0.32977199077 0.32837215993 0.32864217141 
0.32779468169 0.32790573006 0.32707066713 0.32714010818 0.32638442682 0.32761804105 0.32755286291 0.32640029029 0.32870467271 
0.32834241698 0.32767330126 0.32992386255 0.32946479071 0.32907225905 0.33031753259 0.33847858875 0.33641700733 0.33687697441 
0.33807928605 0.33752414227 0.33921842105 0.33921332104 0.330236373 0.32693913027 0.32557906717 0.3393046549 0.34097199635 
0.32952747233 0.33978969635 0.3394830766 0.33932826988 0.32912282148 0.33088372301 0.32221517212 0.32279633757 0.32460145012 
0.32401523027 0.33161964389 0.33191108445 0.33088634712 0.33933420267 0.33920288443 0.34048055484 0.33545207146 0.33025904033 
0.33042339567 0.32968805046 0.32920572807 0.33343577514 0.3337475574 0.32716157523 0.32861541144 0.32866812613 0.32653030808 
0.33842933157 0.33869493943 0.33867549611 0.32174272916 0.324366819 0.32056914476 0.32704564562 0.32754962123 0.33782797965 
0.33832795196 0.33174722999 0.3308774277 0.3342915747 0.33294050791 0.32934354333 0.32954590922 0.32800063014 0.32816695235 
0.32880952153 0.34089292477 0.34140002959 0.34119647268 0.34015645868 0.33996147121 0.32579392199 0.32552953936 0.31969101884 
0.32001825727 0.32276544432 0.32229977092 0.33922371899 0.34010976627 0.33964584578 0.33730099003 0.33826441415 0.33660268878 
0.33872460839 0.34037633045 0.33201294916 0.33247723692 0.3328001774 0.32729743598 0.32676749072 0.32779621769 0.32867694523 
0.33486375016 0.34027301755 0.33807935013 0.33330288969 0.32703110054 0.32720687422 0.34023409039 0.33961729642 0.33983959395 
0.33922261407 0.32641569784 0.32815744767 0.32873510334 0.32566013368 0.33916265828 0.33853229023 0.32425119274 0.32539933142 
0.32538759653 0.3301694007 0.33058215956 0.32802011336 0.33507838899 0.33575967556 0.33661691508 0.33478402926 0.32772331446 
0.34057101081 0.34082068634 0.32951707969 0.32790054796 0.33658686398 0.33454983013 0.33117433478 0.33183552387 0.33003227224 
0.3374946064 0.33823325432 0.33659922313 0.32757482913 0.33402532311 0.3328174382 0.33086757761 0.32596351341 0.33288379955 
0.3336575696 0.33199798412 0.32584770075 0.32701346459 0.34019592369 0.34025190944 0.3258925059 0.34011218554 0.33393913955 
0.33452528606 0.40663628814 0.3361009428 0.33538860041 0.33058295421 0.32895801561 0.32886615701 0.32790291934 0.34088177906 
0.34052964272 0.33853426851 0.33936218309 0.32594937263 0.33137960694 0.32966655968 0.34000615085 0.34030648499 0.33955213232 
0.33271006918 0.32589910169 0.32860741587 0.32904360945 0.32841515508 0.3272367504 0.33940044178 0.33850008126 0.32699860768 
0.32521467951 0.33371078889 0.32841323653 0.32551043805 0.33754162232 0.33657935223 0.32479221923 0.33865918756 0.32925582694 
0.33543024861 0.33344300085 0.68022193055 0.44450557355 0.3334590146 0.33340901202 0.33299500034 0.33221300022 0.33107200717 
0.32965801388 0.32789602842 0.3261180277 0.32410302421 0.32265102879 0.32387023894 0.31793292171 0.29347974005 0.2866475621 
0.27967376234 0.27671231718 0.29999833387 0.29983213294 0.30020091391 0.30411115224 0.30691760077 0.31288481248 0.32260330608 
0.3403646454 0.3706364559 0.30270065782 0.29264066551 0.28519902729 0.30541954107 0.30040757309 0.30133261175 0.31043716812 
0.32181500014 0.32222421362 0.32921110195 0.33083386249 0.33074508799 0.3283491423 0.279160109 0.32658778795 0.3088140756 
0.30997502102 0.30944614839 0.30778022039 0.30553245832 0.3031923585 0.32380785966 0.67845758176 0.33336000023 0.33337700108 
0.43043166859 0.38196922229 0.34507148323 0.32677959277 0.31775631467 0.31178109189 0.30652801336 0.30351951665 0.30108836267 
0.29971022479 0.29977630624 0.30022310955 0.30098513749 0.30180107234 0.30300607767 0.30425006507 0.30594705575 0.30868401615 
0.31028102943 0.31167302792 0.31338602916 0.31478202147 0.31654001822 0.31790701844 0.31960501302 0.32232300538 0.32390100507 
0.32513100615 0.32657700657 0.32767100742 0.32899700514 0.33002800804 0.33128800447 0.33296500248 0.3339040022 0.33459900188 
0.33531300089 0.33579300136 0.33628500044 0.33660600107 0.33691900038 0.33717400048 0.33712200055 0.33705500069 0.33683800137 
0.33591000146 0.33543400156 0.33460000157 0.33410200165 0.33372700129 0.33330500101 0.3329810012 0.33261500065 0.33212200017 
0.33238900066 0.33189800002 0.33186100003 0.33205100021 0.33221800024 0.33251800021 0.33272700025 0.33289300021 0.33307400013 
0.33320400011 0.33332700001 0.33337500008 0.33340000036 0.33661900059 0.33625300121 0.33199100014 0.33186900005 0.33195300023 
0.30042421386 0.30735103652 0.32091401012 0.33214700254 0.33706000047 0.3350440021 0.33236600032 0.3333210002 0.3333130031 
0.33333300805 0.33332600054 0.33333900003 0.33335 0.33334700002 0.333347 0.33334700011 0.33335200003 0.33336000017 
0.33334700004 0.33333600077 0.33336500125 0.33335500249 0.33335900199 0.33336100218 0.33333900122 0.33334400142 0.333326002 
0.3333210031 0.33330200507 0.33329800545 0.33328800593 0.33326700387 0.33332200374 0.33328100041 0.33327200041 0.33331600263 
0.33321900163 0.33325100236 0.33325800196 0.33325400353 0.33331500255 0.33330100424 0.33332700387 0.33334000626 0.33335500895 
0.33336100852 0.33337500887 0.3333960053 0.33333900526 0.33337200009 0.33340600003 0.33338600085 0.33334000005 0.33334500011 
0.33333300258 0.33328300088 0.33331500616 0.8008865796 0.87273926908 1.0112300468 1.0559873437 1.0936828812 1.1032718938 
1.1203916694 1.0979763374 1.1051987066 1.0882210367 1.0700383919 1.0358304992 1.0149329778 0.97588799027 0.96184758395 
0.91591152761 0.87889499361 0.81795914787 0.77202148778 0.7238659819 0.7113676927 0.60398638317 0.61908289569 0.87881135479 
0.96235588489 1.0747412248 1.0292288109 1.1140271736 1.1033940402 1.1140755897 1.1185490105 1.0872689498 1.1096419523 
1.0454203002 1.0708953646 0.98616736444 1.0297521227 0.91101831469 0.95712271863 0.81670503789 0.88312126951 0.73768629557 
0.76632330891 0.59715330974 0.67823215304 0.58390380959 0.54123889132 0.46147149786 0.55168300266 0.51810184943 0.54616833662 
0.45059470847 0.59318018877 0.50250080187 0.67137221713 0.53634928347 0.62314349058 0.55078525262 0.62059553686 0.55702457063 
0.56495875762 0.61642947643 0.65475174911 0.58103189982 0.58781221796 0.51564986357 0.56605032351 0.49506547447 0.5635796798 
0.96267068076 0.99554690558 1.0206305639 1.0472463353 0.33201928766 0.33203812235 0.3319261007 0.33198102807 0.92424075111 
0.88055318294 1.0633556629 1.0903345301 1.0985944644 0.73616563543 1.0437692348 1.0794950861 1.0842525158 0.33507796225 
0.33266216492 0.33566206672 0.86110573259 1.0075272092 0.67431117303 0.74707805532 0.64279608286 0.84369017106 0.79278629964 
0.52566158017 0.47244791533 0.31447356807 0.3108474237 0.30952860076 0.30677974113 1.0912608061 1.0933344995 0.38207466799 
0.44319568673 0.47080166179 0.45615410611 0.4293380423 0.75113489049 0.26662842305 0.33050923671 0.33174932556 0.3298358109 
0.33122681504 0.3211559113 0.31894642331 0.31428303567 0.32636637372 0.31939535384 0.32216571405 0.31328572982 0.31557021026 
0.34896778758 0.35032778976 0.34736250446 0.3332958238 0.33327602818 0.33325850325 0.32946328983 0.32894836277 0.32980992864 
0.32929666938 0.32934085654 0.33224158974 0.33105159393 0.34150752034 0.34160389494 0.34166043102 0.33226112435 0.33247604844 
0.33304232929 0.33337219384 0.33682939798 0.33562768136 0.33684731885 0.33307419076 0.3329247686 0.33277554999 0.33266904198 
0.31272986044 0.31807976141 0.31778031563 0.32230817622 0.31048007747 0.33237327435 0.33231224941 0.33258977944 0.31277100661 
0.31723141121 0.31756653208 0.33349303283 0.33340756633 0.3334261278 0.33097592268 0.32376681156 0.32798329037 0.34751481592 
0.33070086575 0.32845218441 0.32948779906 0.33381771416 0.33354346346 0.33352084233 0.38611919145 0.38594064893 0.42279320122 
0.31015761125 0.29948112664 0.30511481669 0.29463180868 0.33342600666 0.33361500029 0.33352635463 0.32586782115 0.32580256385 
0.3271750567 0.33316425437 0.33319626021 0.33306226134 0.33309477396 0.3331091835 0.32960504009 0.3311553556 0.32838461085 
0.33321729777 0.33565806354 0.33566264899 0.33488212808 0.33492581992 0.33932293576 0.35224360074 0.34807431784 0.26306372251 
0.30711981155 0.30791161968 0.31268867346 0.31752808895 0.31584259177 0.31964609765 0.27696337956 0.33100640722 0.33158918967 
0.3314347369 0.3322586444 0.33227074921 0.3324307069 0.30481472045 0.33173488788 0.32902360513 0.33002435603 0.3331333772 
0.3331555351 0.33321921795 0.33350174921 0.33357398792 0.33381761122 0.33384707153 0.33434787555 0.33389212779 0.29629858347 
0.29287275453 0.29886271031 0.33097929947 0.33060944581 0.33078511668 0.33038746066 0.33326320065 0.33330254449 0.33317894697 
0.33316199721 0.33724446428 0.33784976083 0.33604290219 0.33671620945 0.33213849538 0.33418861282 0.33391130469 0.33388725055 
0.33250783519 0.33237629775 0.33253124916 0.31908614933 0.32841603415 0.32843715399 0.29494076554 0.29844548144 0.29085542055 
0.29423873734 0.33137238148 0.33023356578 0.32993361097 0.37499540562 0.34763223267 0.37648687196 0.36941121725 0.33227537283 
0.33209454791 0.33216323367 0.33384952974 0.33433499184 0.33341584212 0.33393596358 0.33959619894 0.33943423599 0.34259341086 
0.34245712852 0.32099041102 0.32276747809 0.31797114623 0.31986465008 0.29144889033 0.33413717656 0.33445525402 0.33472548682 
0.3358640811 0.33342118535 0.33386342165 0.33287125973 0.33342430729 0.30167948577 0.30841752454 0.3111527871 0.32073811122 
0.33563727436 0.33182890297 0.33232100113 0.33154010742 0.33205000821 0.3351934845 0.33472645316 0.28983749224 0.33177324776 
0.32708349426 0.3275660462 0.33397262579 0.33368405011 0.33370205638 0.28769225095 0.29408916593 0.29020859266 0.33293912781 
0.33242320411 0.3322462966 0.32284658649 0.34659897446 0.3399036416 0.33206101887 0.33198000889 0.33201604908 0.33282799031 
0.33295589125 0.33272397442 0.28332376812 0.29256011246 0.33027380277 0.32652473493 0.32054297732 0.33331301055 0.33328007622 
0.33330003049 0.33330510104 0.3332618043 0.33328244396 0.3333080014 0.33327907366 0.33481537844 0.33450783709 0.33508447773 
0.33291077015 0.3331642956 0.33288904469 0.31373728594 0.31710564347 0.33083528949 0.32951568306 0.33017770423 0.33005947338 
0.33303851292 0.33283165312 0.33265026867 0.33244456971 0.332171056 0.3321915924 0.33147075707 0.33911031268 0.33791755028 
0.33909552914 0.33968104803 0.34011396266 0.34096205976 0.31880848283 0.32016707662 0.3357717331 0.33370602152 0.3353285876 
0.32455702858 0.32481672926 0.32173302547 0.3220572078 0.33080721193 0.33248172906 0.32829207023 0.30968896034 0.28129162018 
0.3133730549 0.31772986201 0.29924605394 0.30309486697 0.31131020709 0.31782520417 0.33223327074 0.33248798052 0.3311241583 
0.33495477878 0.33224028404 0.33250100994 0.33263168686 0.33481463012 0.3330591992 0.33719223961 0.32872536384 0.32803986308 
0.33603891514 0.3407127455 0.33388887376 0.37975627797 0.32153122036 0.32184989156 0.32444004824 0.33222970871 0.33222917786 
0.33234076588 0.33314646616 0.33544827591 0.31634620646 0.31518932187 0.31266993129 0.41876549054 0.42950390716 0.52131908624 
0.47172031771 0.32749313829 0.32708806293 0.32439358949 0.33279892318 0.33266557277 0.3328283441 0.33243078161 0.3328273185 
0.33279154735 0.34004886503 0.34397978063 0.36085753748 0.33241305851 0.33204717829 0.35654344114 0.36120128894 0.3631918196 
0.27914055402 0.28239049604 0.28267557963 0.33164601385 0.33199111627 0.30283060103 0.34077454008 0.33351955573 0.28576567348 
0.33122406093 0.32258812162 0.34019229645 0.3326981751 0.33251932192 0.33374346333 0.34063955927 0.34082078846 0.34239523528 
0.33232425121 0.31817234627 0.31938206808 0.31741475366 0.33415832554 0.3344583227 0.33440925869 0.33474030433 0.33191040388 
0.32615162399 0.31672555483 0.33186600637 0.33226910804 0.33405395482 0.33453782137 0.33472237844 0.33530631006 0.33231101425 
0.33440904849 0.33364394874 0.33402225412 0.33339772417 0.31765122115 0.31777327078 0.31392927548 0.3271981072 0.32629904083 
0.32631010323 0.3185156647 0.31637077609 0.31589487872 0.33012709153 0.33037226596 0.33081244364 0.32681573261 0.32558109141 
0.32562633459 0.31632183214 0.31870305168 0.31465228455 0.33373249197 0.33118741743 0.33156204209 0.32922113267 0.33038668099 
0.33337128211 0.33303980078 0.33535325657 0.33273802056 0.33093779687 0.33080691038 0.33133279869 0.32287808357 0.32239564542 
0.33192440942 0.33186470315 0.33182726148 0.36208871061 0.36910425774 0.32687725149 0.34649809614 0.3665599862 0.36017698446 
0.33330940012 0.33330234615 0.32861132101 0.33008411422 0.32927020927 0.33049507191 0.28340448618 0.2847383497 0.27842494035 
0.27566405011 0.28640442884 0.30393858067 0.30580016184 0.30751317202 0.30865612446 0.33143882351 0.33183299817 0.33195609481 
0.33199009707 0.33163958745 0.33169718894 0.33125844512 0.28741952107 0.28992712204 0.2842137865 0.33214124378 0.33200456663 
0.33232202978 0.33200672686 0.33347807563 0.33336671903 0.33337057453 0.3319510005 0.33195100142 0.33197501483 0.33338715562 
0.33192390012 0.33160492512 0.33229302254 0.33201025122 0.3529386633 0.35558198401 0.31201722997 0.30971707665 0.31293505393 
0.33237156347 0.33232152972 0.33269801026 0.33260013994 0.27615723324 0.27589983524 0.2639634039 0.33325519676 0.33329456221 
0.33324593976 0.33348345448 0.3335892352 0.33361952086 0.32853463842 0.32917875942 0.33038272181 0.33110253808 0.31211619157 
0.31773118494 0.32754833671 0.32443862542 0.33288469223 0.33095690884 0.33977827023 0.33942499059 0.33991573546 0.34728459056 
0.34541988876 0.30924673041 0.33222603424 0.33354724835 0.33374645595 0.32980661408 0.32927843925 0.32968487418 0.30818966107 
0.3018877731 0.30433884416 0.29834476665 0.32362066011 0.33570668193 0.30561326483 0.31721619802 0.28920730982 0.25010037545 
0.28453420578 0.19580995883 0.21547242424 0.31267005685 0.31168651042 0.36172803765 0.32741358605 0.32904895208 0.33058657241 
0.33400170116 0.33531132815 0.33508475739 0.33353010013 0.33359728197 0.31069499213 0.33763543839 0.33486707564 0.33795998011 
0.31147766668 0.31369125738 0.33372873306 0.33351339876 0.33325683706 0.33328779343 0.33316413435 0.33022112276 0.33378574049 
0.33259523236 0.33274905153 0.33256907013 0.35584660219 0.34723200643 0.34690530073 0.3344715746 0.33423080131 0.3335072851 
0.33263347843 0.33226831269 0.33214229978 0.30700134677 0.3058916953 0.33030026131 0.34400583356 0.32135722575 0.3249610506 
0.32451592148 0.32774384069 0.3351396739 0.33624791531 0.33174754228 0.33187563639 0.33177072037 0.33671188978 0.33421587625 
0.3305507417 0.33027671995 0.33027133717 0.31774462664 0.31873636455 0.32850765378 0.34272058325 0.32913787994 0.32903245536 
0.3296390137 0.33030018417 0.33051895359 0.33363507801 0.33406420207 0.33349866468 0.33387872134 0.33111580842 0.33102023332 
0.33069087615 0.33367978747 0.33402661911 0.33391161684 0.33344174938 0.33281393094 0.33426609832 0.33436105819 0.33382668291 
0.32386137428 0.32286699001 0.32487852553 0.33395556596 0.33379840753 0.33339458272 0.33324370534 0.33342853837 0.3335438389 
0.28799547126 0.28196058894 0.32988183524 0.30741298333 0.31574561864 0.31160494607 0.33289688196 0.33302064617 0.3328865562 
0.33302138868 0.28240267169 0.28800354073 0.28682936136 0.33092400084 0.33106519432 0.33074690563 0.36745749746 0.31327950821 
0.30965954486 0.31385099878 0.32724122052 0.32458572333 0.32447012713 0.34760457716 0.34444228184 0.32195846322 0.32840606403 
0.31804891396 0.31907169337 0.31910134384 0.31884410348 0.32194266502 0.33592782891 0.33545100297 0.33418383642 0.34006382599 
0.34250343374 0.33830142254 0.314925651 0.33541481516 0.33015357795 0.33120306249 0.33131258073 0.33090607686 0.33613946802 
0.3360816585 0.33500740569 0.33481259415 0.33239744153 0.33213677037 0.33234039807 0.33204853647 0.31368240736 0.34009584759 
0.34096362529 0.33915627006 0.33999802683 0.33155496976 0.33528591389 0.33754504313 0.33845601429 0.33839095078 0.3331402375 
0.33304713407 0.33296473495 0.33320167095 0.34061421956 0.34073801837 0.34111740188 0.33446184923 0.33532203679 0.3346113879 
0.33230150555 0.3325680027 0.33271077719 0.33294035679 0.33901962871 0.34665522079 0.34302757669 0.31890354926 0.31843001689 
0.31218405833 0.33338465048 0.33314541681 0.3396150419 0.33865599853 0.34032427728 0.34037069766 0.34021075074 0.32428853208 
0.32619421487 0.32341618433 0.34063041375 0.33423004301 0.33487374648 0.29095810445 0.29532309213 0.29133080702 0.33160869365 
0.33130620591 0.3571267144 0.35220643846 0.35980869248 0.35150116348 0.33617094194 0.33492509236 0.33544638406 0.33420000357 
0.326267901 0.32685214187 0.32484404078 0.28581867697 0.36963460062 0.34930163938 0.32777745909 0.32766365075 0.3284303045 
0.32973758792 0.33034106338 0.33732342243 0.3421159305 0.33550661336 0.34111431926 0.38900325017 0.39752691938 0.31056612078 
0.3036030398 0.30671946118 0.34216254286 0.34273580708 0.33940104326 0.32186554463 0.32745567508 0.32256727042 0.32717592616 
0.32860241935 0.32845870706 0.33123732523 0.33076840685 0.3313185252 0.33149160948 0.33128296759 0.33160576526 0.33249662257 
0.33130453293 0.32884756734 0.32982538404 0.32696577263 0.32230648601 0.32728500138 0.33206390865 0.33020605827 0.34170937623 
0.35990408989 0.34802701136 0.34950880338 0.33479062774 0.33464204013 0.35276219396 0.35502375445 0.36041955368 0.28697548499 
0.29323727245 0.29603505933 0.31312835667 0.33139089633 0.33106853075 0.33135636283 0.33144652173 0.33066057479 0.32671539317 
0.32567862039 0.32502055074 0.35408794642 0.35387169869 0.3577958326 0.35875684241 0.35971805593 0.36785921082 0.32022967359 
0.32019556828 0.32268221066 0.32251208843 0.33545366837 0.33485552698 0.33535953708 0.33477761887 0.28355608495 0.28503342557 
0.25466324491 0.38564965011 0.45572883224 0.41659776601 0.33681044059 0.337074069 0.33774631282 0.37783918538 0.37531173816 
0.37611674937 0.34870830362 0.34354313408 0.35004188222 0.34559206904 0.33541608498 0.33611301278 0.33597842141 0.33092303966 
0.3307783428 0.33031832126 0.33412116392 0.33447196849 0.33464865572 0.29431910997 0.29021500245 0.28923026548 0.33275756564 
0.33288006055 0.33263841222 0.33277298122 0.33503720497 0.33449932327 0.33427854753 0.33481125803 0.33078625462 0.33706188795 
0.32357654354 0.3252624594 0.32502539307 0.34989172721 0.34550252928 0.34958564856 0.37356224115 0.32661773987 0.32970447907 
0.33202362402 0.33238881581 0.3334699162 0.33006253384 0.33591763589 0.36063291663 0.32581767736 0.32445792042 0.32383371095 
0.33613107807 0.33625400777 0.33182034841 0.33224727178 0.33136204797 0.31841335346 0.32138954014 0.33724478437 0.33289668478 
0.33285001016 0.3322431284 0.36336023677 0.3284156257 0.32823020375 0.3290408033 0.3343550954 0.333760063 0.33181232726 
0.3317193959 0.33212336116 0.29937171903 0.30237364879 0.2956956895 0.32339042807 0.32210870285 0.32300489865 0.328922929 
0.32864850319 0.32951299058 0.32328704512 0.32011757817 0.32082981849 0.31957362623 0.32189775813 0.32266015919 0.32467092123 
0.32320129343 0.33997113992 0.34009638385 0.34086747307 0.33123222549 0.33182207326 0.32486385638 0.32406327804 0.32147776139 
0.32012329829 0.34071498422 0.34040898035 0.330078926 0.33297423551 0.33699851437 0.33701239959 0.33398512892 0.33576864974 
0.33205763184 0.33221686043 0.33472810783 0.33517111164 0.33288306828 0.33334407597 0.33921825703 0.33762652393 0.33872225294 
0.33332400545 0.3332010678 0.34000920024 0.33925650536 0.34061828915 0.31983892808 0.32445017656 0.32785529875 0.33091153181 
0.33082269159 0.33117251891 0.33949972419 0.34007432366 0.3403291136 0.34038313997 0.28256738715 0.33967487638 0.33858443059 
0.33879146547 0.33179119678 0.33123179619 0.33157927442 0.33106905728 0.32017740991 0.32138541282 0.32107906369 0.32100902381 
0.32287279369 0.33137071433 0.33103052277 0.32558345976 0.28638519465 0.32621683024 0.32483243065 0.31498125224 0.33193376634 
0.29279555486 0.28941675562 0.33273172419 0.33354178098 0.33142846106 0.27618174553 0.34017226865 0.33983901491 0.33684283211 
0.33951341419 0.34203391074 0.3370725552 0.33728064175 0.33834450378 0.338726483 0.30585817127 0.3203686713 0.35612784633 
0.34846866435 0.3131496419 0.31862563867 0.34805180649 0.34600663268 0.34925453766 0.33707579169 0.33670960291 0.33530980457 
0.28748419862 0.33152955822 0.2932463029 0.34596608863 0.32983800993 0.28210258854 0.34181627576 0.3447478711 0.34049386439 
0.34370610694 0.34608289325 0.33211801363 0.33201978968 0.33307672735 0.33263419055 0.33293562764 0.34289986934 0.33998998709 
0.33969372522 0.25735296066 0.33270283463 0.33286477293 0.33292030934 0.33328354227 0.33324939624 0.33320227409 0.33326041658 
0.33329623085 0.33325695215 0.31047375616 0.32070182751 0.33261285183 0.33241069561 0.33235383303 0.44815513497 0.39869622888 
0.40197789999 0.33258945225 0.33276196599 0.32839149785 0.32888444782 0.33083035144 0.33078907812 0.33566376797 0.33556943337 
0.33482766073 0.33482018292 0.26593192817 0.33264669134 0.32172390572 0.32093498678 0.32382258093 0.33639705073 0.33735671901 
0.33939170383 0.3382223379 0.33267803378 0.33534279767 0.33233146567 0.33441916572 0.33633524947 0.33334225344 0.33339256905 
0.33338272993 0.33414614425 0.33375235404 0.32980910479 0.32954521944 0.33696637844 0.33738038512 0.33190237289 0.33938483053 
0.33831434566 0.33973406958 0.33235853519 0.3324571366 0.32977042112 0.33229966076 0.32830593209 0.37879854426 0.37021306912 
0.37269077477 0.33400787153 0.33945878975 0.33714419427 0.3493829895 0.34711468789 0.35265108016 0.33240466415 0.33294698984 
0.3328371445 0.34356388734 0.33332996254 0.33328631513 0.3408519028 0.3335047043 0.33310156378 0.33322007782 0.33277700253 
0.33235883487 0.33323976657 0.33266914772 0.33254385459 0.33345811554 0.33337363041 0.33338998169 0.33332758536 0.33337162257 
0.34472670072 0.34650380533 0.34384848828 0.32983632612 0.32939407121 0.3292530075 0.34063112779 0.32697232222 0.32691599588 
0.32898362334 0.33079867738 0.33103382076 0.33284569075 0.32997599348 0.33140326991 0.3330822093 0.33434793362 0.32811420547 
0.34288787328 0.34673104668 0.34608980352 0.3497006523 0.32998176442 0.32949933978 0.32982708462 0.32933954428 0.32683792573 
0.32702871356 0.3244302807 0.33417630455 0.32898588477 0.33091123064 0.33201661924 0.33128527883 0.3315592409 0.33142471354 
0.31169896439 0.28163189651 0.29064766702 0.28931666863 0.32905619373 0.32864201686 0.32844967146 0.3310152464 0.33091760957 
0.33593832254 0.33387174233 0.33631132548 0.33446896715 0.33293692327 0.33131287916 0.33328177555 0.33933990888 0.33827535199 
0.33974656592 0.3344901047 0.33231757341 0.33302896681 0.3226026152 0.32339355863 0.33906261982 0.33882190969 0.33401740483 
0.33385865884 0.328942492 0.33154111188 0.32832310034 0.34336021033 0.34322126261 0.34140623424 0.34057556835 0.33321293795 
0.3338403287 0.3333916503 0.33401710486 0.31066136548 0.30581281797 0.3075965228 0.33466734151 0.33304470826 0.34349921772 
0.34167779458 0.33986955341 0.33620013384 0.33806507078 0.34974080116 0.34077897093 0.34110937025 0.33219431335 0.33248900203 
0.32734794417 0.32723103338 0.32836991366 0.32828829705 0.33195017035 0.33585727716 0.32835602745 0.33331262862 0.33211113416 
0.33215353019 0.34003693613 0.3341429526 0.33369323562 0.33551871707 0.31723826234 0.3214665003 0.32168825905 0.3307985821 
0.3279653914 0.33327175139 0.29294751426 0.31008642184 0.32486531323 0.31650448467 0.33210660996 0.33009662339 0.30017351651 
0.30224191891 0.32927222891 0.3297691032 0.32950888987 0.3299956637 0.32731634994 0.32972216071 0.32927497437 0.32932363489 
0.32885990757 0.34225641931 0.33224539601 0.33188773189 0.33207764015 0.33175884464 0.33032566342 0.33022423451 0.33010121899 
0.33043253044 0.33018279066 0.33087810247 0.30587430059 0.3044796678 0.30270490661 0.32770340933 0.33107932542 0.33751851836 
0.33787667916 0.33884749271 0.33958973833 0.34816460123 0.35285305678 0.34024204392 0.34021452563 0.31522271236 0.3118161648 
0.31020615231 0.3098799007 0.31097881617 0.30525669292 0.29212076722 0.34462297902 0.34660102144 0.34930066063 0.29480923621 
0.29042561295 0.28469782735 0.34476530556 0.33463959802 0.33669635239 0.33434855042 0.33624637344 0.33299005497 0.33432972808 
0.32737687477 0.32510376144 0.32794006027 0.33119402219 0.33142702622 0.33145102198 0.33900362854 0.32829530452 0.32711496 
0.32547807587 0.32456623718 0.32811053937 0.32644764233 0.32896137001 0.33322934424 0.32448555396 0.32486779044 0.35922532308 
0.34163118168 0.31682797412 0.33340617117 0.31766674785 0.32039319596 0.31971451792 0.32287252265 0.33199036403 0.33184748003 
0.33196572081 0.31867774812 0.3146554281 0.33242705459 0.3324692366 0.33241972729 0.33573849503 0.33759001588 0.33189399902 
0.33188507798 0.33859475208 0.33509092268 0.33733005701 0.33667005688 0.33713984144 0.33755950197 0.33617611252 0.33646046303 
0.34003959004 0.34003611078 0.30965899551 0.33009416442 0.33011908965 0.32913811596 0.33784329287 0.33676802758 0.34351958522 
0.29299403191 0.33927503589 0.33762087221 0.33732746634 0.32346383312 0.322331148 0.32462130697 0.34018628353 0.32266292492 
0.34125080994 0.3311011442 0.33012850381 0.32847652923 0.31353877685 0.33666658662 0.33787153451 0.3376354776 0.35822843299 
0.36693483078 0.35679832286 0.36490935984 0.33609123132 0.34111907655 0.33975739783 0.34173066757 0.32974811685 0.33247669563 
0.32078360279 0.32358282645 0.32530790268 0.33745101378 0.3384259697 0.33871273623 0.331844774 0.33117952921 0.33154264 
0.32898040947 0.32983828114 0.32969214834 0.32418291134 0.34257068803 0.34482290868 0.3419132615 0.34450842675 0.32426111125 
0.33335993161 0.33333609168 0.33333932749 0.33288982841 0.33300931213 0.31567657158 0.32855464522 0.32797488729 0.32874508399 
0.31759486938 0.33973182322 0.33967943932 0.3406285304 0.34716039586 0.34779743539 0.32160319159 0.31946162469 0.33936582541 
0.33300495647 0.33298130731 0.33281762436 0.2816793274 0.28299017501 0.28635096976 0.3388124682 0.33818982867 0.2690419824 
0.28274012774 0.28070355326 0.34349867776 0.33645047964 0.33931333115 0.31411553846 0.32534438403 0.3259446631 0.33291776757 
0.31790195372 0.32705482882 0.32747895382 0.32483151669 0.3347370589 0.30959682272 0.32609591629 0.32698060056 0.31607479111 
0.31891356894 0.32049167717 0.32220542512 0.25481448039 0.33819388612 0.33910275458 0.33483898948 0.33662354629 0.34097423414 
0.32064338764 0.32102181301 0.32237905997 0.34127058689 0.34101940184 0.34148684964 0.35265138774 0.3230674621 0.31735979894 
0.32252051014 0.33615422366 0.33653715931 0.33426575041 0.33489024343 0.33995608356 0.33931860598 0.32991572157 0.33055117007 
0.33091263312 0.29914429819 0.2965640944 0.2931800728 0.3366215964 0.33715441979 0.33801268957 0.33113148213 0.32784314103 
0.33015285821 0.33195898503 0.33173127495 0.33142946592 0.33128109413 0.31302586366 0.31755166981 0.31201200928 0.33980362762 
0.32251460864 0.28199507613 0.28890151541 0.33945307067 0.33083722831 0.33003736177 0.33056310793 0.33371645089 0.33368059358 
0.33448817205 0.33711630085 0.3333748946 0.33344228271 0.33150969475 0.33504879557 0.33209804391 0.33202001153 0.33349442423 
0.3335868826 0.3330045173 0.3329523235 0.31468825498 0.31742800769 0.31882276013 0.32996110173 0.33053055528 0.33072169283 
0.33124199923 0.33540412907 0.33480312699 0.33543901444 0.33340300189 0.3334391195 0.33287918356 0.3330360334 0.33288306343 
0.3307211027 0.33200285927 0.33196503868 0.32871239002 0.32852066938 0.32780544209 0.33785441981 0.33884277327 0.33110406899 
0.33347981528 0.33339416798 0.34212755785 0.33764669753 0.37051869727 0.40396959315 0.38799429033 0.36610687935 0.35821315058 
0.36498865449 0.33324706463 0.32934965971 0.33013726756 0.31769864439 0.31615062083 0.31906423058 0.33042470239 0.33276271044 
0.33396593946 0.32004088829 0.31883755095 0.32123665286 0.31008364355 0.30559305881 0.3121353008 0.31526174253 0.34249213779 
0.34963905796 0.32749650237 0.32629786517 0.32577445307 0.32426431988 0.46368048777 0.46320220086 0.4172390901 0.43827085144 
0.33941022348 0.33692476993 0.33625903855 0.33603506576 0.33418403723 0.33481400021 0.33479609486 0.33036171903 0.32736283549 
0.33414644835 0.32914633038 0.32911253871 0.33032520129 0.31666839445 0.33964270026 0.33212211651 0.33183902012 0.30668400089 
0.31378613767 0.31291501464 0.33188820961 0.33189884703 0.33174743221 0.3332410111 0.3331000805 0.33329600181 0.33317704268 
0.33288831871 0.33300522842 0.32498239637 0.32335630272 0.32429222644 0.331496852 0.33311513067 0.3269714549 0.32974102533 
0.32448342524 0.33304387624 0.33292027266 0.32563798483 0.32668076962 0.2963648047 0.33416230075 0.33456199905 0.33335732866 
0.28733995096 0.2772373846 0.33070050862 0.33124751194 0.33894492903 0.34114834403 0.34667135131 0.33310611034 0.33132400279 
0.33332300049 0.33058635604 0.33208046495 0.33199540242 0.33211762957 0.33169073804 0.28382207629 0.29119204084 0.32592535966 
0.41687521305 0.32066491136 0.31782492256 0.31322343768 0.33626901858 0.33540613545 0.3382079428 0.33919021583 0.33662421946 
0.43975652327 0.35058763128 0.36352994657 0.33369229688 0.33366321158 0.28234987161 0.30316236547 0.29804130636 0.3222146017 
0.3201401175 0.3227814317 0.38781680163 0.33397941896 0.32169378431 0.34676413525 0.32976087399 0.32859278152 0.32971139832 
0.31596472667 0.32124582864 0.34232198397 0.34545100385 0.33858861865 0.33998005603 0.33920857952 0.33928502067 0.33775648394 
0.33303616844 0.33306503905 0.33328625702 0.31727379846 0.33313587677 0.33316209203 0.33300310373 0.33318914631 0.33309721812 
0.33299919659 0.3358320755 0.34021515501 0.33849120106 0.33338226381 0.33332000001 0.33327700603 0.28850739693 0.32481006714 
0.33436325184 0.3335591471 0.33382738867 0.33353833473 0.33421862092 0.33192162928 0.3235091497 0.32512940428 0.32457982713 
0.3330664039 0.33282582511 0.33238669203 0.33222138942 0.27784089491 0.28155029254 0.289801254 0.32926832594 0.36547114334 
0.37361928735 0.37189209373 0.33095565055 0.33524441947 0.33470448563 0.33455314095 0.32017809003 0.33700184328 0.33727479442 
0.33492506801 0.33499355601 0.33362304233 0.33427668853 0.33278788447 0.33259754301 0.33815437681 0.33988474394 0.33282936787 
0.26199044433 0.27487150555 0.26024035267 0.32028149554 0.32218115123 0.334661079 0.33698376396 0.26117726036 0.23643486045 
0.27872877486 0.26474287343 0.36632203433 0.37596015801 0.34115905575 0.327468998 0.33511143827 0.3356563895 0.35702310676 
0.35985636558 0.35503627102 0.36123055829 0.34175000468 0.33276022102 0.33200459202 0.33676497378 0.34074346115 0.34126065963 
0.30937273169 0.29040063077 0.33076100596 0.3477922382 0.3454244771 0.33325522688 0.33133373317 0.33100375766 0.33069326869 
0.34556578399 0.33326973007 0.33433804944 0.33441363246 0.33392507225 0.33334897677 0.32090329329 0.32298822827 0.35713792848 
0.33802669989 0.34530304753 0.33240804279 0.23941586874 0.30399688032 0.31859177385 0.32088166517 0.31942783264 0.33580328985 
0.33296878647 0.34099612029 0.34185422177 0.34273439149 0.33616844892 0.34435086497 0.35610676374 0.3225062924 0.31176056824 
0.3069042325 0.33957609498 0.36138631764 0.3588635789 0.34128935455 0.32341346878 0.33705447961 0.32489877557 0.34739859519 
0.35243377973 0.33352670874 0.33645460283 0.33961325839 0.33196906729 0.33191720624 0.33202416189 0.33963319477 0.32384851146 
0.33256694976 0.33254413972 0.33279892068 0.33311724434 0.33321513194 0.35786452255 0.33837166141 0.34038829169 0.33928678495 
0.35568671522 0.38618962237 0.33278168131 0.33263076407 0.33118052604 0.33249246915 0.33155544416 0.33120116059 0.33168044796 
0.33255900222 0.33181506702 0.33399258066 0.33360710768 0.33357965397 0.32611846503 0.3206978709 0.31508368626 0.33994083835 
0.33970278335 0.32930175595 0.32758878757 0.32795710876 0.32963154452 0.32992740764 0.33039227936 0.325053428 0.32715172064 
0.32740021298 0.32526828121 0.33089301546 0.33008779576 0.32975219521 0.33105368063 0.33253903328 0.33196931742 0.33202537107 
0.32279344471 0.33549300949 0.33170046401 0.33180976587 0.33152560365 0.33630000095 0.30074740385 0.33523466555 0.57888006808 
0.28517803068 0.33596510737 0.33510861158 0.33140789064 0.33151801203 0.33101298041 0.32884819495 0.37068718587 0.32792724969 
0.27970221624 0.30032231457 0.30489250679 0.32220898995 0.32408521909 0.31712477805 0.31934451411 0.33706871176 0.3317763981 
0.33160918708 0.32059119502 0.31933162788 0.33330111585 0.333323 0.32032303401 0.33518798128 0.33343875511 0.33517096027 
0.33861042819 0.35037084618 0.3565458293 0.35318060492 0.30819010864 0.33033676336 0.3297609175 0.3292462875 0.3296929736 
0.33592036444 0.33617718391 0.26850060121 0.32828870077 0.32675598563 0.32644604139 0.33257509778 0.33637715162 0.32309878963 
0.32052694196 0.32310090135 0.32438770041 0.32109039483 0.3239020624 0.34108618258 0.3326152695 0.33245822951 0.34174819915 
0.34223520283 0.3723625007 0.3363277802 0.33754288176 0.32304045945 0.33966994507 0.25483055216 0.33719454333 0.33417668499 
0.32816452757 0.33316050342 0.33406039411 0.33414651986 0.3222044206 0.33208068214 0.32693370342 0.33225209495 0.33328244363 
0.33530518395 0.3333779765 0.33975194888 0.36528838849 0.33311997467 0.33748698641 0.33489825084 0.33192639678 0.33248942375 
0.33235580855 0.34002339052 0.34049022428 0.33853293783 0.33169122199 0.33199971017 0.33195582333 0.33266955631 0.33222250694 
0.30160614881 0.29316512427 0.29085939279 0.33144200827 0.3253660023 0.32539259107 0.32345770716 0.3124459851 0.32646134306 
0.32720226162 0.32586736409 0.33849624027 0.33665632318 0.33770559102 0.33547289784 0.33120009627 0.33144299675 0.32715757727 
0.3230888415 0.2944421874 0.28874712543 0.29263146815 0.3357728192 0.33463613986 0.34169696187 0.28504237151 0.29720619034 
0.30442171671 0.31038291186 0.29192255914 0.29125190152 0.34296796463 0.32430005724 0.34020905827 0.34020642511 0.34082593431 
0.34133145605 0.29624688922 0.29603399254 0.3351030578 0.33593622392 0.34131826724 0.34140189432 0.37155819247 0.33888818101 
0.32932824554 0.32965529032 0.32601691466 0.34012679987 0.34164729677 0.33248961568 0.33268482153 0.33241426319 0.34059554078 
0.3140348177 0.30797112496 0.34104109492 0.34010441599 0.34032164039 0.33970470092 0.33969594201 0.33337727541 0.32857155763 
0.32964731284 0.33175728295 0.33171502418 0.33262940775 0.42554616 0.33004822571 0.32949783687 0.33022369916 0.33100214281 
0.33243925354 0.33172616093 0.3300001155 0.33860566156 0.33210155478 0.33180124046 0.32534765235 0.33738599378 0.33269939843 
0.3330319452 0.33179189304 0.33081831375 0.3326445549 0.32663851199 0.31824663523 0.31390142145 0.3328105589 0.33285130859 
0.32993941177 0.37482512047 0.32790334291 0.33147021711 0.33082100458 0.33258331056 0.2820928577 0.31661567463 0.32479419054 
0.338012807 0.33605281568 0.33309694036 0.32716215564 0.32663431425 0.33029847964 0.33698450196 0.33229479735 0.33380960422 
0.3243378337 0.32052334642 0.31575561575 0.36462386403 0.36446242586 0.33353370008 0.33289539562 0.33327133683 0.33517382093 
0.33494767102 0.33347666056 0.34272610316 0.32604409922 0.33413808537 0.33341796965 0.33345594182 0.33185650255 0.33208479495 
0.34056975062 0.33964265657 0.33951823406 0.33814410929 0.3327663964 0.33277617431 0.34084854451 0.34141736871 0.32750005426 
0.33801800941 0.33325000924 0.27812465364 0.26755830635 0.2693621814 0.32931255165 0.33488763088 0.33052280472 0.33178471111 
0.33318999901 0.33930823572 0.34053454895 0.33049274042 0.32682648705 0.33090880735 0.32819346367 0.32981637806 0.31326370913 
0.33129343565 0.33327169372 0.31968924156 0.32199503846 0.33141761683 0.33147887853 0.33109857361 0.33316704692 0.33335867421 
0.33389785055 0.31088027132 0.32650385307 0.32725764065 0.33001931843 0.33158026739 0.33735393505 0.3380470606 0.33665728018 
0.33715471439 0.32853603444 0.32831015306 0.34006100723 0.33887603469 0.33120558018 0.33265464444 0.33532881266 0.3344937444 
0.33158258745 0.33126580904 0.34004051522 0.34117647529 0.32922048601 0.3336853727 0.3332260456 0.33208153594 0.33328360208 
0.33063924776 0.33183805063 0.33191100717 0.33181400034 0.31055651303 0.33287098396 0.30545449162 0.33138985843 0.32328838502 
0.32147142281 0.36237520366 0.37672498435 0.31456630719 0.33666858511 0.33171546761 0.33196551662 0.34004447038 0.26745688262 
0.28137651454 0.28254018279 0.28879962571 0.33068698216 0.33506379962 0.3159057921 0.31397215534 0.33424719685 0.33331725346 
0.33331421323 0.33170111015 0.33163249042 0.33330804255 0.33328626018 0.33328714432 0.29755032305 0.2924082728 0.27796199598 
0.28727579374 0.34190871948 0.35389389965 0.33320641896 0.33330009374 0.38928916221 0.40095751008 0.33422207893 0.33213220941 
0.33067583737 0.33327539917 0.33185672238 0.33352952314 0.32865383024 0.31896331919 0.3171146732 0.31061711958 0.3144122633 
0.31486652153 0.33075784849 0.33126129724 0.33118598053 0.33332504334 0.32427982636 0.3311130024 0.32741419891 0.32575770592 
0.31344715411 0.32618695023 0.33055809468 0.32982219441 0.21443389365 0.34596455761 0.34309781981 0.33523194591 0.35726458312 
0.33234835145 0.3289011132 0.32021379063 0.33319265004 0.33523986389 0.32905458097 0.33210334295 0.33201226555 0.32358671344 
0.33680897929 0.32936147003 0.34103682491 0.33079297936 0.32904784545 0.32900842722 0.33935368242 0.33945968308 0.32895218177 
0.32735720298 0.33918338762 0.33872270036 0.33943584801 0.33898884304 0.31032940865 0.32973148526 0.33028975531 0.33197319108 
0.33189319337 0.32992100011 0.33042000548 0.33017650162 0.32975879909 0.33327998555 0.33587335345 0.32206853284 0.33134175346 
0.33146418129 0.33208072354 0.32694458612 0.31669855146 0.27766722993 0.3328606874 0.33299042237 0.33301812712 0.33640712047 
0.33160658471 0.32806139847 0.32820917565 0.32620126899 0.33322137062 0.33172198151 0.33861504948 0.33214755328 0.33197502354 
0.33227302059 0.33280547499 0.33178374548 0.33045174687 0.32951934649 0.33170479137 0.33178897422 0.33190631476 0.33076113345 
0.33031223739 0.32724960682 0.31868694738 0.31807501998 0.33732881961 0.30118063287 0.29571593684 0.356722496 0.35190560343 
0.3328386408 0.33273206899 0.3332090551 0.30373978284 0.41211930098 0.32624789992 0.33573948044 0.33125608011 0.33081241429 
0.36102625353 0.36938948119 0.37226049422 0.32662603569 0.31392569275 0.23590482415 0.33370300002 0.31794834344 0.3289930239 
0.29726882283 0.28877049789 0.29864375676 0.32751638256 0.32855982701 0.32743132424 0.33069770362 0.33315710576 0.33326663424 
0.33382730362 0.3332530274 0.33313317764 0.33315702717 0.3285039368 0.33198102094 0.34890681513 0.38230595695 0.33359386146 
0.33367626214 0.33152127218 0.33314822015 0.35571167368 0.35213842387 0.33204730612 0.29589822452 0.28271592712 0.33256779641 
0.3290814375 0.3324053731 0.36540555817 0.37898333872 0.32467413128 0.33206162102 0.35853745481 0.33326380088 0.33174795993 
0.33225259302 0.32570121196 0.32976642533 0.31882144327 0.29846153742 0.32407576055 0.32598155657 0.31151924954 0.33226689643 
0.32970094124 0.34849433814 0.33555935755 0.33315520773 0.327253155 0.32808300847 0.33392698708 0.31882601675 0.33197514456 
0.33047181613 0.33104294536 0.31183609847 0.30860151505 0.3138234173 0.33812600532 0.3317477991 0.33215006413 0.33909622307 
0.33130243198 0.33052150739 0.32699641969 0.33163900364 0.33169705105 0.33311286429 0.33209141752 0.33163114568 0.33256675958 
0.3329570749 0.31009468416 0.33195900397 0.3255138155 0.32758446542 0.29387438113 0.30029946614 0.28489331167 0.33059806495 
0.33683099041 0.27659646041 0.33305351049 0.29915370715 0.30506749974 0.33303222077 0.33271621579 0.31986045896 0.32277981079 
0.32237446221 0.32218900644 0.32500960507 0.33054250276 0.33243837453 0.34930874071 0.35373759603 0.35026276719 0.33190119565 
0.33177707485 0.33191801231 0.35428510759 0.34875634785 0.35066948354 0.34497421698 0.34237224002 0.38556889692 0.31856154954 
0.33330009418 0.34630530159 0.33313003102 0.33332496235 0.3265465538 0.33313388011 0.32674521042 0.33333400048 0.3335758111 
0.32995094664 0.32816001582 0.32956741166 0.32829656463 0.34217242073 0.34067936996 0.33955784901 0.33929899949 0.33334876882 
0.37405165102 0.37321725387 0.33401037215 0.32956410161 0.33296655151 0.32740956743 0.33947574323 0.33758963351 0.33584215611 
0.3335384603 0.33334443004 0.3344372537 0.3248373659 0.33135980847 0.33074190483 0.33187581758 0.31732055415 0.3330761127 
0.33270427862 0.33200486708 0.33210715741 0.3243651604 0.3388625524 0.33933696541 0.34198680748 0.31193319597 0.30907397606 
0.32972458575 0.33619448695 0.33160261856 0.32934295619 0.30318444445 0.33544222057 0.33505736542 0.33264212961 0.33247971085 
0.33313595356 0.33313291238 0.33313981536 0.33148803246 0.33944807997 0.33889053397 0.33916166402 0.33867904602 0.33281681626 
0.37116330385 0.36237085084 0.34910736586 0.33485588016 0.33698229763 0.33381744474 0.33222053039 0.33423597257 0.33349275042 
0.33321022074 0.33303325607 0.33264850518 0.3327484946 0.33314369842 0.33368396776 0.33230106416 0.33247212214 0.33732107435 
0.32985288611 0.33928456167 0.33215704075 0.3321091091 0.33220515881 0.27756162504 0.27630262061 0.25958362774 0.30878580038 
0.33419974156 0.3969502065 0.3323050425 0.3328868689 0.32965911704 0.33232672159 0.34358998733 0.3363826306 0.32318858833 
0.24382903235 0.26418115186 0.34585759839 0.38781278233 0.31552275493 0.31859634255 0.34457852454 0.34531706697 0.28928800003 
0.27658164129 0.27962363413 0.30418214886 0.34192251047 0.33326968922 0.33322747703 0.33419098822 0.33445809298 0.33332631544 
0.33318116521 0.33367440916 0.30721115928 0.32247476724 0.31753569008 0.31463971392 0.32116348606 0.32536131876 0.33327724423 
0.33240691291 0.33056274286 0.33418877204 0.32400546879 0.33230819292 0.32149356767 0.33268878016 0.33294683007 0.33774794603 
0.32704716039 0.32775076158 0.31767244256 0.31995561227 0.32715234034 0.33070797971 0.32346808616 0.32950278241 0.33091053369 
0.31751845438 0.33289090392 0.33280691403 0.33510974315 0.33583444334 0.33332005825 0.34550494203 0.34719014943 0.30799701299 
0.33747797766 0.32672124005 0.33768256781 0.29655070272 0.34741956417 0.331742038 0.33105790126 0.33307745453 0.33285515892 
0.33038370043 0.332370508 0.32523467685 0.35081888026 0.31283346594 0.3521344077 0.32726939562 0.32798921199 0.32346556222 
0.33211557632 0.33208301798 0.31842679673 0.31442530874 0.30197325156 0.30084228261 0.32398591305 0.3380324012 0.33903797253 
0.34812325991 0.33554074998 0.35087492369 0.33251873963 0.32657323844 0.29339340333 0.33309847337 0.29400342333 0.32363911381 
0.39124448896 0.33217876388 0.32595142688 0.32525649097 0.32736575813 0.31643821471 0.32575265832 0.32442406027 0.28738538232 
0.33963505809 0.31629608074 0.29821061151 0.29619993929 0.30482281744 0.33269225975 0.33753114821 0.33058821637 0.33399581475 
0.30114045414 0.31358663673 0.33402919037 0.34172701464 0.33145586125 0.33165681939 0.33167701686 0.34526914983 0.3376410814 
0.3386615341 0.3416423501 0.34261819262 0.34306463601 0.33663398328 0.26749560644 0.28954151895 0.33729193824 0.34142273713 
0.34694745009 0.33831915625 0.34152573315 0.32705045378 0.3315642401 0.33164852859 0.34993909817 0.33974661194 0.33824274204 
0.34102287164 0.35117299307 0.31993210279 0.32114697747 0.32523732032 0.30002011213 0.29425215517 0.33030787053 0.31623754005 
0.332650123 0.3339143836 0.33483058415 0.33173294727 0.33164444925 0.32908821163 0.33076242525 0.33070626939 0.33234161849 
0.32704057381 0.32695575132 0.33806257626 0.32827176586 0.32878437921 0.33048708948 0.32747054762 0.33550494889 0.32189854674 
0.3232012266 0.31977669978 0.3278800619 0.31989732797 0.32251811983 0.34147175275 0.3189560198 0.33217075357 0.32588983832 
0.28820419733 0.33369229923 0.33284299633 0.31266547574 0.33540241052 0.31123025316 0.32145125236 0.32732203856 0.33249246367 
0.32885143752 0.3358220086 0.3361819469 0.33055724874 0.33625455462 0.31637249225 0.33198994615 0.33193789479 0.29394568486 
0.33694726385 0.33761513644 0.33831184442 0.33844994179 0.33856896399 0.33382328542 0.3272773906 0.33371846229 0.34548772292 
0.36380305818 0.36040048627 0.3326154971 0.34390200249 0.32838651489 0.32817104372 0.28443000938 0.34374061228 0.33642886133 
0.33492382774 0.22088057818 0.26621453198 0.29559909687 0.33628500375 0.3333870412 0.33275130504 0.3931048174 0.41919443887 
0.33334132571 0.33123799744 0.36266075493 0.33257456584 0.33296931078 0.30090039619 0.33299483446 0.35904561253 0.36437066108 
0.33298274138 0.33327702799 0.32316055134 0.32383043755 0.33127145577 0.33008857365 0.33056387557 0.33162354992 0.33120058347 
0.33113548807 0.33736596996 0.33011817165 0.33088997608 0.33328835476 0.33750754983 0.3371917028 0.33144188946 0.32368146675 
0.33064792598 0.31475072117 0.32562932945 0.29049085758 0.33115892848 0.32246130932 0.31853982018 0.33457956213 0.3342620651 
0.32422881143 0.32451981254 0.33256220766 0.32560581208 0.32268820198 0.33445295053 0.33034468962 0.30482714285 0.31345574385 
0.31907458727 0.33060300292 0.32199384493 0.3605900036 0.33990416255 0.33996405968 0.31056616661 0.34029250096 0.35300768614 
0.32601546615 0.32633170815 0.33192894007 0.33904144148 0.32692579559 0.33594254185 0.34192088272 0.3304839568 0.34118839391 
0.34004338434 0.33623709641 0.33786289865 0.338009048 0.3378744239 0.33247436037 0.3284907817 0.32398386915 0.33230370637 
0.33822549723 0.31353056755 0.32797601982 0.33418803306 0.33499035006 0.33575938629 0.3315588389 0.3313939887 0.3327233988 
0.33194354948 0.32970464728 0.3878034844 0.33120666614 0.33175522731 0.34185885399 0.34777671155 0.34118373133 0.37544440084 
0.34124402072 0.34311925884 0.30835449022 0.33155510118 0.33222736071 0.3195627572 0.33946784461 0.32731265023 0.33983216356 
0.33212027136 0.33530834015 0.40690340331 0.3356422239 0.31131562531 0.35403088305 0.32594924277 0.33085288388 0.3319565245 
0.36414913893 0.27151281455 0.33175693304 0.32848941185 0.3336252825 0.34879101969 0.27240926301 0.33021276184 0.33837649754 
0.34591788031 0.33061011856 0.33807209596 0.32390406572 0.36870779128 0.33296478466 0.31119430636 0.33346637845 0.31661218864 
0.33148660413 0.30071348368 0.30410976468 0.34023365578 0.33181231457 0.32556548594 0.35454426007 0.32948077566 0.31738124036 
0.33137094031 0.30673112743 0.32403667916 0.33236344015 0.28240219981 0.33321668726 0.32821666542 0.35256935961 
Intermediate%20Principal%20Stress 1 9350 double
0.43197622107 0.47125198855 0.47582999417 0.42879987789 2.4583338272e-05 2.3706024117e-05 3.3050997205e-06 2.7054011355e-06 0.012296654566 
0.020994455692 0.048756643268 0.040994624671 0.001221696661 -0.039998555835 0.043319693862 -0.026333290349 0.24384987402 0.1962462681 
0.1690665471 0.18249675761 0.17879065307 0.18001748488 0.17274811568 0.17369658437 0.1830898451 0.18352442226 0.18329268958 
0.17635667373 0.18160232135 0.18223995311 0.18345678563 0.17485428047 0.17009768396 0.18317071916 0.18560443765 0.1740834377 
0.17569739358 0.16805732724 0.17677647822 0.18801197931 0.21520804365 0.18648520357 0.18460383755 0.18486441041 0.18526645075 
0.20977089357 0.19866908683 0.18755661994 0.18878727663 0.1890878213 0.18887052609 0.20793013034 0.18806883588 0.18923516339 
0.18924684971 0.18801294291 0.20758104291 0.20156932591 0.18124120343 0.18305049151 0.18519259682 0.20783596041 0.22632555613 
0.22933537396 5.9536387525e-05 4.130169275e-05 -2.5843638942e-07 -2.0712511989e-07 -1.2495034851e-06 2.9633309215e-06 -2.7005637011e-06 -1.5513048927e-08 
8.7405445223e-07 -2.0239837036e-06 1.8947954169e-06 -8.2031031e-07 -2.3406272019e-06 8.6654280946e-08 5.8232786235e-06 -8.5278079196e-06 6.0516032351e-06 
-1.9512331554e-06 -4.1826721572e-06 4.2819932672e-06 -4.8538985585e-06 2.6835027109e-06 5.0274969875e-06 -2.393277061e-07 -2.4126289099e-06 1.0679508302e-05 
0.00010943215802 -0.14709621604 0.0016591696587 0.00075334787918 5.4957709017e-05 7.2437118624e-06 -7.2434907663e-06 7.7053800492e-05 1.5771620285e-05 
5.0030248513e-06 -6.0806126141e-06 -3.2440080063e-06 7.0097202096e-06 7.246852803e-06 1.1628753069e-06 3.286635443e-06 3.9467943702e-06 3.402341936e-06 
1.2604973315e-05 1.5394897172e-05 2.4471890036e-05 1.7528259222e-05 2.1304078484e-05 2.2364277216e-05 2.6676992074e-05 2.5334037619e-05 2.6483368497e-05 
7.567183666e-06 1.9681582927e-05 1.368461333e-05 6.6671314545e-06 3.2107969019e-06 3.870676021e-07 2.5462739937e-07 2.3378201277e-06 4.9631257394e-06 
-1.6394411418e-06 1.2262036563e-06 1.1092642521e-06 -3.0672948745e-09 -2.7264602628e-07 1.6955631228e-06 3.6202919744e-06 8.2082721139e-06 1.5004924937e-06 
7.5316419237e-06 3.2036617021e-05 3.4517269119e-05 2.8091132842e-05 6.2056487683e-06 -8.6145328041e-06 -1.4016674906e-05 9.2193288582e-05 0.00023882027938 
0.00042321345322 0.00012492544824 -1.8270523179e-05 7.6709490812e-06 -4.8580202036e-05 0.00020706172887 8.8319363215e-05 0.00026841378677 0.00021358828616 
9.3962652679e-05 -4.039278059e-05 -2.4011541449e-05 -0.00025146722434 -0.00024271286894 0.00045768653951 -0.019717477732 0.0055828689121 0.039510554839 
0.042354861579 0.043588395812 0.054396234385 0.064223579198 0.080057485353 0.082156648392 0.08897961613 0.12170260232 0.11982097587 
0.16708843268 0.063140109151 0.063976539249 0.062212351255 0.067968233607 0.065628709887 0.066134207404 0.049240514138 0.045049225431 
0.032416540062 0.049674595427 4.7183640536e-05 4.4560572729e-05 -1.0330236448e-06 -2.0152069619e-06 1.8294279955e-06 1.6728976429e-06 -2.6300180915e-06 
4.6319300893e-06 3.6337701417e-06 -5.1751010102e-06 5.9563195102e-06 -3.3409528456e-06 -2.9607047882e-07 -3.3751583866e-06 7.5967611823e-06 -4.4887932857e-06 
-5.0818694026e-06 5.102920859e-06 -4.8681522274e-06 7.05234634e-06 1.3407019123e-09 0.00018816228653 -0.013278350479 -0.0023200605538 0.00026421198107 
0.00010617826018 -3.2334957287e-05 -2.0892750679e-05 -1.3501508094e-05 2.4690534573e-06 -4.9085499894e-06 1.2370370256e-05 -2.9395481318e-06 8.2884787613e-06 
1.4498173952e-05 1.3923260793e-05 2.097169026e-05 2.3812833302e-05 2.4663407255e-05 2.9159610016e-05 3.0701949109e-05 3.4367642091e-05 3.022151446e-05 
2.7370505107e-05 2.3121141568e-05 1.5979327234e-05 4.5248027207e-06 1.4802794185e-06 2.279987261e-07 -6.1705709691e-07 -1.7152444028e-06 3.9039596735e-07 
3.8235262147e-07 2.0948900106e-07 2.8224762205e-06 6.973985487e-06 1.0334031471e-05 7.6522720175e-06 2.1458083864e-05 2.9091638735e-05 2.9189564864e-05 
1.8917977127e-05 7.5239107139e-06 3.7892629901e-05 -4.9967932674e-05 0.00017164687086 0.00034920286864 0.00031663105095 0.00025395130613 -3.8825314522e-05 
-5.9292202171e-05 0.0001555594924 0.00043158892426 0.00030586002213 0.00018645465502 1.8919802142e-05 2.0577570743e-05 1.7042086494e-05 0.00019584872845 
-1.7768844215e-05 -2.4326000572e-05 -0.00025072184118 -0.084635423936 0.049400766059 0.023660148128 0.03659756923 0.049969467613 0.066439008279 
0.078666893004 0.075460828364 0.086475828187 0.10061666378 0.087123647703 0.16638722871 0.10617574392 0.074547066867 0.070004241701 
0.066638739699 0.060874230004 0.062875048632 0.052797957793 0.052081772908 0.075760390508 0.061516140908 0.033732182135 -1.6980062296e-06 
-2.5547446318e-06 -1.4354978414e-06 -1.459259119e-06 -4.8444940684e-06 1.6474022338e-06 5.5609774468e-07 2.5862861702e-06 -7.2092812905e-06 5.6307600329e-07 
-2.0625254818e-06 8.118900765e-06 -6.8588853978e-08 9.475578966e-07 -1.4907253603e-06 3.2445201688e-06 5.0902859183e-06 -5.8531425679e-06 9.1940076592e-06 
-3.2177979888e-07 2.7428339889e-06 -8.4443180368e-06 -1.1501553246e-07 -1.9865350397e-06 -3.7236039725e-06 1.3829292025e-06 0.0045563231016 0.0043251410527 
0.0025198258153 0.0014579483908 0.00092504462503 0.00062502462475 0.00039277387709 0.00027107031184 0.00014536038936 6.6898070037e-05 3.7414797205e-05 
8.9245421364e-06 -1.5646938096e-07 8.972280491e-06 7.5642603482e-06 2.4014611426e-06 -1.3041258159e-05 -7.2746716361e-07 4.0049833018e-06 1.232448786e-05 
-8.6747060799e-06 -1.7768791606e-06 -9.8609347658e-07 -1.9503041027e-06 -2.7497839194e-06 1.9645891768e-06 -1.3751444638e-06 -3.9255248719e-07 -3.3935603766e-06 
-6.3803984012e-06 3.8808253632e-06 2.1566385524e-05 4.1334557021e-05 5.4901532057e-05 5.5391973636e-05 6.3864108017e-05 5.5759117784e-05 4.2947239781e-05 
2.1786682723e-05 8.7328381076e-06 6.7666814405e-07 -8.2192514454e-07 -3.3401276492e-07 -1.832205703e-06 -3.783121281e-06 -4.2513123392e-06 0.00021162003834 
0.00081236424967 0.00089394851528 -5.2665334305e-05 -9.5593753388e-06 -1.7226216449e-05 -5.2922348892e-06 0.00011100727246 0.0035952875043 0.0031593645056 
-0.00010695412444 -3.1758754642e-05 -1.075943863e-06 3.4963948557e-06 0.00023095053017 0.0010681357239 0.0022115013478 0.0057110576548 0.004972890459 
0.011904807807 0.035952933287 0.056628073338 0.070013467765 0.079365702793 0.084116203936 0.088244524063 0.089126832135 0.08252076215 
0.091946272591 0.094890996088 0.096766799066 0.096820238764 0.085945506672 0.094086012004 0.093889995673 0.095134805798 0.092518626393 
0.089528467979 0.079724358948 0.086225716172 0.082928005417 0.078826795533 0.073584308984 0.056162896743 0.04019968922 -0.0084083688836 
-0.0015238774367 -0.0043985016617 -0.0084355616515 -0.0060602570725 -0.0075314460506 -0.0098969779333 -0.010611566446 -0.0078656779264 -0.0031909808296 
-0.00065685825515 0.0079105648563 -0.0078918769848 0.0024448141351 0.011502400293 0.0090162031502 -0.0036832986543 -0.0090260483569 -0.0099665496852 
-0.015349792214 -0.011473800442 -0.0035058648188 -0.013720318633 -0.017106391185 -0.019568127868 -3.4567217102e-06 0.026950544491 0.0028626190729 
0.0044144219498 0.020335710863 0.033198022726 -0.013260691807 -7.3470294573e-07 -1.5548575842e-06 1.6787646514e-06 2.0404250735e-06 1.316316515e-07 
-2.7714208545e-06 -9.2971544049e-07 2.0457204547e-06 2.2226680122e-08 -3.7078904295e-06 -2.7094426864e-06 4.2822430791e-06 3.4796911149e-06 5.4339127443e-07 
-5.3319747921e-07 1.4764400734e-06 3.6287350579e-06 -3.1617166298e-06 4.2656094313e-07 6.5725108698e-06 2.850381847e-06 -2.6887392486e-06 -5.0731539697e-07 
2.7160179049e-06 0.016166068876 0.0094357588191 0.0058760525905 0.0039385844672 0.0026252137652 0.0018076243925 0.0012267906893 0.00081136300491 
0.00048726805911 0.00024027170769 8.1281143617e-05 4.7238930366e-06 -7.3731176432e-06 -1.206456354e-06 7.0221066409e-06 -6.3208673966e-06 3.6141449871e-06 
-2.3290470085e-06 6.0336093722e-06 -3.933593223e-06 -1.3981264181e-06 2.8380326982e-06 -3.8610204209e-07 3.6674680585e-06 9.0930758831e-07 -8.7122652032e-08 
-8.0741139164e-07 3.0942505487e-06 6.6876154106e-07 4.0271220712e-05 0.00012929754516 0.00019718679067 0.00024188544008 0.00026802377116 0.0002571162669 
0.00021397148219 0.00015261997997 7.1674824652e-05 -1.6205083686e-07 -2.0540169044e-08 1.4526094835e-07 2.7791751812e-06 0.034521036552 0.027581736094 
0.00010360672051 0.0014754481505 0.0030129992909 0.00024382571681 3.3958787487e-05 3.7963202613e-05 4.3108552946e-05 -5.4621852102e-06 -4.2667344174e-05 
2.5504052874e-05 1.4543798514e-05 1.9904901063e-06 0.0029063807242 0.0068272405877 0.01334904536 0.024585803032 0.0066412182306 -0.00042316934744 
0.056076663657 0.070428891443 0.078606891468 0.08294994879 0.088230766326 0.09266592483 0.094990544221 0.096166759717 0.096593406797 
0.097559389614 0.098556222351 0.098222997626 0.098108260408 0.096775408667 0.094902283327 0.093898374112 0.0910968156 0.086929070761 
0.081084793688 0.074491178557 0.068088856995 0.05619364212 5.2420660778e-05 -0.00059711067628 8.9365017398e-05 0.00082402189655 0.0010411897071 
0.00069374968105 -2.2252604079e-05 -0.00068218135315 0.0018693794494 0.00055404435431 0.0014078187922 0.00062742183317 0.00045600934128 0.0002857282428 
3.4014558737e-06 0.00013983188751 0.00019617577957 6.8287078306e-06 0.00014789397858 -2.265324502e-05 0.000506264928 0.00049861353091 9.5390963766e-06 
9.8469028584e-05 0.0049778984372 0.00010753860245 0.015400553816 0.0097329549921 -5.1605149644e-05 0.027043585879 -9.301599084e-07 1.6080667243e-06 
-9.9920981247e-07 -3.0845037592e-06 -4.494103856e-07 2.9348373743e-06 2.5379929809e-06 -9.89649801e-07 3.7780891144e-07 -1.8212405195e-07 5.9670668511e-07 
4.0450478616e-06 2.1786630299e-06 1.2797769994e-06 3.232324438e-06 2.4584438338e-09 8.5904595333e-07 3.4940331848e-07 -8.419060679e-06 -7.1075225311e-07 
0.00085794821001 7.3081438337e-07 0.01638964132 0.010964800238 0.0081466980715 0.0055981063836 0.003874290839 0.0027450111012 0.0018326991381 
0.0011282511703 0.00060552192532 0.000251488629 -3.3253425341e-06 -5.1130131243e-06 2.1092994205e-06 3.8588520122e-06 -2.4994961035e-06 -2.4390418601e-06 
-3.426452285e-06 3.2450938471e-06 3.7865686991e-06 -4.1803170482e-06 1.0424273362e-06 1.1546135286e-07 -1.9919347259e-07 5.5071756777e-07 -1.6617604138e-06 
4.7842998555e-07 1.2103767184e-06 2.7051351736e-08 0.00020623544035 0.00038853253275 0.00052064613916 0.00058787446447 0.00059695160309 0.00053016807705 
0.00040966269602 0.00025219298204 7.5674089197e-05 -4.0687148775e-07 1.0316338439e-07 6.2243916096e-06 0.00010643258549 0.0036994352944 -0.00014614571431 
0.023893383465 0.038819545875 0.0037650846974 0.010067861712 0.018662997396 0.029389493114 -4.5922088062e-06 -6.4295645597e-05 -0.00012571472607 
0.0017244722765 0.044867805047 0.059818582736 0.062985392733 0.069722570986 0.076953475007 0.079674464347 0.080521904913 0.08160782137 
0.083187567884 0.084126734308 0.084543640242 0.084283359063 0.083014389726 0.081242922886 0.078958669286 0.076376449247 0.071828788376 
0.065709009031 0.057710766119 0.049967522219 1.5833346925e-06 0.026336059991 0.00019810791394 0.00010263466395 4.9285698522e-05 2.6579987653e-07 
2.2731740659e-05 6.1948830156e-05 0.0047252583937 -3.6039478597e-06 7.9660814163e-05 -0.00013528603833 -6.6310012361e-05 -8.49726046e-06 0.00014170755865 
7.8149097344e-06 -2.5652023864e-05 8.8467861722e-06 0.00036965102218 7.326443018e-05 0.00021061126968 0.00682184988 0.0096031283893 0.00017497753569 
0.014519432954 -1.8817329255e-05 0.017156211585 1.782106222e-05 -3.1554624775e-08 -2.5399740897e-06 -2.236227231e-06 1.4288757535e-06 4.954755245e-06 
-4.5586338529e-06 4.8844741464e-06 8.7594932312e-06 4.8475144851e-07 -2.0375506545e-06 -7.6415096517e-06 -5.871700806e-06 -2.3166194672e-06 -1.0072907401e-06 
1.7375441683e-05 -8.0552282763e-06 2.1600310407e-06 -3.7007277017e-06 0.0011649239876 -4.6007483976e-06 0.011523840538 0.016560227499 0.012541946057 
0.0090526506154 0.0064510058857 0.0045742295492 0.0030878525263 0.0019167902059 0.0011026761249 0.00050025699473 1.9840045523e-05 4.7900920757e-08 
6.7129725689e-06 4.8280076174e-06 -5.5221322433e-08 -1.7354699287e-06 -1.364728878e-07 2.2547943611e-06 1.3303086816e-06 -1.8235410307e-06 -7.4954396295e-07 
-3.7292043288e-08 3.7880134801e-07 7.5010429417e-08 -3.2923954014e-06 -3.8462047736e-07 -3.084868543e-07 0.00020678521265 0.00057560237419 0.00082704860686 
0.0010107537197 0.0011140216212 0.0010357575714 0.00083288568568 0.00057544746197 0.00025187873358 -4.0541600314e-07 0.0045835238516 5.7304731485e-05 
6.1425487953e-06 -2.3350703312e-05 -1.8383485923e-05 0.043602628736 0.021405536948 0.03335310322 0.0021647828023 0.0033228128123 0.04839980898 
0.060401723936 0.065394754701 0.064229137726 0.066067029759 0.068657873438 0.070359831218 0.070474091034 0.070308016637 0.070010897094 
0.068439264689 0.065353942985 0.062287973753 0.05831704511 0.053038468218 0.045818372872 0.035176940607 8.672026704e-05 -1.4081837056e-05 
-1.4417128509e-05 -2.1134107355e-06 7.3156598861e-06 2.3633113291e-06 -7.2803786986e-07 7.931539074e-06 2.3533504343e-08 -7.3258619965e-07 -0.00010600740083 
0.020946610764 7.6311783703e-05 2.8747445172e-05 0.00012283134911 0.0057112260354 6.2672452637e-05 2.3481941792e-05 1.2518961285e-05 2.9364064978e-05 
0.00035543867027 0.0004483190006 0.00022717534043 -1.1603126014e-05 -1.6108274505e-06 -9.0259971526e-06 1.3631273139e-05 2.2426641151e-06 -7.8377519076e-06 
-5.258894887e-07 5.6834565777e-06 2.115850439e-05 9.0963085694e-06 -1.8208952532e-05 0.022832315504 0.016922508147 0.01228942589 0.0090208645785 
0.0063937661046 0.0043478301486 0.0027766771139 0.0016484202404 0.00075708951436 2.2802107229e-06 5.9564223924e-06 4.560415644e-06 -5.9984724983e-07 
-1.6707457298e-06 -2.0246695982e-06 9.4748695449e-07 1.8347945873e-06 -3.8523440123e-07 -8.4943518341e-07 -1.0415409631e-06 -6.8011848458e-07 6.235464897e-07 
1.9053862669e-06 6.1373200978e-08 -1.603757002e-06 0.00012190005757 0.00076152085851 0.0012356657026 0.0014279735897 0.0017967799438 0.001779241133 
0.0014680422624 0.0010511953202 0.00055290693155 2.2441267641e-05 0.00068324591969 0.029341155306 -2.5340633919e-05 3.5552495907e-06 0.010784125821 
0.023166954354 0.035317002704 -7.6945056171e-06 0.0026311152098 0.049328709624 0.050265501623 0.052535796792 0.057273424066 0.056320121949 
0.055438515285 0.054453487542 0.056651377597 0.052256041778 0.049441480289 0.046003247287 0.041996131345 0.036332267324 -1.5783464934e-05 
0.00019167451773 -3.0714685814e-06 -7.539090264e-06 -1.0561209583e-05 0.0024547983271 0.011636176547 4.7388116687e-06 -8.9729462003e-06 0.0028996565458 
7.6247920623e-06 1.1403021212e-05 1.8279999414e-05 1.5013489888e-05 5.767322162e-08 0.010499721144 0.0089839335403 -8.1067669462e-06 0.0021310998599 
0.00045033000547 -1.6042353741e-05 0.0073574078469 -5.3317340452e-05 0.02097818782 0.015323386242 0.011262881522 0.0079783973316 0.0053572257617 
0.0035658763779 0.0021012483019 0.00090585787369 -4.2418211554e-07 -8.5852873316e-07 6.8840000518e-06 -2.8110591721e-07 -3.5984829866e-06 -2.1637673568e-06 
3.005092407e-06 2.8659405848e-06 -1.4297237031e-06 7.4685007649e-07 -1.2202962586e-08 1.3378042001e-06 1.8148855015e-06 -4.2021338829e-06 -4.2669135054e-06 
1.8015640144e-05 0.00086729097895 0.0018653931369 0.0022460420265 0.0030392900999 0.0023480529677 0.0017923825793 0.0009906270818 0.028258095434 
0.0017338361247 0.0041451711461 0.04165462977 0.043626033263 0.039439919039 0.040741680978 0.038142261491 0.035523785517 0.032506798921 
-5.2555846773e-06 2.7563275279e-06 4.6107571591e-06 0.0017469133568 -8.674849873e-06 -2.1085851261e-05 3.796617599e-06 0.0016329889492 -6.3836758202e-06 
-2.4614187655e-07 0.037277518127 0.0095873104021 -3.8644662103e-06 0.0020308722421 0.0050416633843 -1.1034911686e-05 -2.1511446184e-05 0.023080740177 
3.5737482345e-06 0.0062444377671 0.024416312415 0.017771825132 0.012929594348 0.0092875191647 0.0064529546972 0.0041822454844 0.0022698608244 
0.00064140953007 4.1456019572e-06 8.7407113203e-06 -6.9616188763e-07 -5.9642893324e-06 -8.2108839163e-06 -4.2067220117e-06 1.3418357633e-06 -4.5244154347e-06 
1.4938248199e-06 2.859283849e-06 -2.5622592992e-06 7.2226088467e-08 -8.3481707393e-07 5.2119054312e-06 0.0020740374445 0.0036355116936 0.0031066606816 
0.00072115066957 -4.5160790241e-07 6.8760869858e-06 0.0062447505102 0.015988668643 2.7203187716e-06 0.026486601686 0.029397889097 0.022511091679 
0.02722747293 4.2659673475e-06 -7.6921768449e-06 1.0673877287e-05 -1.4340988381e-05 0.017398977326 0.00039703226298 -1.5315436701e-06 3.5053484613e-06 
1.2976743318e-05 5.8902369133e-06 7.764995374e-06 0.010124273906 0.0029479397106 2.8366666731e-06 0.019246925256 0.013749166557 0.010690796237 
0.0073829446105 0.0044447175417 0.00253911832 5.7628793641e-06 -1.4988652308e-05 9.2565377575e-06 -1.6245761566e-06 1.0888877905e-05 1.2257991957e-05 
0.011891847927 0.0062037486483 -1.2495950244e-06 -3.8630799949e-07 -4.0870418259e-08 -8.0310381862e-07 2.394585601e-06 -2.5114624711e-06 1.112064651e-06 
-3.0022655803e-07 9.2400384629e-08 1.7079193258e-06 -5.4966229619e-08 -4.9698801198e-06 -4.0879760792e-06 6.8500847937e-06 -2.4585946358e-06 1.631683739e-06 
-8.9580404324e-07 -6.2043507646e-07 1.3936601906e-06 7.3207510288e-07 -9.746412876e-06 0.025593248464 0.0057483778291 0.0028006505214 0.0013972224248 
0.00075372773655 0.00050321028309 0.00030087500017 0.00019989600984 8.8993119086e-05 2.0479516189e-05 -2.7802901989e-06 -5.7157438515e-06 1.6087812534e-06 
2.7643677313e-06 -3.7330891008e-06 -2.6772444606e-06 2.0514554828e-06 -2.6946403425e-06 -2.593586187e-06 9.6945844102e-07 3.1754564368e-07 -6.0961958567e-07 
-4.238410037e-07 2.1693624098e-06 8.0032215161e-06 4.9214986808e-05 7.2112509843e-05 8.2804256149e-05 8.7078583082e-05 6.4264828539e-05 3.7102658033e-05 
5.1137936926e-06 1.2423873165e-07 -3.2027623192e-08 -1.0813217632e-05 1.9504612868e-06 6.9692282937e-06 7.7009942723e-06 0.00028657444273 0.00091587863917 
-1.4299593633e-05 -1.554179803e-05 4.9705255323e-05 -4.2166760613e-06 0.00061158982663 0.0024671429963 6.4113559577e-05 -1.8551986808e-05 -1.8972237653e-05 
-6.1845151437e-06 0.00032217697627 0.0010357762007 0.0019776673709 0.0036902436459 0.0085508490055 0.021759099949 0.042814232585 0.062611657637 
0.070524993139 0.080291841765 0.084934221707 0.089500983999 0.096832567061 0.094953156678 0.095238945188 0.095941438385 0.098618929288 
0.096878381215 0.096116920334 0.093192089001 0.092397411545 0.095141208227 0.086036422839 0.085469127847 0.078816233994 0.0674892279 
-0.081348930405 -0.0043950935909 -0.0045137091084 -0.0011450796275 -0.0064606294325 -0.0071218493026 -0.0071453766566 -0.0082312255487 -0.0071641641214 
-0.0030228248568 0.0016802500985 0.0073588136977 -0.036204352259 -0.0017878299196 0.012254845337 0.0077006247439 -0.0049618403964 -0.0099254070226 
-0.011139716161 -0.002079980636 -0.006275649482 -0.018951328778 -0.015584981693 -0.01421994672 -0.0018627186238 0.0015473735794 0.0059777341504 
0.02126241627 0.017935899211 -0.00058073157226 0.0048653637205 0.033214712805 0.041116260825 1.7248797337e-06 7.7550891117e-07 5.3199176001e-07 
2.1292846705e-06 2.6617283828e-06 6.6350375268e-07 8.1851636917e-07 2.0634254887e-06 -3.9806684038e-06 -5.2311663729e-06 -9.4577880631e-06 -9.8659526019e-07 
-9.5829373455e-06 -1.7730538148e-06 -2.4576786663e-06 -1.1398336735e-06 -2.4372529072e-06 -4.7225816829e-06 8.4009926158e-06 -4.3815485961e-05 0.0083760490972 
0.014475961433 0.031135654362 0.0048648045372 0.0028195023231 0.0019239755927 0.001332032567 0.00076898766726 0.00038990399974 0.00012659583627 
2.8849339534e-06 -1.0484461229e-06 1.4373574103e-06 8.3967782415e-08 -4.1407843799e-07 1.6798988635e-06 4.272161546e-07 1.0920497095e-06 -3.0663177011e-06 
1.777567243e-06 1.5725961285e-06 3.7209340825e-07 -1.1847586549e-06 -4.9310580171e-07 0.00010734514036 0.00023960784217 0.00032257565883 0.00033975978008 
0.00028700957874 0.00020484199118 9.4013276941e-05 -3.0724547324e-07 5.0125076003e-07 8.5478107099e-07 0.0045826642384 0.00046850201922 9.851082047e-06 
-5.1465481199e-05 5.9258316965e-05 5.6775546459e-06 0.00012160908797 1.4511462803e-05 0.00059715514507 0.0035802557219 0.0068874428171 0.012207142943 
0.023182298126 0.044898509378 0.00028506267644 -0.00066877297652 0.067541898063 0.075739096207 0.082716161777 0.087673015383 0.090985084377 
0.093049336512 0.094865396321 0.095721153188 0.095886920729 0.094452029703 0.092401578081 0.090193956128 0.087370908327 0.083647116127 
0.079497480197 0.073503106227 0.058805030343 0.00041683216617 0.00048219977908 2.2784926805e-06 0.00015715996283 0.00081386018525 0.00013670218584 
0.00019491996867 7.9838389571e-05 0.0055047726311 0.00010289171213 0.00061538939787 0.00056808468223 -0.00049114620127 -0.00047098399094 0.00035341259734 
0.00032107565973 5.3816950825e-08 1.1209065491e-05 -0.00019036849407 0.00073469272026 0.00081233635913 0.00015444223735 0.0077476706189 1.5755845067e-05 
0.0020483865628 0.0090396504116 0.0065082340994 0.013284696749 6.980206134e-05 -5.0232067415e-05 0.00029501526032 0.027570875918 0.0019135017612 
2.3958540904e-06 1.4392517962e-06 -1.8656959385e-06 -5.8945637451e-07 5.1323826891e-06 -4.0522130891e-06 7.5296336985e-07 1.6054835001e-06 -1.9577759979e-06 
-9.2609059757e-06 5.7528635212e-06 9.7843042685e-07 9.609973419e-08 -8.3892225123e-06 7.9557019205e-05 -2.7905181391e-07 -3.6220099211e-05 0.013162263871 
0.032844963555 0.0039804887249 0.0026702993512 0.0015929050005 0.00080765873379 0.00027177812989 -1.0169063951e-06 -9.1964106033e-07 5.8260643694e-07 
2.1581282105e-06 -2.6365736107e-07 2.0585105592e-06 5.1028485567e-07 3.055407206e-06 3.6988316933e-07 9.5758127007e-07 7.7350795529e-07 2.411329468e-06 
3.2865766823e-08 5.2820314098e-05 0.00038467738263 0.00063257208952 0.00073074385288 0.00068325871469 0.0005290494639 0.00032697035147 8.7363471653e-05 
0.0043567093582 0.0055041236974 1.3044909432e-05 -6.5724575391e-07 5.6155036731e-06 0.005327186599 8.8906478896e-05 0.017859903209 0.029018826125 
0.049325210293 0.070346835655 0.073836150121 0.077432305094 0.079803961704 0.080748852519 0.0808110754 0.079752789201 0.077904457757 
0.075382090617 0.072366236291 0.068113932559 0.063034743038 0.057501654715 -1.2057366392e-05 1.5787972712e-05 6.2222292895e-05 0.062868338274 
3.8405198673e-05 0.00024485428905 0.011525949314 0.00093754179846 -5.9303230897e-05 0.021008658093 -9.6711468211e-05 -6.7270719033e-05 0.0081173955595 
4.4527578835e-05 2.8546847639e-05 2.327098382e-05 9.4703037315e-05 4.8854603158e-07 0.013459341583 -0.00013476340983 -2.5008396598e-06 -2.1045088345e-08 
0.00012702094486 0.019713637732 2.57378096e-05 4.9896460224e-05 0.051616710515 1.0230210359e-05 -2.6326031724e-07 -4.9332892127e-07 -6.1996903567e-06 
1.8303339086e-05 -4.8999419783e-06 1.1214302924e-05 -2.3712136646e-05 2.1096909287e-07 -1.0856415981e-06 0.019026882079 1.0651163617e-05 0.0042884390472 
0.0065102812939 0.0013220642042 0.00046502603108 -2.7325775765e-06 -2.7048159839e-06 -2.329999943e-06 2.519159091e-07 4.8191564739e-07 -1.6551101637e-07 
1.1846051473e-07 2.8852285661e-07 5.1722491773e-07 7.3044212006e-07 9.0708349358e-07 4.8076924447e-07 -1.0023453086e-06 0.00043067619905 0.0009429639864 
0.0012489573739 0.0012635634698 0.0010560487942 0.00072460597928 0.00035377714428 -8.8121894585e-07 0.0059745553547 -3.3671662735e-05 0.044356937842 
0.03132253948 0.06511558876 0.060665287251 0.056878257621 0.066544241621 0.065854565712 0.065474314047 0.063758574306 0.061020493026 
0.057920337233 0.054296218069 0.049446417308 0.043193874365 8.3351901076e-06 -1.7024313552e-06 -0.00014651417675 0.0039749563598 0.0090404591122 
0.0025478133016 8.8700956104e-06 3.4102987819e-05 9.0044540639e-06 -2.7125212038e-05 0.036934068693 0.012234570448 -2.7673182775e-05 0.014686895659 
2.1784607006e-05 0.0053863665332 -5.7199672213e-05 -9.5948013744e-07 1.2112419996e-05 0.00012714159614 -1.2728936525e-05 8.7789607034e-05 0.0001253011305 
1.0456311554e-05 0.025420056389 2.2773840861e-07 0.011022679267 0.054783927999 3.3126312007e-05 0.025971292456 0.015560410869 6.0065175408e-06 
-9.7587939255e-06 6.8896665341e-06 0.011922493453 1.6337200921e-05 0.008996553892 -2.2774800627e-05 0.00060123090179 0.0018982408043 -6.2969669132e-07 
1.8817686562e-06 5.1109001556e-07 -9.5712188699e-07 -1.05331259e-06 -8.2092480334e-07 -1.1486144936e-06 -7.0544899758e-07 1.0608390499e-06 1.7464809195e-06 
-1.4427643228e-06 0.00028759617996 0.001245238586 0.0018555156776 0.0020564741554 0.0017965136742 0.0013047203492 0.00073730973341 0.0056290024246 
-6.4597449141e-06 0.050682162088 0.041310695643 0.051003548381 -1.1335211813e-05 0.053910013445 0.041087961683 5.2372912636e-06 0.0506066239 
0.049700386353 0.04735707248 0.0446612596 0.041525170029 0.036662146166 0.031512921975 1.1333257049e-05 0.01300627911 -2.7488525446e-05 
8.933847768e-06 2.6927143566e-06 8.2038300264e-06 7.4520690219e-07 0.011999759662 0.0017906723788 -8.4577658797e-06 0.0057361153507 1.9748194101e-05 
-6.5836955378e-06 0.003483468259 0.015044416576 0.0014020699633 0.018382646256 -9.6085424909e-06 -1.6582485701e-05 1.0951907008e-05 6.8182447715e-05 
0.0017332959377 0.0010309308472 0.026400850207 0.006910125457 0.0011487041358 2.6417959572e-05 -1.3602440546e-05 0.0069781980801 0.0032142559732 
-2.0144160489e-05 0.0088148503308 9.5114936201e-07 -6.3944798496e-06 -3.0281461771e-06 -1.6189595082e-06 -1.9181499296e-06 -1.7815273704e-06 -1.5660569493e-06 
4.020920757e-06 -4.8132081839e-06 5.8330906529e-08 0.0014146813104 0.0026643795231 0.0031836349148 0.0028205133073 0.0019767551664 0.037163568134 
0.03909355731 0.038467872758 -2.9151585473e-05 0.00350538155 -3.1190816558e-05 0.0046084539657 0.034408711919 0.031937242731 0.029962541831 
0.026953480901 0.023041407007 5.2502784183e-06 2.4707732549e-06 0.01614708074 0.0048962827429 2.1645143471e-06 0.0024382547683 5.9525429758e-06 
0.0075955721387 0.010799746105 -1.7327719595e-05 0.0047403005965 -7.7367561422e-06 0.013791093882 0.0039043899376 -1.5039636844e-05 5.2244297007e-06 
1.3670526864e-05 0.001695747776 -1.0291111456e-05 0.024994998955 0.00047516887264 5.5138388876e-06 0.0020239752976 -7.5760392939e-06 -4.1174071228e-06 
-4.8987913167e-06 -1.0687755245e-05 0.0011343446133 0.0039372884704 0.0048473695393 0.0042180309292 0.0028747555708 0.0067745815917 0.020617594293 
0.018252415149 5.7594143741e-06 7.7327360739e-06 0.019204460838 3.4694869625e-06 -3.8931335137e-06 0.0061976429879 0.024388090365 -1.1298650915e-05 
0.0059536119185 1.3292232093e-05 1.0316484135e-06 9.4362233163e-06 0.010706597698 1.6255644846e-05 1.047079373e-06 0.002223123724 0.0023302567632 
5.936691237e-07 1.7025711679e-06 0.010375348659 1.623073559e-06 -9.72884426e-07 6.116217554e-08 1.5428346595e-05 9.8066389137e-07 0.0011353735884 
-8.8344615186e-06 -1.4353599427e-05 0.011502355771 -5.8325457758e-06 0.0054573702071 1.3035847763e-05 -0.00052220762703 0.001417579717 0.56014099599 
0.56136601175 0.34734294809 0.25720797485 0.17050958151 0.27098745329 0.26428398829 0.262028 0.26072200922 0.17702648266 
0.25841199056 0.25883003647 0.2575240009 0.26245099982 0.25377200415 0.25644900085 0.25601199544 0.25811813416 0.17506345177 
0.26340025449 0.2669613075 0.27118898676 0.18248948138 0.20587762694 0.28470784284 0.29384160112 0.1896700653 0.24897949451 
0.25643835185 0.26945199979 0.26734130713 0.26211999803 0.24207802369 0.2060691216 0.24012098892 0.25947503353 0.25898002591 
0.25855401966 0.24232300309 0.24284500763 0.25982699949 0.26093104214 0.26125705203 0.23946006141 0.20630200111 0.24360330291 
0.26319799554 0.26524000207 0.25017524266 0.21940741955 0.23429656096 0.32075394159 2.6576450583e-05 6.81005145e-05 1.2714959514e-05 
1.2760738359e-05 1.2843723144e-05 1.8703311871e-05 8.1820553989e-06 1.2909776088e-05 1.5373748892e-05 1.9562153428e-05 1.3185304403e-05 -8.5195909198e-06 
-2.0340500427e-05 -2.0585540219e-05 -3.860767601e-05 -3.2067829956e-05 -4.912568933e-05 -5.873265526e-05 -4.4095135301e-05 -4.2992854248e-05 -3.2252839815e-05 
9.1192024576e-06 1.7164150587e-05 2.3773691514e-05 3.5987584759e-05 6.310704046e-05 0.0001217998816 8.0411082656e-05 0.056002509547 -0.0048652394899 
-0.0039258809163 -0.0005089567447 -0.00017806420089 -0.00021083040192 -2.3886453605e-05 -5.1627736012e-05 -4.0737902024e-05 -2.7157233274e-05 -1.8819835372e-05 
7.4835815421e-06 2.9352277738e-05 3.8858196866e-06 6.1026022257e-06 8.8663162473e-06 2.0438839319e-05 5.4463677978e-05 4.1880572309e-05 3.547525467e-05 
2.1858115705e-05 5.6852758678e-05 6.1164103497e-05 6.4397660051e-05 6.4086039235e-05 4.2671509071e-05 3.6945980237e-05 4.0339482561e-05 5.0407231992e-05 
3.3799875722e-05 1.7755563389e-05 3.3235435583e-06 -2.849746657e-06 -6.1260593333e-06 -9.3723930331e-06 -6.3799226639e-06 -1.3929800995e-05 -9.1863711922e-06 
-6.3997681387e-06 -2.2786948038e-06 -9.6244841996e-08 5.1201994886e-06 1.4042905479e-05 1.3419966998e-05 1.468243216e-05 -4.8844840372e-07 -1.1732634243e-05 
6.5521995015e-05 0.00010600870006 4.7004922298e-05 -1.7025568419e-05 -7.0274572445e-05 -1.3657699814e-05 0.00024610088293 0.00090471846052 0.00070064889069 
6.173821247e-05 -0.00014130963574 -0.00023860323 -0.00056379855142 0.00065382365334 0.00086436762414 0.00051008033372 0.00021464468822 -3.6116252148e-05 
-0.00015591543213 -0.00047825446098 -0.0024902871937 -0.0025650577323 -0.0015036435457 0.12239565877 -0.048750667522 0.02383185754 0.036716364527 
0.051527372654 0.062117323942 0.061811036585 0.071931837005 0.095459960021 0.096467528164 0.090743188599 0.12120377012 0.13467340196 
0.10015545842 0.042671381658 0.13937863385 0.12031865431 0.085374535353 0.081245773974 0.09074274205 0.096759819154 0.084605454271 
0.050400482163 0.049811950531 0.084418033727 0.0575637656 0.074064520167 2.962003643e-05 7.8615240974e-05 9.8868062248e-06 9.2527610743e-06 
1.1067992829e-05 2.9364401527e-05 1.598524626e-05 9.9341894772e-06 2.0371187491e-05 6.9764978463e-06 -7.1889800135e-06 -2.5389203343e-05 -8.4515829372e-05 
-0.00011189481078 -4.7204936894e-05 -3.2985642193e-05 -5.7534592913e-05 -1.9533891778e-05 7.6626683463e-06 3.4012925911e-05 8.0372235316e-05 0.00016112309273 
0.00010552491752 0.11824577937 -0.0063562013757 -0.0016860726119 -0.00035585894115 -0.00022279430104 -0.00021317215542 -6.6749473411e-05 -3.7175458001e-05 
-9.3033412121e-06 -3.998931819e-05 -1.7237113151e-05 3.8224232229e-06 2.7591907863e-05 2.2359890216e-05 2.7082351665e-05 4.875080093e-05 5.9423787732e-05 
5.5424834478e-05 6.2122696177e-05 6.6585494913e-05 6.4378746279e-05 7.8724849418e-05 5.4089605681e-05 3.6763271672e-05 1.9732145424e-05 3.7136591055e-06 
-4.7151803164e-06 -1.0320534834e-05 -2.7079992887e-05 -1.1641228855e-05 -7.1400289859e-06 -4.6744696339e-06 -1.3786673336e-06 1.2346906462e-05 2.4720660978e-05 
2.2471743858e-05 -8.3618975416e-07 -7.8096719419e-06 6.3336859679e-05 6.1853422249e-05 7.0600960851e-05 7.372430953e-06 -5.4432571844e-05 -0.00019659889448 
-0.00010807035402 0.00058280635447 0.0010625895725 0.00098271029542 6.5880750924e-05 -0.00045666026965 -0.0004585963055 3.0145958323e-05 0.00093316967018 
0.0007096360232 0.00035442808316 5.0849687361e-05 -3.8174709528e-05 -0.00014094027523 -0.00047289515066 -0.0014533371734 -0.0059367129914 -0.015825570196 
0.03507575219 -0.1208103348 0.054850407247 0.045870590335 0.034329886971 0.058057749708 0.080914702263 0.094338625777 0.095217799117 
0.11359296735 0.097641696539 0.10249188282 0.13380632627 0.14392993706 0.022742933756 0.085898798561 0.10310936603 0.093951010978 
0.094310903808 0.085392520977 0.079022427734 0.062312647394 0.054739652608 0.067614920534 0.083214727127 0.090215346544 0.048157625658 
1.9179076287e-05 2.8604083099e-06 0.013124186321 -0.015768305215 0.031415385414 -0.028155825969 0.35684999515 0.35505799717 0.24684924989 
0.25545895455 0.24824889266 0.2188009479 0.21621239998 0.19718666454 0.21887846661 0.19469281182 0.2056186273 0.20447652213 
0.19767946534 0.20724750889 0.19785499189 0.1994139993 0.19814304983 0.20137144101 0.21339092505 0.20673666358 0.20797795553 
0.21041686947 0.20397424509 0.21650745192 0.20611428442 0.20200911117 0.21021774915 0.20964157423 0.20646432254 0.21206422847 
0.20324158649 0.21919257207 0.2006878719 0.20096975516 0.20404710274 0.19545358531 0.20823463569 0.19873287286 0.20134869975 
0.20821955389 0.19221663133 0.20362102049 0.21494090948 0.23769500282 0.25683384065 0.20456394449 0.19998784037 0.20195056102 
0.22764240007 1.1361565124e-05 -7.0892248989e-06 -6.9894989847e-07 -6.078214076e-06 -1.0118521836e-05 1.389062961e-05 -6.4617266925e-06 -8.6641791902e-06 
8.8768924023e-06 -5.492580766e-06 -9.4505859407e-06 1.1375202017e-05 -1.3165281868e-05 -1.2943789763e-05 1.4367955891e-05 1.0629299572e-06 -1.460834362e-05 
2.4390698852e-05 -4.6420584182e-06 -9.3053070262e-06 1.660907444e-05 -1.0550292565e-05 -4.2007057366e-06 2.0132482353e-05 -1.8076071669e-05 -2.3244013468e-05 
2.046480492e-05 -8.8660828218e-06 -6.9494413526e-06 2.2064243534e-05 5.8403246703e-06 -2.0480032594e-06 8.2764612417e-06 2.3711023828e-05 1.8031810668e-05 
-1.3511532422e-05 1.2313315001e-06 1.8994839683e-05 -1.5643570931e-05 1.6282683347e-05 1.6451847692e-05 -4.0151235363e-05 3.8297440687e-05 1.3478536822e-05 
-4.5166857804e-05 2.1052449286e-05 4.6179037678e-05 -7.8550198058e-05 4.2241124354e-05 3.3022066223e-05 -6.4664012996e-05 2.9016713779e-05 1.1892633882e-05 
-6.4098034274e-05 3.4183166888e-05 3.8466494017e-05 -6.1449146522e-05 2.1313710546e-05 1.268246062e-05 -5.2720324157e-05 -3.2735677468e-06 1.0614207646e-05 
-2.6873103196e-05 -2.67640571e-05 -1.6126289069e-05 1.0653673486e-05 9.3219280807e-07 -1.8121934448e-05 1.4380380313e-05 -1.7665462509e-05 -2.5933657021e-05 
3.8645069155e-05 -3.3802730606e-05 -3.8550504952e-05 3.7836619456e-05 -2.3747482065e-05 9.5990542302e-06 3.49270116e-05 1.7575700667e-06 -0.11528628524 
1.2423526383e-05 0.0079098751177 -0.015030997252 0.0062977498954 0.0053663786063 0.0026307495713 0.0034249009724 0.0023612212843 0.0014458424371 
0.0003097584728 0.001050006102 0.00076137245085 0.00085000990173 0.00060432087042 0.00042008667968 0.0004420131489 0.00033220609373 0.00033827503865 
0.00050854909929 0.00026655967486 0.00029564304243 0.00015001295677 0.00015043281588 0.00019631987431 9.5279664506e-05 8.573872045e-05 0.00011852900354 
4.0701982839e-05 6.4192224931e-05 5.6672003332e-05 2.5855250133e-05 1.2548953534e-05 4.2835565929e-05 1.4153784262e-05 -1.0051533507e-05 2.8293683233e-05 
-1.8466778365e-06 1.402670837e-05 1.5578374744e-05 -1.1876401457e-05 1.0889691603e-05 -5.935970234e-06 -4.5157887289e-06 1.6965174033e-06 1.5912572006e-05 
2.3139263778e-06 -1.4481197241e-05 -4.7253362137e-06 8.3414746327e-06 -3.3010260744e-05 -1.6955715154e-05 2.4281819935e-05 -1.0351585432e-05 -1.2142234014e-05 
1.6037772968e-05 -4.5670039969e-06 -1.9349768182e-05 1.9391982003e-05 -9.5010397705e-06 7.363211705e-06 2.4949381162e-05 -2.1733150499e-05 -2.1434439405e-05 
3.4229259172e-05 -1.7864656263e-05 -1.4178777053e-05 2.6133347973e-05 -1.3681018049e-05 -1.6013845851e-05 2.4340207005e-05 -1.8418725488e-05 -2.1695544544e-05 
2.4123253376e-05 -2.5374389074e-05 -1.1452176995e-05 2.6505813261e-05 -7.9205537963e-06 -2.2974693804e-05 4.4137851626e-05 -1.5444705612e-05 -1.8672988397e-05 
3.755456779e-05 -1.8499197551e-05 -7.4882193425e-06 2.3675451631e-05 -1.0077445566e-05 -1.2870892094e-06 1.6908038451e-05 -5.0164304431e-06 -7.8660955567e-06 
7.306306741e-06 4.6016442882e-06 4.0048634167e-06 2.340681715e-06 1.1619302278e-05 1.3577028149e-05 6.9788048085e-06 2.5314566947e-05 2.3446370494e-05 
1.7817059773e-05 3.1923674967e-05 3.0343612948e-05 2.6637572425e-05 3.0000420265e-05 2.7508006317e-05 3.2292601258e-05 3.0772265554e-05 3.4753912578e-05 
3.9623966576e-05 3.4513446898e-05 3.0588873879e-05 3.324898112e-05 2.6697304255e-05 2.1843177294e-05 2.5241512419e-05 1.4734397843e-05 1.1289789094e-05 
2.0874268637e-05 4.3256634654e-06 3.4426558575e-06 9.9663248233e-06 3.6270857743e-06 -3.4393069249e-06 -8.3066225212e-07 -1.5393789542e-06 -6.3917961744e-06 
3.1403884767e-06 -4.2959951924e-06 -7.2056081037e-06 7.101956924e-06 -2.1572429916e-06 5.2484519612e-06 6.8105414643e-06 -2.1343291107e-05 1.8892801694e-05 
-3.4844678789e-05 4.2741834341e-05 1.423045068e-05 1.2514080828e-05 0.00012638043307 3.578487454e-05 0.00030242352677 0.00038983500784 0.00046477131425 
0.00051956087262 0.00022111272071 0.0007598696876 0.00020768730207 -0.00013956753383 0.00029728536379 0.00018278167325 -8.7785121685e-05 0.0002921223241 
-5.8749910008e-05 -0.00016510278715 0.00024695551268 2.8067995504e-05 -2.0125457966e-05 0.00011562587566 0.00014125964886 0.00038086538272 -0.00018184693895 
0.0016254372854 0.0021400863457 0.00095433449724 0.0020430175797 0.0011295182713 0.0021821041058 0.00066655676775 -0.00023289716828 0.001266959715 
7.9438536924e-05 -0.00014710759641 0.00031045892314 -8.4543989168e-05 3.9806957055e-05 7.8939206567e-05 -0.0001626907576 7.5196299283e-05 5.9746075935e-05 
-7.2379970414e-05 0.00032682372675 3.0693189302e-05 0.00027678133599 0.00083034385089 0.00037571986804 0.00077390646109 0.0017125045918 0.0011368177756 
0.0020601432916 0.0035672040175 0.0031640967149 0.0029392582824 0.0047290746178 0.0041355424857 0.0055076158897 0.017229979255 -0.0002209137262 
0.02449674749 0.059627043484 0.06741963219 0.11177383308 0.095013668002 0.065777831329 0.088236742422 0.096937837023 0.068744206454 
0.1012038047 0.10263949797 0.086610599786 0.10322116961 0.10687021264 0.091001045363 0.10390322618 0.11000444451 0.096836669535 
0.1106233662 0.10872521835 0.098964254351 0.1172256641 0.11674064758 0.090983787218 0.10292714804 0.11346091295 0.094156970307 
0.11506291998 0.11520061913 0.10339602556 0.11425575355 0.11632582783 0.10638054938 0.11522236376 0.1176325749 0.107151701 
0.11387991641 0.10814779935 0.10816572622 0.10886013736 0.11504221215 0.10066319873 0.11754358635 0.11504349292 0.10736646984 
0.11345305224 0.11313489995 0.10826301806 0.11217983032 0.11372409094 0.10518196192 0.11033586469 0.10505245324 0.10183664708 
0.11485245215 0.11274264034 0.090558505279 0.10030459064 0.10729441562 0.090888446734 0.10866581012 0.10507262655 0.09861740077 
0.10475461947 0.10197564958 0.092271812798 0.10520338332 0.096132128628 0.08519516512 0.10342515368 0.10148528372 0.06945371297 
0.085981632829 0.081307291206 0.049312246243 0.011069796333 0.024503695241 0.011876668989 -0.010256731237 0.0036228409111 0.0016420493527 
-0.0033479152151 0.0041745022506 0.0011719061628 -0.0097963314959 0.0061460454565 -0.00022953238947 -0.0022084680219 0.0054926976849 0.0027452164137 
-0.0014347766671 0.0074070024659 0.0038149321028 -0.0016395929262 0.0063533146134 0.0031242064234 -0.0019979438043 0.0085198777527 0.0053290898774 
-0.0028509576313 0.0035627857112 0.001925757795 0.00014714217257 0.0079337923444 0.011992397922 0.00032275386089 0.024078773226 0.0086401040233 
0.0056438816085 0.018473289699 0.0059382931946 0.024603413794 0.0048140192819 0.029285120971 0.045944565276 0.028827163651 -0.0054958798318 
0.016927053864 0.011407045643 0.0054128022335 0.0078614503303 0.0029157065122 0.0064046087199 0.0058678385292 0.0038553482461 0.0060578279233 
-0.0029529871224 0.0059907842037 0.0096171651761 -0.0038190099222 0.012578689913 -0.0030930726711 0.0097641878636 9.2884146078e-05 -0.0075566508518 
0.0083965479031 0.010904642459 -0.0034533525774 0.010760683268 0.010500626421 0.011856027168 0.0052925722052 -0.026922736965 3.8588583582e-06 
0.062335855548 -2.2010510492e-05 -1.0466466927e-05 0.00084777256161 0.042632307101 -0.00056728355356 -0.0070817138372 0.015347489596 0.006447126518 
0.018109595671 0.0066616174043 0.012396549473 0.033896824977 0.043208932345 0.015765072843 0.031363658676 0.016450262841 -0.0077546986501 
-0.0077299881223 -0.01505215409 0.0096312668595 -0.0021792761892 -0.0032341327791 3.2738067003e-05 0.038078891367 0.011137460137 0.019732670442 
-4.8449315568e-06 -7.4278615547e-06 -5.0305027836e-06 -1.2446232618e-05 1.5779503696e-06 -4.7912440295e-06 -1.025608656e-05 1.12649039e-05 -6.5599819327e-06 
-1.531525734e-05 2.1788081757e-05 1.7511905448e-06 -1.7568852172e-05 1.9549854488e-05 -5.0318557065e-06 -1.5583043065e-05 1.1954963493e-05 -1.019673605e-05 
-1.2734521101e-05 1.0907554319e-05 -7.2198399725e-06 -4.564240468e-06 2.2454458571e-05 3.1223150859e-07 -4.8182080816e-06 1.7271748785e-05 -2.4049564943e-06 
9.1329271961e-06 -8.5446463366e-06 3.1951637804e-06 1.8155174854e-05 -2.9944381386e-05 1.3956715534e-05 3.246130467e-05 -2.9956520496e-05 2.9681388872e-05 
2.8606770121e-05 -2.7890742295e-05 1.5362043162e-05 4.2455903356e-05 -5.2946343803e-05 2.4205113539e-05 4.5515068492e-05 -6.0532591865e-05 2.8710240995e-05 
2.9474002826e-05 -6.8284186107e-05 4.499923595e-05 2.9998704639e-05 -4.5297051738e-05 3.300582585e-05 8.7395872596e-06 -5.251372716e-05 1.8257349019e-05 
6.8702313284e-06 -4.5409592994e-05 1.3225708296e-05 -3.7154713831e-06 2.2240930873e-07 8.0405296997e-07 -1.3614285073e-05 2.6675188054e-05 -8.2619387285e-06 
-2.7555679333e-05 2.4809204679e-05 -1.0305055736e-05 -2.1166297456e-05 1.1126840908e-05 -2.1880569335e-05 5.3334270171e-05 -1.0096274781e-05 0.012902374129 
0.0087533969319 0.007264839467 0.0050086218566 0.01151170135 0.0043198321384 0.0034134267637 0.007010060381 0.0028109508043 0.0022481376274 
0.0043825609401 0.0018516211173 0.0016167670597 0.0027956956973 0.0012975131204 0.0011113343665 0.0019008986744 0.00084845941709 0.0007571076726 
0.0012952308864 0.00053687539763 0.00046009830952 0.00083598753283 0.00029820218362 0.00026345910187 0.00054635355119 0.00015309186468 0.00015312409915 
0.0003037163111 3.2089150849e-05 5.636683825e-05 9.8667372198e-05 2.5015007829e-05 3.3178213883e-05 -3.2586295951e-05 -6.7925343158e-06 1.3333936663e-05 
-4.2209199102e-05 -1.1598593336e-05 2.347784595e-05 -1.8553127911e-05 -8.5741371115e-06 3.606937464e-06 8.0214114511e-06 -2.743296375e-05 -1.1595975012e-05 
2.8225676099e-05 -4.3626137687e-06 1.6478423059e-06 1.1465369624e-05 -2.4291034154e-05 -3.6350280443e-06 7.4156836751e-06 -1.7207661418e-05 -8.1275739371e-06 
2.9666799171e-05 -2.5341265002e-05 -1.1943390671e-05 3.503803639e-05 -1.0576358463e-05 -1.0327395845e-05 2.1286072784e-05 -9.0026705344e-06 -1.3321556811e-05 
2.5941517159e-05 -2.0301557236e-05 -1.2493121936e-05 2.4502258627e-05 -2.3209492038e-05 -6.1968259241e-06 3.5394076661e-05 -1.0853184348e-05 -2.170388615e-05 
4.1818551184e-05 -1.4919453211e-05 -8.4953336655e-06 2.6736415998e-05 -1.73359135e-05 -9.1272740849e-06 2.2283207565e-05 -1.2089294645e-05 -3.0478669874e-06 
2.0972811826e-05 -5.0270842592e-06 8.9109591539e-07 1.4144911218e-05 8.2132247927e-06 3.9265567034e-05 -3.067577485e-06 7.2173781993e-05 9.4981648743e-05 
7.8364599703e-05 0.00012284194442 0.00013256241285 0.00014558941861 0.00015462174228 0.00015928043221 0.00019955226425 0.00016910315087 0.00017077759538 
0.00023648044763 0.0001719245042 0.00015946259193 0.00024202972471 0.00015128205157 0.00012935694802 0.00021580457945 0.00011166547112 8.1804074749e-05 
0.0001699493136 5.7560622249e-05 3.4056266196e-05 0.00010563460618 1.2606678002e-05 -4.1030177124e-06 2.8296347182e-05 4.1241173102e-06 -5.9155833661e-06 
1.115067016e-06 -1.0013661098e-06 -5.0681886738e-06 3.3358127508e-06 -4.3275888987e-07 3.6618901224e-06 6.6900076039e-06 0.030310476325 0.042253462516 
0.043645578909 0.01306005502 0.014031753191 0.020873873447 -9.9645167591e-05 0.00033175833764 0.00062533316996 0.0013793407491 0.00082828384908 
0.0018600353138 0.0017220213291 0.00099045243659 -0.00037199177009 0.0018605625368 0.00013398520605 -0.00037814100991 0.0006431340244 -2.1414171452e-05 
-5.0750818731e-05 0.00034347242029 -0.00019713936053 0.00031628222312 0.0016385044382 0.0067473557592 0.0021428095345 -0.00090002451682 3.7941901028e-05 
-0.00035534044736 -0.00016406868203 0.00019639693829 -1.7286044685e-05 -0.00025209560234 0.00024405635905 -0.00028276088847 0.00054939812333 -2.054133588e-05 
0.0011212412704 0.0025941234707 0.0012029167464 0.0035134449096 0.0055089159446 0.0045893170526 0.0072711991123 0.010201180631 0.0097187784524 
0.014800924853 0.014884554804 0.02348285627 0.019153776285 0.018680531463 0.0005259937951 0.006770802268 0.0018534349367 -1.1607128263e-05 
0.057783248318 0.067788830914 0.048749974214 0.080324460633 0.077669321277 0.065261282737 0.085460549609 0.083707814813 0.075004217321 
0.089172092666 0.087668320626 0.081097226096 0.093022646932 0.093750632188 0.086151585923 0.093422585781 0.092986644588 0.090936248974 
0.093876401649 0.098534400041 0.094540803242 0.10250280936 0.099704365911 0.095875347611 0.10112490187 0.10053347948 0.09637982663 
0.10177918051 0.10160348293 0.097257582068 0.10255878406 0.10057781691 0.098121285339 0.099830515888 0.10240667267 0.099158644657 
0.10134064205 0.10147384831 0.099505557713 0.10052865394 0.10104474437 0.098522792948 0.098975382568 0.10001375516 0.096366889733 
0.097208557986 0.10050448032 0.094346505746 0.094889679122 0.09064214906 0.093303152357 0.087453343402 0.088935001427 0.089950261871 
0.087946876151 0.086925861646 0.085243136426 0.082195583274 0.08188890536 0.078813660386 0.077146395246 0.077979701213 0.072270733316 
0.067125720313 0.06186588317 0.049461185439 0.062164358361 -0.0013034319476 0.0076764224649 -0.0011316445738 -0.0050940303993 0.0013150000234 
4.7081760404e-05 -0.00038055872287 1.4509223664e-05 -0.00093070614306 -6.8937149147e-05 -0.00052780394886 -0.0009476361183 0.0009210368872 -0.0016909467918 
-0.001744535925 0.0011921737133 0.00021614272568 -0.00062265681659 0.00038087089434 -0.0021074999483 0.0015563355397 -8.7868270599e-05 0.0051493355198 
0.00077068611236 0.00073718523872 0.045610274348 7.6725615054e-05 0.00023578311514 -0.0022951644017 0.0012036196705 -0.00075851035008 -2.2344157146e-05 
0.0098426126393 0.0056579465095 0.00023762534207 -0.0012535746986 0.001193724324 3.8328984198e-06 5.966587106e-06 -0.0015739935584 0.0001205767885 
-0.00015139212655 0.0013838217574 -0.0018704235818 0.014228312584 -0.0022784466224 -0.0008710561426 0.00051400774831 9.5049179965e-05 1.3644096073e-05 
-0.0013430953773 -0.0013643874548 -0.00010067542063 0.0011535055905 -0.00038452871315 -0.00063276902147 0.0067872871975 0.00073913199295 -0.00093925596119 
-0.00053471995723 0.00014031974619 -0.00043140062974 -0.00055935354371 -0.00044768736405 -0.00012678335963 -0.0036115091122 -0.0051462379489 0.0012936206058 
2.9117116306e-06 -4.4152879358e-06 8.0994309188e-06 1.3566623901e-05 -6.829176514e-06 -1.8808359467e-05 1.9322679453e-06 -8.7746398002e-06 0.0066548010003 
-9.6777021573e-05 0.0016634466993 -0.00033221371817 0.003507610094 0.0028626165662 -0.00014615685342 0.011404841612 0.0025520144213 1.6771801967e-05 
4.4363552857e-05 0.0013931806246 0.00081405186148 0.01033289085 -3.1259276551e-05 0.042767445594 0.0072081883115 0.019790429807 -0.00063106175375 
0.017370381766 0.0097727557856 0.0044095493037 -0.0026437648408 -0.008528687036 0.002690701959 -6.6442344031e-05 0.020069216562 0.029266465617 
0.033589179386 0.0080891350472 -0.00027013062355 -2.2377055301e-06 -5.6279655253e-06 2.701636397e-06 -6.9612973993e-06 8.0416519473e-06 1.5930416044e-06 
-1.8992261008e-05 8.4762947821e-06 -5.2565256902e-06 -2.2988374141e-05 5.8754035015e-06 -7.7526846701e-06 -1.3639754287e-05 7.5364567084e-06 -5.4361516383e-06 
-1.2591735977e-06 2.3222109865e-05 -7.192656753e-06 7.2270931301e-06 2.7814759427e-05 -9.1965536428e-06 8.2307965673e-06 1.5331632071e-05 -7.1688783962e-06 
2.3147136479e-05 -1.0905423036e-05 -1.1167605544e-06 2.6738182306e-05 -1.8750214913e-05 7.3564078057e-06 2.2719448359e-05 -1.3100482693e-05 1.68012923e-05 
3.7651266999e-05 -2.3049197375e-05 2.3336070238e-05 4.6980082027e-05 -4.8806161498e-05 2.0411037712e-05 3.9710814941e-05 -5.8591112686e-05 3.6056687723e-05 
2.0389046829e-05 -4.8214899402e-05 4.0744581251e-05 1.4440852534e-06 -4.8996242009e-05 4.1398150343e-05 -7.4762646299e-06 -4.8190214345e-05 3.2138570687e-05 
-4.9808680943e-06 -2.4706395752e-05 1.1339405006e-05 -1.6563476774e-05 -9.9468961713e-06 2.0449051736e-06 -1.318855922e-05 1.9650582746e-05 0.00029369477129 
0.001328215666 -2.1771513042e-06 1.3699116987e-06 4.9168198685e-06 0.013895084653 0.010811353621 0.0089833864621 0.0073416428252 0.01335457193 
0.0065065174933 0.0053157893159 0.0091153659067 0.0044931381933 0.0036524200287 0.0065290247525 0.0030817123173 0.0025822248384 0.0044770722216 
0.0021054940377 0.0017663205745 0.0030800036667 0.0014103056616 0.00114377437 0.0021435628154 0.00086536390836 0.00069656595757 0.0013718355675 
0.00046681713995 0.00036562565263 0.00076749854931 0.00019492595261 0.00012342594737 0.00035414304331 1.0651613472e-05 9.8814062106e-06 7.2910761115e-05 
-6.5197893834e-06 6.6361060195e-06 -5.5255873879e-05 -1.6886732882e-05 2.0462353527e-05 -2.6616437699e-05 -7.1073299911e-06 7.9490027625e-06 6.4753847911e-06 
-7.7726813098e-06 -1.6408257298e-06 1.366782307e-05 -1.8629086343e-05 -2.7095589108e-06 -6.3766485635e-06 -2.5635954315e-05 -9.6141428218e-07 2.2379317574e-06 
-1.4874703229e-05 -8.5787035856e-06 1.7272080773e-05 -1.1057662251e-05 -1.0251353161e-05 3.2578186475e-05 -2.0062041035e-05 -1.8397177488e-05 2.273239499e-05 
-1.8236267505e-05 -7.901423527e-06 1.5934329841e-05 -2.5501871977e-05 -6.413772348e-06 2.7594241496e-05 -1.3940040903e-05 -1.3267601751e-05 2.9152985328e-05 
-1.0572567662e-05 -1.0179498612e-05 2.2853400192e-05 -1.9439428822e-05 -3.1974181071e-06 1.1816736809e-05 -1.4868183595e-05 2.5125991526e-06 1.3206300627e-05 
-8.8014065097e-06 3.446005841e-06 1.3446729644e-05 -6.5914607681e-06 2.3572635945e-05 5.7003551856e-07 0.00010724694418 0.00018204794272 8.8329704155e-05 
0.00025085411283 0.00030800622357 0.00029067419507 0.00035986066478 0.00039294406036 0.00043597265366 0.0004231990069 0.00043478479635 0.00053655962992 
0.00044238532224 0.00042819350167 0.00057613487448 0.00041325617127 0.00036986061425 0.00054800539802 0.00032908289089 0.00027038592113 0.00045787830028 
0.00022007749658 0.00015033819813 0.00032840899215 8.8705958971e-05 2.2458025081e-05 0.00016278287769 5.4883408258e-06 -7.3806975171e-06 2.1072899784e-06 
4.5483020686e-06 -4.9926515021e-06 -1.7420930796e-06 3.9199986028e-06 -5.6238685805e-05 7.7008190645e-05 0.00016243813824 -0.00043899436281 0.0023488240309 
0.0035799318538 0.0024200664103 -0.00035804310947 -0.00047805117979 0.017085163873 0.025602338992 0.047412426649 0.034032986448 0.027236042746 
0.0013733427589 0.0039788037292 0.0059397374322 0.0092231584122 0.0067187075705 0.012224514895 0.016666397943 0.014223724801 0.021015564204 
0.0272932105 0.02403721753 0.00033915645143 0.00037616574838 0.00059607982192 -0.0010019778896 -0.00052174244261 -0.00081297780625 -0.00054150854199 
0.0096069133634 0.048597458024 0.057303707462 0.064398368584 0.068760555937 0.052995947243 0.070833144193 0.07247428467 0.061588985715 
0.07630917064 0.078748213552 0.066789350118 0.082218557662 0.08406748315 0.073649762125 0.085340498047 0.085899727105 0.078633484382 
0.087336682757 0.087646604716 0.08029674087 0.088814464465 0.088704116216 0.081127335025 0.089944576627 0.090101039152 0.082538491921 
0.090724529544 0.090950709723 0.083795205359 0.091276293632 0.090517996008 0.084433191858 0.090418707862 0.090874277761 0.08460995989 
0.08991113878 0.089530602524 0.083794187955 0.089286444604 0.087834973669 0.082319386006 0.086926244558 0.085996377306 0.080238717383 
0.084755145634 0.083308524271 0.07779077252 0.080340893403 0.078494846144 0.074413028122 0.07550697068 0.072186039178 0.069148513739 
0.068678200852 0.065683988134 0.062134448629 0.062595733849 0.058568398434 0.054404967554 0.053042086249 -0.00030142883815 0.00034403564659 
0.022638083545 0.017142806921 0.021081840554 0.032105086915 -3.8220625618e-05 0.0016318609289 0.00012639493374 -3.0877664239e-06 0.00043975601607 
3.8229754458e-05 0.00027012979256 -3.4781460878e-05 8.4282519122e-06 0.038799429541 0.00068471034053 0.00022793669468 -0.0004228241625 -0.0001446893668 
0.00036214593553 -9.184640412e-05 -0.00013462624907 -0.00013582887738 0.00026468690032 0.0038460941502 0.0016777281418 0.00042592892291 0.00025993167576 
0.00030219090806 -0.00065523598848 -0.00062460488506 0.00024203335379 1.3863916991e-05 0.00024084167547 0.00051005397602 0.00017456692111 0.0012441707357 
-0.00098135530441 0.00098420187255 -0.00025959652766 -0.00041546402494 -7.5247462673e-05 0.00032285789676 -0.00025130956385 -0.00055811488579 -0.00050442737844 
0.00020711256118 -0.00029183592813 0.00033406586099 0.00097166651844 0.00021091044811 0.00025825012738 -0.00030577123354 0.036443003719 1.0809243951e-05 
-1.1996778088e-05 3.8190073094e-06 9.6358782825e-05 -0.00047535681394 -0.0041024686992 0.00046453359938 0.00070628091709 0.00016382884218 1.7888304709e-05 
8.5739759511e-06 4.1824669208e-05 3.4483527083e-05 0.00018028171706 0.00046533629373 0.00013644408979 0.0036068195002 0.0050307124836 -7.5773168258e-05 
-6.2534797448e-05 0.0042696082478 0.0063878247796 0.0072218373145 -0.00019703927956 6.0680134122e-06 0.0067397580011 0.011318273991 0.045704808764 
0.00084213687535 -0.00054760115243 -0.0013281852104 2.596933935e-05 -3.1978806294e-05 -0.00039729421789 0.021064813935 0.013241969907 0.021929391305 
0.035205333507 9.0901124124e-06 -2.4207612987e-05 0.0028122361307 -0.0002223553565 0.018071746505 0.020777384848 0.0139974731 -0.00033286328293 
-7.3499049581e-05 2.0591761374e-05 8.6101568335e-05 -7.8978391133e-05 -1.9307868755e-05 8.2614215488e-06 1.045856542e-05 -1.345357663e-05 4.559597729e-06 
-1.9342166257e-05 -8.4406499508e-06 -5.1471564987e-08 -1.512298806e-05 -1.3363729444e-06 -1.9095764621e-07 -6.5564161918e-06 1.3310805315e-05 -1.1736947253e-05 
3.9514679259e-06 3.0611007765e-05 -1.4290638031e-05 1.7617729349e-05 3.0562814406e-05 -2.4299946977e-05 2.1336398643e-05 7.9995701398e-06 -1.5816335485e-05 
3.2833028785e-05 -7.1751589282e-06 -2.6459358897e-05 2.8873155299e-05 2.1190929937e-05 -9.8906143912e-06 4.4946078637e-05 -1.4821578204e-06 -4.7094710191e-06 
3.6730545296e-05 -4.4851027096e-05 1.4027371679e-05 3.5680714212e-05 -5.6446361804e-05 1.7525531804e-05 2.0103636036e-05 -6.6496068686e-05 2.6774003124e-05 
7.3528429327e-07 -5.3823659475e-05 5.5981968031e-05 -1.8893394904e-05 -2.996169264e-05 3.6790392492e-05 -2.223753517e-05 -3.2958598061e-06 1.9086445339e-05 
-2.7986824226e-05 -1.6522441254e-05 1.4447768695e-05 4.4384040183e-06 -1.3175867952e-06 0.0010440379393 0.0021974306229 2.7220141919e-05 -0.00057027485392 
-0.0006176762697 0.00059932318286 0.0072465790528 0.011446939146 0.014293705134 0.012226745444 0.010698531073 0.008889158825 0.014183635957 
0.007613655835 0.0063788167417 0.010549285029 0.0053612427145 0.00453340982 0.0075254580817 0.0038103311234 0.003149803646 0.0053476677664 
0.002577495393 0.0020653171544 0.0036891309474 0.0016146234357 0.0012671203795 0.0023976602027 0.00091742375487 0.0006940263374 0.0014144189087 
0.00041547775361 0.00024016302545 0.00073179148745 2.3981812542e-05 8.8077262854e-06 0.00021853781966 9.7273772626e-06 1.7122821456e-05 -5.0236968257e-05 
9.5357065769e-06 2.3753963609e-05 -1.3536683856e-05 3.2677945795e-06 1.2227546349e-05 5.8720958408e-06 -9.2101498813e-06 -1.4380405484e-06 3.1809341174e-06 
-1.4924714958e-05 -1.0270612031e-06 -1.1697542171e-05 -1.5238781509e-05 4.5695503414e-06 -4.4447245385e-06 -5.768121861e-06 -2.6569186762e-06 1.4496167017e-05 
-4.5524206998e-06 -7.749165174e-06 2.1275357102e-05 -1.7466954029e-05 -1.1191401871e-05 1.3193961014e-05 -1.9520936449e-05 -3.7653885065e-06 8.2622894104e-06 
-1.8569807928e-05 -1.2472020102e-06 1.6857483883e-05 -1.1902790876e-05 -5.6279813441e-06 1.8348871648e-05 -1.1248886783e-05 -1.516040341e-06 1.3171834845e-05 
-1.9729075271e-05 4.1871885476e-06 -8.0791538237e-07 -1.6616887216e-05 7.5778177935e-06 3.4446740182e-06 -9.757167566e-06 1.1032086938e-05 2.7575556736e-06 
6.6068208827e-05 0.00022685649536 -8.9398438033e-06 0.00037158026815 0.00050607149973 0.00038198762439 0.00060399682814 0.00069131727929 0.0006870456383 
0.0007691066051 0.0008111839187 0.00090161243622 0.00085400887212 0.00085517400241 0.0010462121282 0.00083870902639 0.00077886504217 0.0010593722078 
0.00070282655995 0.00060517420098 0.00092688401238 0.00051167547476 0.00038884079572 0.00070230609633 0.00027007100764 0.00014575222793 0.00042053862205 
2.3594906559e-05 -1.0037640522e-05 0.00010349222963 0.0031026273918 0.0011918907696 0.0064919077422 -0.00013535953461 0.00066017374622 -4.2772543811e-05 
0.00026417243667 0.00036544726016 -0.00023380265901 0.00016833159263 0.00032686453241 -0.00026423847252 0.036829417625 0.034054664077 0.015283191299 
0.02065642857 0.016283210797 0.025524170086 0.031817620305 0.027350987353 0.0011419964996 0.0063234837234 -0.00028455185602 0.00061466780467 
0.0040286462874 0.0072737308817 0.055644559222 0.058815054186 0.064891514216 0.068471135219 0.054643138936 0.07115465935 0.072290122827 
0.063110271747 0.071742401247 0.072233210346 0.064848006891 0.073230298917 0.07370991852 0.065322952219 0.075032972199 0.075798927227 
0.067614466748 0.076701096603 0.077094838914 0.069756862416 0.07722472465 0.077380219598 0.070594706346 0.077326694673 0.077177769713 
0.070612390896 0.077020699483 0.076467826275 0.070372894857 0.075627913788 0.07478919021 0.069507347128 0.073154575313 0.072084599007 
0.067171070934 0.070388279696 0.069147725996 0.064141982144 0.067047206143 0.064871260044 0.060639116818 0.061977406248 0.059221337097 
0.056060204217 0.055255009786 0.05156881963 0.049922463003 0.045964881106 0.042688199563 0.041118130132 -4.4282914074e-05 0.00066029348901 
0.0001041068541 0.00020088919794 0.00017990892499 -0.00040323333555 -6.7336475812e-05 0.00034987020388 0.00018431586205 -0.00028233040159 -0.00015043668754 
4.5411988153e-06 -4.7093338226e-06 -3.0686537847e-08 0.043873730849 0.00037788197067 0.00014916113019 -0.00041179070608 -0.00012121024986 0.00029280548373 
-0.00015807099448 2.2088967486e-06 -1.207360384e-05 -4.5668092698e-06 -1.5211998367e-06 -0.00024597035655 0.00027764021283 -0.00017552755666 3.8490666064e-05 
9.0711014707e-06 0.00036795573209 -7.8363833767e-06 -0.00046857987255 -0.00019151508744 0.00029314092062 0.00028767754155 -0.00030613728814 0.019091112248 
0.015634763118 0.018325785845 0.002696549115 0.0039970315627 0.00010470949611 0.0056642601937 0.031438045955 0.037389633541 6.6910028239e-05 
0.00078635129532 -0.00011864141334 2.766216135e-06 -0.00046198297216 -0.00014784729364 0.00049824015137 -3.1214846584e-05 0.00010073867693 8.3660199594e-05 
1.9800509654e-05 0.0021223365407 -0.00076704182992 0.00034273146603 0.038674557537 0.046381979783 0.0042224634166 0.0071596999409 -0.00024748199135 
0.00032371212804 -4.1784443925e-05 0.00028458340119 -9.594959987e-05 -0.00024106896505 0.00022523103089 0.051944408176 0.053029100916 0.0069713675347 
0.017085862274 0.089062716038 0.087911105814 0.0034051209729 4.380440932e-05 7.4445453559e-05 0.040954559221 0.0046592354495 6.5383153697e-06 
-1.4837000906e-05 -1.1584345426e-05 -5.4345447211e-06 -2.0275912742e-06 5.8152497152e-05 0.0001922588671 5.7645912336e-06 -1.4904247701e-05 -6.7955148753e-07 
-1.4758318543e-05 0.00039900983377 -4.0905798482e-06 -1.9590895803e-06 0.00037647864151 -2.6429513519e-05 -2.2502511756e-06 3.621307179e-05 -4.1271516771e-05 
9.9720003965e-06 1.8336061572e-05 -1.8359784682e-05 -1.8229611557e-05 -4.0132637211e-05 2.2376091007e-05 0.077247384227 -3.5635223911e-05 1.7505979462e-05 
2.2973790675e-05 5.7639061935e-06 4.8547006274e-05 8.0041109898e-05 -5.8556551543e-06 2.1068118048e-05 -4.3361337706e-05 3.9213509885e-05 2.2773026333e-05 
-3.2787792691e-05 2.3139930207e-06 2.3272698534e-06 6.4110273236e-07 8.8604675595e-05 -3.1433121697e-05 1.2539490027e-05 -0.00042288198778 -0.00029728751031 
0.00013793255579 0.00030928069856 9.3307879183e-05 0.02015903739 0.017428972439 0.015005714667 0.012764315876 0.019551832235 0.010939416738 
0.0092944985293 0.014407329498 0.0079857895358 0.0067220834078 0.010466242691 0.0056497705325 0.0046558239569 0.0075939337413 0.0038432554522 
0.0030842892412 0.0052587426414 0.0024424482586 0.0019392273395 0.0034801173049 0.0014499940711 0.001080438216 0.0021320925883 0.00068180060426 
0.00037751152184 0.0011410658338 4.229127674e-05 1.2130960989e-05 0.00033419680857 1.4878387845e-05 2.5747166898e-05 -5.0465229073e-05 1.1383695165e-05 
2.4354820638e-05 -7.5011602416e-06 1.130297814e-05 1.5352782026e-05 -2.8480083072e-06 2.1406444033e-06 7.3134370994e-07 -2.4231320233e-05 -1.4813356347e-06 
-5.3201294262e-07 -3.0983105919e-05 -4.7445286578e-06 5.9382793188e-06 -1.6010016733e-05 -1.1214548602e-07 2.6031264955e-06 5.4578083763e-06 -2.4604272178e-06 
1.3261344131e-06 4.6849374922e-06 -8.0668547166e-06 -2.6307324581e-06 -3.8961354597e-06 -1.3281350607e-05 -5.6255712359e-07 2.4269551471e-07 -1.1396233548e-05 
3.1418063603e-06 5.9442020136e-06 -8.5137792126e-06 8.4571940396e-06 3.7824606026e-06 -1.1184474167e-05 1.117010998e-05 -2.0247919179e-06 -2.1672064824e-05 
1.502465905e-05 -8.7150453355e-06 -1.4335265437e-05 1.3585773981e-05 -9.4264679277e-07 -8.7081944025e-06 0.00019394120988 -9.7215509972e-06 0.00045760167233 
0.00069366891735 0.00042545217544 0.00089691200815 0.0010475410009 0.00097881126104 0.0011286973041 0.0012414150777 0.0013312734869 0.0013944530578 
0.0014609097981 0.0016084787739 0.0014685275907 0.0014005925188 0.0017651154599 0.0012757073209 0.0011272038985 0.0016231260965 0.00096553152836 
0.00078867886603 0.0012585395627 0.00058399488644 0.00036918229652 0.00081317871367 0.00015469017532 -5.2600440135e-06 0.00030343935034 0.0011578936961 
0.003157012782 0.025629563238 0.022735272195 0.025797171873 -3.3044253211e-06 1.6386507919e-05 0.00030273979947 2.7424839607e-05 0.00018702220677 
0.0083059162662 0.01063261444 0.014022012975 0.016959010798 0.022826050259 0.027965787696 0.034737232012 0.029127490579 -8.2434410209e-05 
0.00030923274579 -0.00020793005302 -0.00011417967362 0.0032431300515 4.3864143101e-06 2.6782932151e-06 0.057286712867 0.05672981916 0.057347359895 
0.057960361304 0.050057755956 0.059201511603 0.060471488764 0.051737367963 0.062790355876 0.063617778083 0.055154702526 0.063230298397 
0.063219701463 0.056953460607 0.062804474545 0.062673609136 0.056212641909 0.062209586182 0.062086600611 0.055230077517 0.063099326311 
0.062375041655 0.055764481317 0.060165802979 0.058645174374 0.054677798215 0.057135195176 0.055705811156 0.051247704769 0.053792978228 
0.051932744497 0.048131121555 0.049804772013 0.0472552838 0.044456099291 0.044288165536 0.040802097872 0.039643477834 0.037357730735 
0.032004491212 -0.0001852157237 0.00020975556129 0.00023094009169 -0.00018372650494 -0.00023924250402 1.310257611e-05 -7.8336724243e-06 0.00024260094019 
1.2838979274e-05 0.00011369593829 -0.00019625699785 6.4297168185e-05 -0.00019081977415 -3.9969876904e-05 9.0726374422e-05 -6.6728905188e-05 0.0079312935499 
0.0020145070158 0.0072356324747 0.012044598237 0.017263889132 0.0070297073494 0.025289197631 0.028042359324 0.00030570770982 2.6773285355e-05 
3.174046676e-05 -4.21264353e-05 5.5929342017e-05 -0.00018460050378 4.9454148449e-05 -0.00026224171929 0.00028783437746 0.040989583897 0.049210248897 
0.0020369348117 0.0040269492508 3.6844720383e-05 -4.2133134728e-05 -3.5849869986e-05 0.00018546950881 -0.00012422923437 -6.5375707026e-05 -0.00010784776978 
0.00025554320357 3.3993350201e-05 0.042320417367 -9.7520615154e-05 0.00010859158168 -1.7258327448e-05 7.9584686973e-05 2.809941322e-05 8.4182566487e-06 
-4.720373369e-05 -3.1300281477e-05 -6.8677653893e-05 8.2974560008e-05 0.033493249475 0.054969296726 0.068864006096 0.08332947597 0.010973369527 
0.01312129486 0.01147732721 0.0056341569254 0.013560298218 -0.00021081252824 -2.0184425952e-05 -0.00019411116657 -8.6396198418e-05 4.5491654593e-05 
0.0012883407242 0.0011741485182 -5.3877960143e-05 2.0084223625e-05 -4.9730870948e-05 4.2428527643e-05 -2.9566779349e-05 5.7249079675e-05 0.00010931762296 
-6.1203916938e-05 0.00070734835476 0.0052179040068 0.0068512083519 -5.0712912695e-05 -0.00011617124793 3.7545215627e-05 5.6649565712e-05 0.019397761222 
0.016466306516 0.014044734894 0.012088871379 0.018004997279 0.010366113818 0.0087089091103 0.013156591608 0.0073511336138 0.0060620830054 
0.0095382680704 0.0049771480228 0.0040333789888 0.0065890240606 0.0032776823979 0.0025963681767 0.0043887397096 0.0019575296033 0.0014283164288 
0.0027696614939 0.00089126620501 0.00043423778724 0.0014610722215 4.8035248113e-05 1.5386448027e-05 0.00035552432782 3.9228534961e-05 1.8506547175e-05 
-4.4523652178e-05 2.0916602681e-05 1.8940825436e-05 8.3102086615e-06 1.031037176e-05 8.7703401996e-06 -5.9610452001e-06 1.7240224156e-05 2.5706813397e-06 
-4.0648132634e-05 1.2273130442e-05 5.3627682003e-06 -4.5457121595e-05 7.7268650088e-06 9.9494221791e-06 -2.4394720279e-05 4.4220675815e-06 9.4336853007e-06 
-2.1043061328e-06 5.0793481437e-07 6.1702125321e-06 -5.3822252428e-06 2.8506016838e-06 1.8441787422e-06 -1.9625247657e-05 -1.3154530269e-06 6.2635240983e-06 
-1.0028095611e-05 -4.1531303669e-06 1.7770598075e-05 -4.7175205173e-06 -7.2154258226e-06 2.8671154349e-05 -6.9744754396e-06 -1.3866119011e-05 3.0762783098e-05 
-2.1142314348e-05 -5.2761656002e-06 1.6543459311e-05 -1.6724356084e-05 -1.2103575991e-06 0.00010894978259 -2.2791784598e-05 0.00048396059975 0.00084996148742 
0.0004325683693 0.001277673078 0.0015508419381 0.0013477419483 0.0017468334375 0.0018146188604 0.0020378906938 0.0020545973263 0.07594683052 
0.068217166487 0.0023858293509 0.0023797300323 0.0026891787326 0.0020863120029 0.0018664838081 0.0027495426174 0.0016422781563 0.0013760043151 
0.0020684222438 0.0010450150778 0.00074214761002 0.0014164536573 0.00038998243754 0.029292222893 0.031977934325 0.026034342213 0.042490328396 
4.7107064041e-05 -5.6437260568e-05 2.4082146463e-06 0.0022073252714 4.2398509554e-05 3.7183345246e-05 0.0037706011461 0.0056637580131 0.046918295923 
0.049306339422 0.048943497973 0.066050089897 0.057410898355 0.049823453175 0.049244916223 0.043146159783 0.047268093726 0.046726705685 
0.041837243105 0.047409805376 0.048464842349 0.040464325537 0.046359676033 0.063451080387 0.051861858154 0.045040571419 0.043567731288 
0.040011441964 0.042219664061 0.04048797694 0.037274140132 0.039040049759 0.037005330851 0.03444977087 0.034845023075 7.6104190706e-05 
-0.00034124880783 5.4252759171e-06 8.1775325118e-05 3.3561233843e-06 9.9404778202e-05 4.0176070243e-05 5.384981198e-05 6.8015059817e-05 -6.0282775845e-05 
0.00062136725087 0.00067855751981 0.00093702757631 0.00064634263995 0.0010857300945 0.0020169962266 3.4463208502e-05 4.920400765e-05 0.053899493286 
0.043856977292 -0.0002371117481 4.2964059088e-05 0.00012701526545 -0.00010615244259 -6.6220268681e-05 -4.7110510323e-05 2.0295586234e-06 0.0010127389051 
0.0010190845525 0.0012652439588 0.022372981293 -2.5888859364e-06 3.6107143419e-05 -8.9678049975e-05 -4.6177423157e-06 -1.5646843324e-05 -7.6020892563e-05 
9.6415187634e-05 0.044760983009 0.039940041707 0.043706096826 0.0022150737985 0.0030092241551 0.0060100355775 0.010761675702 -7.570459054e-06 
-7.9625328064e-06 0.010017813826 0.0052826782496 0.0024913581426 -1.63580525e-05 0.0056325878737 0.0045061449351 0.0060598864438 0.00013606595708 
0.029780144647 0.036873105401 0.030817279603 7.7159674291e-05 0.00018916377784 -0.00017003460808 0.0018563110388 -5.1191211901e-05 0.00015096423933 
-0.000198083627 0.00018900331879 0.023560485159 0.029921824364 0.024404353056 0.01706625487 5.7687058342e-05 -1.6194533778e-05 0.016192548208 
0.0084080635002 0.0017395394154 8.7265005044e-05 -3.7081300469e-06 0.0059349677795 0.00713839959 0.023085288553 0.01970850709 0.0030820773481 
0.016816031827 0.014416982133 0.020929146363 0.012310041742 0.010331276891 0.015266895114 0.008778202611 0.0072336488917 0.0110550278 
0.0060421534027 0.0049544508674 0.0077731803496 0.0039826568018 0.0031220608994 0.0052782885163 0.002251676398 0.0015686867861 0.0031805353873 
0.0008384892894 0.00025275611647 0.0014130123879 5.8007190632e-05 2.6167800227e-05 -7.1930579974e-05 -1.5286867197e-05 0.042266243664 0.033310641322 
2.3354931838e-05 5.6971706564e-06 -3.5779175976e-05 3.2368626996e-05 2.8994292706e-06 -3.6246536654e-05 2.609072566e-05 5.6526031823e-06 -6.5910561894e-05 
2.0016839452e-05 6.8137460153e-06 -6.6736557333e-05 1.8733788371e-05 9.303486795e-06 -3.7472196844e-05 1.7700529545e-05 1.7547107591e-05 -3.1672608625e-06 
1.2770771187e-05 1.5677968974e-05 -2.2979809658e-05 1.8635878671e-05 7.0899229696e-06 -2.4260026336e-05 1.0157676167e-05 2.9375139023e-05 -3.1210246155e-06 
-1.0386118843e-05 2.6889239314e-05 -5.1143376041e-06 -9.3370619508e-06 2.8167425323e-05 -2.1383038259e-05 -1.5481808387e-05 5.3723660205e-05 -1.6692906824e-05 
1.2198115254e-05 5.3035599941e-05 -4.0592747383e-07 0.00097000685701 0.0014240632319 0.00095288621496 0.0020171723354 0.031916411578 0.027653267449 
0.0027260734299 0.0028522031458 0.0028071535622 0.0094266602198 0.0082409030449 0.0044950162924 0.0047122877106 0.0025734939896 0.0036240721382 
0.0041654846297 0.0023877160986 0.0015714344403 -6.1806803468e-06 0.0011489906945 0.007758336835 0.0041492453877 0.0023969641695 2.9747068284e-05 
-7.6083201507e-06 -1.0599688881e-05 0.026474647943 0.00015718079919 5.8273241748e-06 -0.00017141866694 0.019852696933 0.0024944162935 0.029716415952 
0.028296951057 0.0040261861096 0.0078570249371 1.3904879105e-05 0.012737271831 0.019354107358 4.893739992e-05 -1.1964292853e-05 -9.1761030497e-05 
0.0020523649799 0.012383434703 0.0031014112417 0.0039418449677 0.0034748841935 0.0027190804898 -1.415917637e-05 1.9684484531e-05 -2.8768727439e-05 
0.0035937901913 0.030869253782 0.025788511232 0.03203326912 0.036376472869 0.034293151172 0.030506454685 0.031257919806 0.10206107203 
0.033593293709 0.032410090261 0.027180499159 0.011098169345 2.4587503394e-05 -2.4131658569e-06 0.00013584072473 1.5736356637e-06 6.0063611398e-06 
6.1142334541e-06 0.032066729884 -7.3094588337e-05 8.4713204509e-05 5.2763645131e-05 -0.00010426287108 9.7402643651e-05 -7.5286465823e-06 -9.0748472024e-05 
0.026519678061 0.022820994337 0.025146743096 -9.7459306736e-05 0.020154974191 0.02249314 0.0039923961423 0.021950986994 0.00062086138415 
7.4309256523e-06 6.0566000023e-05 2.1838721325e-05 -7.0951769503e-05 3.6110040302e-05 3.333579191e-05 -7.5546104441e-05 4.0665465342e-05 2.9948584546e-05 
-8.4116367235e-06 3.6786629641e-05 3.8617548302e-05 -9.7780843559e-06 5.8526191203e-06 1.0273649776e-05 -2.3088339847e-06 -5.0311854709e-05 0.00014826093524 
-3.7264994363e-06 0.00010247950254 0.026049052264 0.0082957223746 0.01273742298 0.0018927180027 0.0045575562463 4.3076529684e-05 0.00010121138767 
-7.3580814596e-05 -3.429873152e-05 0.022812651962 0.01879341821 0.015986619843 0.023112761132 0.035098874939 0.016962329251 0.016201429971 
0.011239420835 0.013487437331 0.011397218758 0.016540315459 0.010170968855 0.0084836058188 0.01209805765 0.0070657220753 0.0057305468488 
0.0089912634036 0.0043701017665 0.0033038245112 0.0059192518878 0.0024709530879 0.0015305351969 0.0014284733225 0.0034106300285 -2.9131974518e-05 
1.7266304883e-05 2.0061176271e-05 1.773115391e-05 3.4794309315e-07 -8.596662624e-06 8.6586257563e-06 4.2417354047e-05 3.6370860096e-05 3.3031355901e-05 
2.318408022e-06 2.9875210502e-05 1.8817585159e-05 1.2958213644e-06 -6.3535253954e-05 -4.7881912283e-05 -4.4310850336e-05 0.0064100664266 0.01837162844 
-2.6902922804e-05 -6.2872509102e-05 0.0011055130474 0.0001024386448 6.7004831453e-06 6.9603346745e-05 2.1140496698e-05 -5.3071489102e-05 -1.6496260047e-05 
-2.9458760007e-05 2.5211733955e-06 -5.087401093e-05 6.3281315639e-05 7.0632307715e-05 5.9002951547e-06 -7.7821468869e-05 0.00087275890031 0.0022359823613 
8.8572944344e-05 2.534561475e-05 0.019473511929 0.015694331353 0.013872988924 0.011594114933 0.0096403638849 0.0069109592444 0.0053508495023 
0.0043104231607 0.0091212482217 1.8703895113e-05 -1.3760840109e-06 5.3589170517e-05 0.014395344385 0.0029997875205 0.0016582979515 -9.2014406457e-06 
3.3104049689e-05 -9.0318840953e-06 0.0045659778326 3.306879963e-05 0.0079806944087 1.1200341875e-05 -1.0972319882e-05 -8.4353389141e-07 -4.8399164575e-06 
-3.0539297027e-06 7.7619040568e-06 -5.9150503876e-06 -2.7465568145e-06 9.0152289853e-06 -5.7613263596e-06 -1.2933296966e-06 1.3589706186e-05 -2.081479079e-05 
-9.118135071e-06 1.7789953399e-05 -7.2768992511e-06 -6.0037567016e-06 1.8266166933e-05 -1.5237650784e-06 -4.7203625635e-06 1.3781495891e-05 -4.7756259286e-06 
-4.712522805e-06 1.8211217363e-05 -2.4666077034e-06 -1.0045105333e-05 9.2045222693e-06 1.0790696328e-05 -1.3410079061e-07 -1.4247790518e-05 9.2579248622e-06 
3.0730597777e-06 -3.1086766416e-05 6.6778800455e-05 4.290562628e-05 -5.3382681943e-05 5.487742738e-05 2.4278768318e-05 -6.8427536542e-05 1.8032319307e-05 
1.4435629939e-05 -7.7782502933e-05 5.9931450423e-06 1.5932773457e-05 -5.084067608e-05 1.0974083173e-05 3.3244328571e-05 -5.6414542433e-05 7.8416840549e-06 
3.206793503e-05 -3.3799862469e-05 -1.1083816125e-05 1.1291805594e-06 9.351154076e-06 -1.2686557439e-05 -4.8792119729e-06 3.4462419595e-05 -2.8992371639e-05 
-3.9485364429e-05 4.032242483e-05 -3.2778980092e-05 -4.2544874824e-05 5.6174252818e-05 4.455567698e-06 0.026650522088 0.012612975193 0.022778536825 
0.0023204329991 0.0025930165041 0.0109972322 0.0011338042907 0.0018735996581 0.0029253315556 0.00076631880421 0.00096552767337 0.0013505020562 
0.00037120661738 0.00049759573276 0.00046597308768 0.00023674335543 0.00027894726586 0.00037756198781 0.00015870238689 0.00016623618901 0.00023067195389 
0.00012213488539 9.5334327377e-05 0.00011979599261 6.8993742923e-05 4.2796909767e-05 7.7153538927e-05 2.2701427454e-05 6.6177650281e-06 -1.053930458e-05 
4.3101129711e-06 1.5288702118e-06 -1.1379754314e-05 -6.8108994801e-06 -7.0319556427e-06 -1.7190194751e-05 5.807476703e-06 -1.9042515557e-05 -4.1877081497e-06 
-5.6505005824e-06 -1.0724882363e-06 1.3168306911e-05 -1.0827340456e-05 -3.3232889677e-06 1.1384233241e-05 -2.2099041971e-05 -1.1643156159e-05 2.1480636849e-05 
-8.0166950543e-06 -7.950748133e-06 3.5218383586e-05 -8.5716464768e-06 -7.3856067017e-06 2.047934832e-05 -1.1689558103e-05 -8.7061477513e-06 1.9675496983e-05 
-1.325707831e-05 -1.2627625073e-05 2.1830589089e-05 -2.3602588492e-05 -3.019550057e-05 4.0964994325e-05 -4.8000181503e-07 -7.4351207446e-06 3.7086723065e-05 
-1.9724501892e-06 -8.8992567063e-06 1.3513883048e-05 1.2845599818e-07 -8.4933700443e-06 1.8874863003e-05 6.1324709562e-06 3.5114045008e-06 -7.9197593373e-08 
2.3064081339e-05 2.1421687948e-05 2.2371351058e-05 3.5653036146e-05 3.3556179691e-05 4.1130352845e-05 4.0819670183e-05 4.1950191073e-05 4.9980936812e-05 
3.7484066279e-05 4.6562123662e-05 5.764163033e-05 2.7626615628e-05 3.4363870555e-05 5.3042566519e-05 1.5323494985e-05 2.3079722113e-05 3.2742287217e-05 
-9.526079297e-07 6.3922985008e-06 1.2047407783e-05 -3.8976854499e-06 2.5149384395e-06 1.4890267012e-06 -6.9171492655e-06 -1.0669632906e-06 4.151012579e-06 
0.050099853346 -1.795843766e-05 4.2766284059e-06 -7.0525295131e-06 -1.8775454281e-05 3.8619379802e-05 2.5106459064e-05 -1.3535291445e-05 8.5884054321e-06 
6.2600913702e-05 -2.4756352342e-05 2.2976270253e-05 0.00021204798302 0.00010396869361 8.202144982e-05 4.5133344689e-05 0.00052770706422 -0.00020848052132 
5.7814400872e-05 0.00027257300542 -0.00018263619441 -4.88388499e-05 0.00048381305596 -7.7332275199e-05 -0.00018601765172 0.00033895259412 2.1389832591e-05 
0.00016413396337 9.6160169166e-05 0.00083987457093 0.00025148154963 0.00026350363802 0.00024802652011 0.0018102545201 -5.1832274374e-05 0.00021545101956 
0.00094603286509 9.4584507348e-05 -2.8695094956e-05 0.00014848348343 0.00013753080936 -0.00012751960233 7.1794983784e-05 0.00018771504253 -0.00010639602466 
-3.2289295246e-06 0.00044298535521 5.2016745368e-05 -6.2367772075e-05 0.0010535419598 0.00046162476805 0.00026560168828 0.0016743083634 0.00092176240606 
0.00073764535204 0.0041580125954 0.0025217699055 0.0016987089615 0.0079578247495 0.0035625525025 0.0043900168336 0.0099367641664 0.010507768972 
0.012022304013 0.020023754105 0.093123497928 0.08668139493 0.076634107289 0.061628658584 0.065788661495 0.092993939039 0.099375057659 
0.070978891787 0.096665268375 0.093784488217 0.088642585645 0.10176383496 0.09560500177 0.096972940531 0.10896196612 0.1016011549 
0.099657996663 0.10398600187 0.099712119273 0.097483130871 0.10829925581 0.11453536426 0.099233269295 0.10855013475 0.10719055461 
0.10953689803 0.1090820248 0.10738016171 0.10963623848 0.11311625351 0.10855929229 0.10990562175 0.10683361863 0.11153640646 
0.10594341713 0.10654957189 0.10507180322 0.11163526278 0.10598026555 0.10647359585 0.10833915686 0.11403860089 0.10714594713 
0.10709705159 0.098114595727 0.10066028086 0.096196239601 0.1004845594 0.10741583857 0.094439161332 0.098297949114 0.098223654289 
0.10065278749 0.10435123556 0.097684531959 0.095494563859 0.088994769167 0.091973473299 0.076910675287 -0.019221018529 0.013912166617 
-0.010946450771 0.032739154701 0.005604101817 0.011349069842 -0.01532369132 0.00097573068784 0.0011995071357 -0.0041527642397 0.0028356127032 
0.0056536992967 -0.0018916993973 0.0017925562895 0.0034629351521 -0.0022343939341 0.0017362211281 0.0043532821461 -0.0011764664946 0.0029999639882 
0.0065463951226 -0.0016836154156 0.0073432961948 0.0083447238374 -0.0018867661168 0.0061735932925 0.0067528156697 -0.0024565099076 0.0009207125833 
0.0049521872371 -0.00071950887544 0.019756963786 0.035268950691 0.0054711742371 0.013804290092 0.0042182094096 0.033617031221 0.02729996946 
0.0092710743829 0.022144587093 0.030326952016 -0.0015019965481 0.0090878324558 0.0111664614 0.0068535637195 0.0038858947711 0.0022491412258 
0.0090305862534 0.0055432635567 -0.0027029265765 0.0092202775381 0.0062159967432 -0.0033730037342 0.0032096451813 0.00063953258717 0.00056961622179 
0.00056806300055 -0.0011288728011 0.010635457176 0.0095593729351 0.007952425872 0.0054608195491 -0.017610075757 0.0069846011438 0.0051548064866 
-0.0030785611206 -0.0081356521332 0.002874313178 3.1774353248e-07 4.5874511855e-05 -2.5051480522e-06 0.0011083874544 0.00064214667168 0.00056794492269 
0.0053924861297 0.0026367372461 0.0022309719577 0.002474234201 0.022813110714 0.036816642519 -0.03482747119 0.028676516028 0.044759413398 
-0.014570319873 0.053220241114 -0.0052376494356 -0.0030867743388 0.0019827424654 0.0063387224166 0.023868872489 0.010237554361 0.036759194938 
0.0258951079 0.020008608353 0.053923923781 0.029101411453 -0.0011437098213 -0.0088897843334 -0.0047807074138 0.012353865674 0.0026748446895 
5.0876806676e-06 0.051093926793 -4.4709473945e-06 -3.2290212351e-06 -3.164980729e-06 -3.1486328254e-06 2.2314540893e-06 9.2047069591e-06 -8.5898799274e-06 
-7.8838712265e-06 -2.056489597e-05 -6.8607194438e-06 1.1848781288e-05 -1.5259593843e-05 -1.7591364122e-06 2.2021659395e-05 -5.026256952e-06 -1.224855377e-05 
2.0594121538e-05 8.338226719e-06 -8.4711554656e-06 1.9505074811e-05 2.6334170509e-05 7.9813004917e-07 -9.1944414117e-06 2.572455196e-05 2.2149932519e-06 
-2.7086402424e-05 1.9476637962e-05 2.4445345172e-05 -2.4368882698e-05 5.7616093196e-05 3.5103351087e-05 -4.6380409698e-05 6.7980384994e-05 1.5626433245e-05 
-7.586472493e-05 3.6000297507e-05 2.2330739881e-05 -6.780355082e-05 9.0200978072e-06 4.5238776376e-05 -5.9605762475e-05 -2.3193714468e-06 3.9243301034e-05 
-5.2238321445e-05 -2.2227513027e-05 3.9361767492e-06 2.7200221596e-06 -3.066660633e-05 -1.6245242918e-06 2.6323317665e-05 -2.9809636619e-05 -1.6784441997e-05 
3.4956533629e-05 -1.1617299076e-05 -4.1215445503e-06 3.0166993651e-05 -6.9905188365e-05 -5.156728089e-05 0.0043616466125 0.0066083226054 0.0080200415775 
0.011691730854 0.011088619659 0.017659155672 0.03029337153 0.050565157458 0.023183657201 0.0026266070968 0.0037813005176 0.0061889634718 
0.0016171218033 0.0020964064048 0.0034821093472 0.0011104708566 0.0013559848701 0.0021526117653 0.00077172313628 0.00087632632114 0.0014404778482 
0.00042977798966 0.00053109058617 0.00091411515084 0.00024095627886 0.00027674529796 0.00049617819719 5.3242212389e-05 8.435023909e-05 0.00019019065681 
7.9392082341e-06 -1.0772966634e-05 -3.0372412565e-06 3.746555885e-07 -4.4205391912e-06 -2.5416341993e-05 1.2132054256e-05 -7.0748474381e-06 -3.0972510816e-07 
-7.3462759198e-06 6.6867125767e-07 8.1078982781e-06 -3.4050607309e-06 -2.7911466204e-05 7.7218631244e-06 -7.1447599302e-06 -2.5306917928e-05 1.9860044337e-05 
-5.5159547627e-06 -8.6241081916e-06 2.6454049732e-05 -8.0155480746e-06 -8.5724965859e-06 2.9069642167e-05 -9.4460320744e-06 -1.2385850809e-05 2.3583395126e-05 
-2.3592670459e-05 -2.5834491408e-05 3.1204362576e-05 -1.6048558107e-05 -1.1118453767e-05 2.7779965073e-05 5.2927958181e-06 -1.0941194814e-05 2.1032189189e-05 
1.2686468313e-06 -1.3329678411e-05 1.9224190537e-05 5.6330882434e-06 -1.4337682587e-05 9.9055712847e-06 9.0589721252e-05 3.7849052755e-05 1.4632102186e-05 
0.00016749656938 0.00013697105996 0.00016568434033 0.00021155723529 0.00020331418012 0.00026178726851 0.00021342605633 0.00021736590871 0.00030983779454 
0.00017179827996 0.00020226843889 0.00029510861388 0.00011057699515 0.00015046077816 0.000231590632 3.5857597784e-05 8.3820468301e-05 0.00013836270063 
-6.1249990373e-06 6.2260249664e-06 2.8348744714e-05 -4.1806894421e-06 2.2615317929e-06 3.6332659553e-06 9.9798123198e-08 9.3406449198e-05 -4.0376430723e-05 
0.0023508345312 0.002916150628 0.00056983880568 4.8769131923e-05 1.9245710776e-05 -0.00024596538505 9.2529940814e-06 0.0001654878289 -0.00044411672307 
0.00047829954081 0.0018310280163 7.5471838946e-05 -0.00016444409837 -2.2612456821e-06 0.000147186505 -0.00012453409858 -9.9550052761e-05 0.00011781417294 
0.00011018590838 0.000310535928 -0.00025251541914 0.0010133637631 -0.0001956530168 -6.897406937e-05 0.0030570254364 0.0016909870473 0.001840132005 
0.0054042725071 0.0037078042739 0.0047641967087 0.0093087358849 0.0067645714935 0.0088446565821 0.017667205611 0.013067734368 0.017675356974 
0.036658041079 0.025718380955 0.034119032948 0.0028078972076 -0.0017726909866 -0.024359660268 0.011473970705 0.075196183332 0.073583632802 
0.04583710974 0.083433125767 0.083456118206 0.072396212359 0.08906177078 0.08944632279 0.080049787268 0.093115935412 0.091629337656 
0.085890478617 0.094454780949 0.094480217101 0.089858382317 0.098327878347 0.098283740001 0.092713594138 0.10032955037 0.10041626428 
0.094399208778 0.10072156814 0.10080760317 0.09567336257 0.099357907066 0.098999449559 0.096498770036 0.099086230297 0.10030413744 
0.096161982863 0.09822959824 0.098100989355 0.094334726384 0.096216395622 0.094860668943 0.091679932174 0.093115268182 0.091758088681 
0.089673380136 0.087596088094 0.089310350659 0.086240168942 0.086462911895 0.085383332406 0.082266773575 0.080943009873 0.081293503295 
0.077675681498 0.063775766684 0.069916540125 0.067882687377 0.047122638532 0.015156876045 -0.013225156739 -0.0027323672092 0.0033396533347 
0.007176226185 0.00093784397926 0.00066116134824 0.001409016648 0.00040252549873 -0.0011323784557 -0.00072088443199 -0.00046981782788 -0.00010719336778 
-0.0005374239938 -0.00025267407445 0.00011548090185 -0.00035601928242 -0.00061353568253 8.44176042e-05 -0.0002369896014 0.00019719703532 -0.0061310986474 
0.0059710568832 0.0003664012814 0.0056196232198 -0.0008607615773 -0.00040374785074 -0.00048092820607 0.00010360214001 0.0034664320141 -0.00040984749689 
-0.003182591103 0.0013988464902 0.00078844159757 0.0005382784403 -0.00089074813176 -0.00070150743046 -0.0012791157702 -0.0010068276928 -0.00069391280101 
7.5455873847e-05 0.00054159986748 -8.369173032e-06 6.7405897359e-07 3.5925892499e-06 4.7592310048e-06 0.00027401773752 -0.00029427908527 -4.3141966659e-05 
-0.0019390545815 0.0007286996442 -0.00087656297095 0.0032444851552 0.024053784021 -0.0072492738132 -0.00060848044635 -0.00077073927344 -0.00022808083601 
-0.0027206022386 -0.001619844852 0.00071734595197 0.055294795816 -6.4107166342e-06 2.125999713e-05 0.0033258553112 0.0078685207134 0.00039860390798 
-0.00073450687957 -0.00049372011038 0.0011487532137 0.0038315917858 0.0020890170728 -3.9514566296e-05 1.1386884801e-06 1.202944537e-05 0.0044338700289 
0.0074305539273 0.00075316629594 -0.00011132329098 0.00027487961913 -2.9877203762e-05 0.00087659322918 0.0050307609638 0.016252961393 0.0022519652569 
0.0024483785333 -0.00023411531601 -6.2966742589e-05 0.0017217451509 0.058994821051 0.016614688335 0.0035097817467 -0.00073854988637 0.0037223449363 
-0.0013792944855 0.0021376160308 -0.00075929153585 0.0045365046246 -0.00048396398785 -0.00067965330126 0.00028283685032 -0.00015081834291 -0.0011290430857 
-0.00048050748448 -0.00057632285691 0.00025288815677 0.0011543619639 0.022982706078 0.018670313545 0.039899662731 0.00092286247067 0.00016901638097 
0.0091675425731 0.013110121576 0.0054766600347 -0.00012398957747 -4.8714933353e-06 -1.2721596311e-05 -1.3907554815e-05 1.5017868168e-06 -2.9172532039e-07 
-1.9037694837e-05 2.5148006317e-05 1.1593564119e-05 -9.5837829845e-06 2.2617686178e-05 2.7679509463e-05 -6.3300609064e-06 -1.0992161987e-05 2.2540666807e-05 
5.6957919573e-06 -2.874767699e-05 4.3837741705e-05 1.601748613e-05 -2.062317467e-05 6.3142765146e-05 7.7056594699e-06 -6.0846668846e-05 4.076917084e-05 
1.6014880628e-05 -6.6742673125e-05 9.4753552264e-07 4.890382232e-05 -4.2479487035e-05 -4.7949030454e-06 5.5477495463e-05 -5.2780720805e-05 -1.2888328315e-05 
3.5705291853e-05 -3.8326323245e-05 -1.9540052323e-05 1.8489793152e-05 -1.6052714958e-05 -6.2107272022e-05 3.7560188725e-07 3.338897286e-05 -0.00034095399188 
0.0040386919806 -3.4437162536e-05 8.8590335474e-05 2.7110463812e-06 -4.1690132963e-06 2.2592119827e-06 -0.00017771025933 0.00076299354557 0.008580977649 
0.011417269739 0.023453781166 0.031150719452 0.046262044904 0.0026163208877 0.003113221681 0.0016556286126 0.0021285738069 0.0031409262183 
0.00097558003105 0.0012849897569 0.0019923161545 0.00047275476048 0.0006685873525 0.0011036453247 7.7777703e-05 0.00023336743029 0.00048112348901 
1.0321088989e-05 2.5489303363e-05 2.7093358402e-05 8.1659281129e-06 1.2770203013e-05 -3.6204108399e-05 5.4270918821e-06 -3.8339481086e-06 -9.4910542555e-06 
6.9855873582e-07 -9.1986508934e-06 8.1197517374e-06 -8.8170958967e-07 -1.6574592538e-05 4.5057345e-06 -1.6136342266e-05 -1.4102582146e-05 5.7830552812e-06 
-1.0038621497e-05 -8.3787826056e-06 1.9057863045e-05 -4.6669420434e-06 -1.5142063121e-05 2.2303033398e-05 -4.2780844649e-06 -2.5032237233e-05 2.3626835068e-05 
-1.0974002532e-05 -2.4075887761e-05 2.1030194475e-05 -3.873898673e-06 -1.0187433075e-05 1.5633405411e-05 6.0854574013e-06 -1.4866715863e-05 1.0401124955e-05 
9.5754085279e-06 -1.9138237412e-05 1.7806001518e-05 0.00010370595927 -6.2197253835e-06 -8.4097750794e-06 0.00033323180479 0.00022088519105 0.00020760045396 
0.00049223298325 0.00043155723308 0.000493465133 0.00053914487956 0.00053056740028 0.00066344495721 0.00047562305649 0.00052636646626 0.0006935391436 
0.00035494211179 0.00042901419285 0.00059686121352 0.00018640694119 0.00028631685812 0.00041814848023 8.3981090737e-06 0.00011627135599 0.00020502991932 
0.0051772014111 0.0027776988259 0.0036387184579 0.0044657222403 0.0045066898786 0.00015272627756 -0.00011009324083 -1.6677441227e-05 1.9503526736e-06 
1.5197637912e-05 1.238803732e-05 0.00031863359329 -0.0004079097606 0.0007880529768 -3.8635628164e-05 0.0051155131598 0.0025594035281 0.00087092622356 
-0.00026427916607 0.0024608183378 0.015844144932 0.011962600927 0.026417019528 0.020147843045 0.023376960683 0.046655312119 0.036179675909 
0.039490355636 0.057357858229 0.07880199475 0.076553391802 0.062321530054 0.059024433111 0.082069746972 0.080476753445 0.07231653493 
0.085219484933 0.084018607109 0.075850678026 0.086989773935 0.08639550254 0.078742847894 0.087986435759 0.087679657975 0.080405006404 
0.088024480096 0.088306480527 0.080938404107 0.086716181173 0.087612756582 0.080479645197 0.085097848901 0.086129980749 0.07905399332 
0.082791301261 0.083750103736 0.076890837464 0.079795784667 0.081112955358 0.074088452411 0.075757566573 0.077270093438 0.070563739401 
0.071024567023 0.072858548186 0.066034658992 0.06544617518 0.067956928242 0.060698887077 -0.00010873683579 0.0010392639358 0.016688701417 
0.0081880676215 0.00030640411291 -0.00029559613504 -8.5984425873e-05 -7.7076785759e-05 -5.9252879709e-05 0.00014817657248 0.00079933429723 0.072551913764 
0.068866156437 0.056785770346 0.067037192977 -0.00051186634835 -0.00025828296514 -0.0029323133591 0.0040048413034 0.0099830141161 0.0071757981539 
0.0081776109248 0.014311996991 0.0098948556679 -0.0016439777234 -0.00097228166838 0.00023064188345 -0.00020262445965 -6.6696137503e-05 0.014030285749 
0.018174349419 0.02761434233 0.017135964416 -0.00055175359002 0.0016092584335 -0.00029941487051 0.00034756466056 9.2914655211e-05 0.005306855021 
0.0069252389528 0.010395780037 0.0065729379732 -2.3331387618e-05 -5.8437407445e-05 -0.00051624071195 0.00040891354284 0.00032126494323 -0.00066733869815 
0.00018093846615 0.00054190227555 -0.00037825318634 -0.00041510351778 -9.9807435431e-05 -0.00049419128269 -0.00017591709915 1.7374050283e-06 -4.6751358614e-06 
3.8366012289e-06 0.0054040028526 -0.00024516273324 0.02195732286 0.012994142142 5.1813530388e-05 -0.00031857864779 0.0012508344244 0.0013173503598 
0.00058559241112 -4.4858238568e-06 5.343138312e-06 3.2086016948e-06 3.1324664855e-06 -0.0014282809316 0.00032066664245 0.00079994205269 -0.0003769875812 
5.732587185e-05 6.6991371139e-05 -5.6784639382e-07 -0.00010963077851 -3.2564671921e-05 0.013552572152 0.023627538559 0.0264717927 -0.00030713294116 
-0.00013929694916 0.00037291801991 -0.00013627211272 -0.00010216935647 0.0069239814203 4.2504257725e-05 1.6289098618e-05 5.0887873499e-05 -0.00019027381616 
-0.00044104137644 -0.00011404886015 0.0004521966973 0.05407963109 0.062260535181 0.054970586028 0.042335220479 -0.0009746846048 7.3740072631e-06 
0.00091872168097 2.9016825909e-05 0.00022903861761 3.8760501162e-05 -0.00028001429661 -3.4819548051e-06 -1.9614629927e-05 4.6630364027e-05 -2.0025101906e-05 
5.313084977e-05 -1.8627516637e-05 -1.0685433516e-05 4.9064730077e-05 -2.6300064744e-05 -2.862778553e-05 5.0010051075e-05 1.2437330271e-05 -5.6742937774e-05 
6.5181348481e-06 2.5275725753e-05 -4.8044422472e-05 -1.371338042e-05 3.1607553177e-05 -2.1500992982e-05 -1.7138809257e-05 3.8837206998e-05 -2.4340461926e-05 
6.4153144228e-06 1.7658127666e-05 -4.2044967828e-06 0.020791180946 0.016714223674 0.02116142363 -0.00088885480107 0.00063464891792 1.0859510791e-05 
0.0028566380678 0.0036397173413 0.0044723704215 0.0054654766171 0.0052379280356 0.00078395190635 0.0011512134877 0.00013815771179 0.00041508562694 
0.00083679138684 1.5245295989e-05 3.5184939592e-05 6.1622738192e-05 1.2507702032e-05 3.7913063171e-06 -1.6015242844e-05 8.0205366171e-06 4.2578823242e-07 
-1.8423690995e-05 1.9943790336e-06 -1.0404734684e-06 -2.0229533108e-05 -6.9797761473e-06 -5.2660483706e-06 -7.3835418188e-06 -1.0087425925e-05 -3.7177876841e-06 
7.6159404233e-06 -4.0101795307e-06 -4.8504334145e-06 6.62543326e-06 -2.0243138192e-06 -1.1290553505e-05 3.1298940406e-06 -5.8822227569e-06 -1.781568842e-05 
1.1891854699e-05 -2.7330260374e-06 -8.6920893798e-06 1.0234319018e-05 7.0337889284e-06 -1.0863066205e-05 2.315569042e-06 1.0960444519e-05 -1.3680826494e-05 
4.3765819978e-07 1.8205408065e-05 -1.8892886683e-05 9.0677126023e-06 0.00044159635399 0.0002070655202 0.00010712202179 0.00081053309311 0.00064138243477 
0.00066179927831 0.00099401395058 0.00094080840515 0.0010792515782 0.00095832432453 0.0010119644651 0.0012459775066 0.00077498114658 0.00089023909699 
0.0011583228516 0.00050435856511 0.00065489401798 0.00089578476043 0.00018831979301 0.00036598358138 0.00053513052455 4.3036674046e-06 2.7042534365e-05 
-9.4153075312e-06 0.00020862353034 0.00016053816556 0.0061138164186 0.002715089091 -0.00027261370877 0.00051529471856 0.00057085722731 0.063352057286 
0.04651839219 0.036751937913 0.053502972039 0.030456708628 0.024291386428 0.038208646364 0.07233582127 0.071157652832 0.068915524605 
0.06710114105 0.063272346267 0.065123504898 0.063563196066 0.058994889765 0.073501811808 0.073147300322 0.066078861853 0.073207873053 
0.073233118809 0.066446578647 0.072463095847 0.07304125035 0.065966769729 0.070675480133 0.071613063994 0.064927694835 0.068040121216 
0.069284283706 0.062721290296 0.064978699837 0.066403713872 0.059844742016 0.061027272171 0.063079828684 0.056535782515 0.056094555278 
0.058465170604 0.052360882564 0.050301621261 0.052786683236 0.04694927494 1.4906373201e-05 -2.7662536556e-05 6.5969623021e-06 1.7406288139e-05 
-1.9257114669e-05 3.0796752508e-05 5.2671817078e-05 -0.00074352617058 0.0004826874298 0.0096561183769 0.0020059253423 0.0064795330887 0.0076180287478 
0.0074848409303 0.0016513328003 0.0022005229469 0.0032864235967 0.0018527758115 0.00082356055874 8.3115227304e-05 -0.00075031103766 0.0049442683547 
0.0020450052867 -9.5720345968e-05 0.00031591330297 -5.4745479663e-06 0.00017755297305 -2.8479161136e-05 -0.00034516746662 0.0013740506502 0.00017583004542 
0.00035739798647 -0.00051915179398 0.00036963291115 0.028766832795 0.035030653077 0.044467510662 0.016217044177 0.012504369323 0.0079466477702 
-0.00010618263515 -0.00017988320248 -1.4350131619e-05 0.0095222054693 0.010125461709 0.013650857017 -0.00015370313922 -0.00011739786933 0.0012669122855 
0.0063536941163 0.01165106682 0.00020543609825 -0.00043460610449 5.1375767576e-05 -0.00050670566451 4.7812963038e-05 0.00016749947036 -4.0673120763e-06 
0.0023466614324 0.00024786463164 -1.633210348e-05 5.2970950101e-06 0.00056508562134 -0.00012029889806 -0.00012603452321 -0.0002048430509 -1.2768465884e-05 
1.4498675336e-06 0.00012455450971 2.1192316811e-05 2.7189186114e-05 -3.6824392524e-05 3.364931013e-05 -1.3665515368e-05 2.8633295219e-06 0.00013106537028 
0.00025205169136 -0.0002351083701 -6.1478299657e-05 0.022339229026 0.017997752971 0.019918847758 -0.0001091523054 -7.263257711e-05 0.00014331884692 
-0.00046214973023 0.0097186673112 0.0081373720202 0.0099302341432 -4.5977281491e-05 0.062316761307 0.058610614894 0.049885551449 0.056142118557 
-0.00012738306959 -0.00022681175451 0.00031782099315 -0.00012095182892 0.04681454406 0.019401455171 0.023790507965 0.03142029667 0.011711617815 
0.014502057796 0.020559459467 0.013364596056 0.000155503492 0.00049202115536 -0.00027183503398 -0.00057710512237 0.040758110935 3.5487048818e-06 
3.8045651814e-05 -5.6297165191e-05 -1.5477101009e-05 4.7276347103e-05 0.015006148469 0.016162845703 0.0087227936721 0.0012225628132 -8.9929274164e-05 
0.00649192814 0.0079954881147 0.00020784117801 8.6213414383e-05 0.00014302611149 0.00060739799462 0.0011615309459 0.0017044464684 0.0011970556347 
1.8676613337e-05 1.0300082036e-05 4.8295439526e-06 1.205531938e-05 -1.1627883442e-05 4.0784181314e-06 1.2170034901e-05 -2.2023985102e-05 8.1904194658e-07 
3.622533265e-06 -2.0903624471e-05 1.7755994833e-06 5.9308889479e-08 -1.4765801863e-06 1.3496072885e-07 1.8021335116e-06 -3.3148235527e-06 1.7768797647e-06 
-4.3657432803e-06 -8.2956023458e-06 5.5742762468e-06 -7.9557806358e-06 2.8368527545e-07 1.2598461749e-05 -8.2298153811e-06 -7.4237630832e-06 1.9230760026e-05 
-1.3541354416e-05 -1.5280835623e-05 1.6956529424e-05 -1.7896631507e-05 3.9981045693e-07 0.00041219914996 -2.1723785122e-06 -3.8664597909e-06 0.0011270706813 
0.00079680736884 0.00073786142875 0.0015622338195 0.0013897903507 0.0015105674443 0.0016347036331 0.0016634028925 0.0019592230648 0.0013904180414 
0.001551628596 0.001940470577 0.00097683400647 0.0012116317383 0.0015895692125 0.00051319288815 0.00075515818983 0.0010579791884 0.006010544217 
0.0023081749423 -1.4289479897e-06 0.034120588611 1.8109775186e-05 3.7281826347e-05 8.3030310573e-06 -2.1306447454e-05 0.057765862785 0.055443857537 
0.042780540445 0.036455200179 0.048167736448 0.058224492413 0.05871582907 3.3813229156e-06 -0.00014500888416 -3.1983293076e-05 0.00019425704098 
0.060061156419 0.059429841888 0.05256216317 0.050616655626 0.048891889664 0.046000636628 0.00010268669133 -9.1983225404e-05 0.0019726878184 
0.057829317187 0.058082377198 0.051090528298 0.05648433971 0.057397365875 0.050511941126 0.05395617853 0.055313108429 0.048883363622 
0.051045719702 0.052547416877 0.046390615463 0.047644961424 0.049371536876 0.043542802703 0.042741241252 0.045055233655 0.039570081243 
0.037078670288 0.040050098883 0.034670300086 0.00010614281595 6.6858429224e-05 -7.1877744205e-05 -2.1259813801e-05 0.009631234803 0.011371096551 
0.010841490755 6.5578756402e-05 -8.1773834064e-05 -0.00010216201229 3.3104093671e-05 -7.8526911715e-05 2.4576776514e-05 -8.1106804108e-05 0.00019964411665 
-0.00016042465684 0.00013628331257 0.00014136814715 0.00010046577048 0.00027143265362 -0.00029949008677 0.02929938952 -0.00014870884689 0.014392925057 
0.012249937764 0.00056049140315 0.00078448767698 0.012663844848 -5.7882845012e-05 -5.4902388105e-05 -0.00035402928757 0.0051865160937 0.0072310612713 
0.0040393788494 -3.9187401322e-05 -8.2387933574e-05 -4.3798578117e-05 -2.9823582308e-05 3.4138935747e-05 0.00010434591171 -2.2295773377e-05 -0.00010798729168 
0.0026234697032 0.0023647463817 0.003143697659 0.00027078253392 0.00043288863645 0.010179556399 0.010220314338 0.01520134608 0.052586312121 
0.00072586173555 0.00077669647916 0.015454298264 0.013394665278 0.014782178448 -0.00012562698187 -8.788147317e-05 8.1807776619e-05 1.6727588932e-05 
0.028078813514 -0.0001293190989 0.00022536678224 -2.1934403879e-05 8.1923733098e-05 5.8910876595e-05 0.0012821352355 8.7721593026e-05 9.4719514594e-05 
0.00077228720555 0.00090198056123 0.0015694257825 0.0017891037151 0.00056091169043 0.00056886130256 0.0008621882958 0.0011984353257 2.3241026387e-06 
0.026234936607 0.020141882185 0.020727323442 0.0098062874038 0.0059659973519 7.7017693046e-06 0.00016297816436 0.0015785468299 0.00071237551362 
4.2336208863e-05 -0.000226224224 0.00027709340924 -0.00037646086128 6.3642358084e-05 0.00035125020979 0.0025935219708 0.0043603526996 0.033341771421 
-9.9512810353e-05 0.041428339027 0.033033395296 0.033742173626 0.008995818989 0.0097339669012 4.2457327335e-05 0.0015903823499 0.0019177052476 
0.00012283339327 -3.1504614013e-05 0.048871230372 -3.105377427e-05 4.2642730696e-05 -7.4777145622e-05 0.010890516503 0.010070121586 0.0077246240437 
5.6542967068e-06 1.9226827952e-05 1.3110657949e-05 1.594153625e-05 -2.6841482447e-05 8.3942547436e-06 9.0199181319e-06 1.1947698996e-05 5.6853130457e-06 
-1.8459785628e-05 4.1094789459e-06 1.2969779099e-05 -1.5158731513e-05 1.3424666382e-05 6.0863164324e-06 -1.7692798611e-05 1.7901212066e-05 -4.2206930748e-06 
-2.1643695453e-05 3.3453130014e-05 -6.9625854724e-06 -2.0116061944e-05 2.9057712489e-05 -1.0881086904e-05 -3.0661061878e-05 0.00014843476064 -1.5292220472e-05 
-2.2483488169e-06 0.0014063020757 0.00080500628264 0.00059129448147 0.0022699220492 0.001912920679 0.0019976361187 0.0025891284883 0.0025418413054 
0.0028959155704 0.0022522544798 0.0024764534319 0.0030678054034 0.0015987271183 0.0019348265457 0.002456385377 0.0011839531289 0.043678482701 
0.044062802403 0.045030364736 0.046414729577 0.038413700541 0.043742850796 0.044357097792 0.038081242159 3.2364375853e-05 -0.00013346006954 
-9.7439898243e-05 6.3412007037e-05 0.0045775447958 0.0075581442344 0.00065519460768 -2.208734784e-05 -2.3503547016e-06 0.0051495759213 0.001754249971 
0.040523896856 0.041858289421 0.036529304309 0.037909664762 0.03934924048 0.03358983879 0.035399668198 0.036979602403 0.03150759588 
0.0314870259 0.033927076235 0.029031604471 0.026925337664 0.029461151534 0.025548476274 1.3604289953e-05 4.0552681945e-05 2.3411235514e-06 
4.5620167055e-05 0.00019039757273 0.012412722631 0.015062872873 0.0030639141839 0.0033034896256 0.0040770115766 0.021967028511 0.024559741505 
7.6076061028e-06 2.3627337374e-05 -3.7909306519e-05 0.0014896005405 0.0022789151732 -2.6092131002e-05 0.00035765021052 -0.00010854125864 -0.000345245848 
0.021223735943 2.6144073602e-05 0.0053558983955 -2.1237507271e-05 2.8984847348e-05 0.017727597148 0.004515727541 0.0092433775972 0.0083806124765 
0.0076021474858 -0.00012156882189 -3.0975131931e-05 0.0081330149742 0.010150563179 0.013402160384 -6.9239181747e-05 0.040349239172 0.032543658474 
-9.3268624466e-05 -2.2587768043e-05 0.0032855437415 0.0042503135319 0.0035024412812 -5.6650192152e-05 1.1497009763e-05 3.8775843594e-05 0.0015398059861 
0.014696264182 0.0095593837897 0.0091754914291 7.9940238554e-05 0.00279012624 0.0028330794518 0.004343601791 -0.0001946317421 1.6883308214e-05 
0.00021842726416 -3.8334622968e-05 0.0015329322303 3.8080455829e-05 -6.2299641504e-05 0.00012005743811 -0.00017823300731 0.00014205352354 0.019361916655 
0.0002798864311 0.00068112404864 0.0026580125622 -1.6677261337e-05 -1.3815839921e-05 -3.1525882881e-05 0.026103568294 0.019758701336 0.031932824395 
0.00062697209094 0.0014128139989 8.4390153418e-06 0.0017167441127 -2.4839173614e-05 3.3886665489e-05 -5.6294880196e-07 0.0027689614452 0.0045395840152 
2.3670775272e-05 9.9811104702e-06 2.2983022776e-05 1.7743409591e-05 -6.1772930483e-05 2.0398471766e-05 1.7424792827e-05 6.5157430793e-05 -1.1026388378e-05 
0.0014253391447 0.00041801444916 0.0033017744933 0.0025481060581 0.0025195805164 0.0039318969286 0.0038195771594 0.0044722259124 0.0034154597224 
0.0037571449642 0.0047069055961 0.0023639138829 0.0029201720892 0.0036382213436 0.0021841009586 0.030811577294 0.0050516836045 0.0064077367471 
0.0087921517438 0.0056509947876 0.025953923643 0.027408714761 0.0023156179984 4.0028005127e-06 1.6850306336e-05 0.02127019189 -1.6321416093e-05 
0.0033136574985 0.017627518376 0.022419146329 0.02377933422 0.0070794509057 0.0056290685366 2.7843504788e-05 0.00078577441235 0.00016708459167 
4.3671918781e-05 1.3094248979e-05 4.062432042e-05 -6.9893451315e-05 0.024323350366 0.025171016459 0.020418573037 0.044857147228 2.185732325e-05 
2.7688745041e-05 -3.9123718841e-05 -2.1134595534e-05 -1.0506293418e-06 1.1703076241e-05 0.0072482920053 0.0056032906988 0.0052129769723 0.0071316630847 
0.031195546049 0.030660239996 -3.4737871616e-05 0.00012112601488 -1.63440385e-05 -4.8486800632e-05 1.9352380025e-05 -3.3064989426e-05 0.0040700143224 
0.0054874221399 0.00010096684971 -9.8402373586e-05 4.6165446994e-05 0.004934900243 4.1860219358e-05 1.4177796905e-05 2.8504170171e-05 -2.2640130059e-05 
0.0041219233478 0.019386681542 0.012467284313 0.0077607093644 0.02516920394 0.01738593296 9.3693881391e-05 0.00011439236253 -1.5042412365e-05 
0.00021934495017 -9.2961332356e-05 -0.00021364939704 0.014363890514 0.0032098548234 0.00066041934046 0.0025120415446 0.0040867661329 0.0013447946388 
0.029145653416 0.022876863904 -2.1501131562e-05 1.4210564742e-05 2.9236516496e-05 2.9808159802e-05 8.4174401662e-05 -0.00013398806757 -2.7008710791e-05 
-7.7485983024e-05 0.0062844805589 -1.5581199383e-05 -8.9316620659e-06 3.9955198586e-05 -2.0307129915e-05 0.019169924606 0.014165210833 0.014536604967 
0.010795587962 -2.1246644186e-05 -1.7992358232e-05 4.7471116857e-05 -1.5493835739e-05 0.0080216407384 0.0073931352809 0.0051231653213 0.0059342872555 
0.0031010751651 -1.4668458331e-05 4.5365115887e-05 -5.7634768392e-05 -8.198774284e-07 0.00019176527602 0.00098032876483 -7.7437238298e-05 0.0050278966042 
0.01872090406 0.01742076468 6.7977854966e-05 3.4174427448e-05 0.00011368757677 -3.3352425106e-05 2.5209775568e-05 3.178087663e-05 -7.9845568103e-05 
0.00040721104454 0.0016951545095 3.8346404447e-05 4.7149964593e-05 1.7902461937e-06 -4.5033642285e-05 -1.7996927969e-05 -1.0923146139e-05 -1.5081251874e-05 
4.4778026128e-05 3.9338927769e-05 0.0059858899769 0.0056242150005 0.015096276451 0.015706124886 0.0001050176266 0.011257727194 -8.2668917211e-05 
6.7382579442e-06 0.0014515662552 -3.501888764e-05 -3.4081229145e-06 7.6658428275e-05 -5.9823540501e-05 5.4076831176e-05 -2.2406625158e-05 0.01158347056 
0.015403879819 0.0037912565562 0.0058731332407 0.00042776668228 -9.1600749098e-05 -6.4418255863e-06 0.0084812071254 0.0080147711869 0.0084536539619 
1.4757744356e-05 0.0015578131133 3.0644161602e-05 6.9991589015e-05 5.4906186117e-06 -8.0505145756e-05 0.0039359333886 0.0033083770841 -0.00011200766571 
5.4162401941e-05 3.2940904741e-05 1.8375226065e-05 1.0323300073e-05 0.0018073251258 0.00041982874126 0.00012970371506 0.0086309381618 0.00011022107035 
5.5331094612e-05 -2.9786669548e-06 0.086928843402 -0.021576478659 3.3323485907e-05 3.9807158031e-05 5.5909925643e-05 4.6729886989e-05 6.0541424033e-05 
3.4467094646e-05 3.5675563991e-05 9.5868473506e-06 -3.3485907738e-05 -1.952300389e-05 0.00035041144131 0.00018033443766 -0.00035917349225 -7.6901417407e-05 
-0.00099000994749 1.3382109483e-05 -0.0002557115115 0.00015643617283 -0.00098244556211 -8.4286784446e-06 -0.00071163774445 -0.00085383393203 -0.0015892248765 
-0.00044037336418 0.0035396450067 7.9338898446e-06 0.00064230583032 7.2149078601e-06 0.00056479849857 0.00035907881012 8.6487533057e-05 5.3086576853e-05 
-5.9833982513e-05 5.6971045786e-05 0.00036120026918 0.0004069495954 0.000816325164 0.00046202903105 -0.00037112335302 0.00014233108593 0.00033827138692 
0.00035111742207 0.00015800385462 0.00011324690501 9.7325729214e-05 -4.0369349125e-05 -0.00014261925294 0.092244869607 -4.4319994699e-06 3.2005906983e-06 
-0.025417722362 0.010451440806 -0.00076003911364 -0.0026068477184 0.00016932293103 -0.00036251707559 -0.00029261461343 -0.0001073276292 -0.00042580530797 
-0.00023672685981 -8.6494137172e-06 -0.00010108753019 -2.5806841531e-05 -3.9327108787e-05 -3.2621093433e-05 -6.6902387217e-06 -4.4108339315e-05 -2.8801965407e-06 
1.9983653867e-05 -8.5319800395e-06 1.3125255495e-05 7.2691283918e-06 1.6341524911e-05 1.6927039456e-05 1.1725787593e-05 2.0244634725e-05 1.1500338665e-05 
3.6160727773e-05 2.8956945513e-05 3.2811776915e-05 3.4767014847e-05 3.7749495388e-05 4.4979902342e-05 5.456858599e-05 3.8081722938e-05 4.2093913425e-05 
4.2353356982e-05 4.5594865496e-05 5.0515804601e-05 4.7419544401e-05 5.7392532575e-05 3.3665758098e-05 1.2829199722e-05 4.4840188129e-05 3.7395101556e-05 
1.560448006e-05 1.654874902e-05 -2.3407466309e-06 -3.7123091131e-07 -4.8777419168e-06 -3.2431269037e-06 -3.3185614157e-06 -1.5289107488e-05 -1.1609255358e-05 
3.2606675354e-06 -2.0911221898e-05 -3.7690078441e-06 -2.9490702222e-06 -8.3599424118e-06 -1.2556164688e-06 1.216475666e-06 6.1416141832e-06 8.6270239118e-06 
1.1845855282e-05 2.0089109559e-05 4.0455402461e-06 9.2413782698e-06 2.7282477069e-05 2.7210912392e-05 -1.7161033573e-06 -7.2156809678e-06 -7.7288660535e-06 
-2.2296646054e-05 -8.3941370809e-06 8.7147837972e-06 2.1606972695e-05 2.7530227507e-05 6.3484040058e-06 1.0609345524e-07 2.8218839493e-05 0.000103863705 
0.00014445445845 5.0063436247e-05 7.5817315387e-05 1.5676158695e-05 3.2709223879e-06 7.1344423715e-06 6.4243308488e-06 3.3718639926e-06 1.9649680216e-05 
1.2509641149e-05 6.2574930324e-07 2.0068534268e-05 5.2330858048e-06 6.1716073187e-06 2.1592334545e-05 2.7003716541e-06 1.8136586198e-05 -3.9986265093e-06 
-4.7200655584e-06 -1.7622866789e-05 -7.1479923447e-06 -8.2736439568e-06 -3.6457511303e-05 4.4644476772e-07 -3.2983332481e-05 -4.6559547805e-05 -1.8486706011e-06 
-6.1345878802e-05 -1.7913396819e-05 -1.7209605577e-05 -5.0277573403e-05 -1.1273457195e-06 -3.1512875301e-05 -9.2194881757e-07 5.5621043026e-06 1.7950474358e-05 
1.0038336708e-05 1.1061627919e-05 4.2510644385e-05 6.3480590481e-06 2.4712939189e-05 2.5075604863e-05 0.00013382396825 4.7537207946e-05 3.6343297623e-06 
2.2052515446e-06 -4.5753665377e-06 -5.1165795398e-06 0.038196579992 0.069057507254 0.061862270028 0.079963574988 0.078238646992 0.085553135568 
0.08898510265 0.072693203378 0.097096981788 0.10955871123 0.10744595644 0.11195828733 0.10564309109 0.12592878144 0.14977188475 
0.1401661825 0.13117288377 0.12609626629 0.090380175787 0.14004523803 0.15969137521 0.12367442384 0.13638173074 0.090076579246 
0.082029788912 0.079956181959 0.068370036411 0.082622474653 0.079561720794 0.094637342318 0.08937700711 0.10259977118 0.099854853096 
0.1125969828 0.11243602158 0.11530196645 0.13398191768 0.13227533286 0.11704629998 0.13231535717 0.14354942459 0.15593392521 
0.1512493707 0.14244477188 0.13166191005 0.12126679386 0.04865096533 0.096074377723 0.016354708434 0.019857809915 0.062358219584 
0.062177260901 0.062746366682 0.060439365512 0.062026132728 0.054558095863 0.058164027599 0.052192951057 0.057390483537 0.047162143585 
0.041173411816 0.052160676112 0.049182412884 0.047455107497 0.043562550155 0.027190044587 0.04689716608 0.017388037362 0.047290441119 
0.083928437316 0.076095520104 0.072309800842 0.064191393096 0.00018441754135 6.2603857189e-05 0.00017846018236 7.5136148012e-05 0.075341955596 
0.07633070271 0.060326403304 0.050201079278 0.048856229294 0.038750360106 0.042686977409 0.043121049698 0.057056370539 0.061968349294 
0.070233339713 0.066412845049 0.066763753957 0.029273301029 0.074430730633 0.082745069562 0.065581636107 0.077943518321 0.088083322868 
0.078694083047 0.038575984048 -7.2880488337e-05 2.4662812658e-05 -0.0001067462236 8.6878648351e-05 0.060235782846 0.058874893116 0.00052317904875 
0.015785231226 0.074440387458 0.014740990462 0.027333001256 0.085725444408 0.0042144827623 0.0029713513471 0.0022874703088 0.0044989664548 
0.0039313354989 -0.00010989775854 -0.00016841636419 0.00028334263952 0.00016341023585 -5.275648831e-05 0.00042684984334 0.00017817066444 -3.268162472e-05 
0.00030449084999 -8.818188451e-05 7.3031555334e-05 -7.7145666216e-06 -1.1521743049e-05 7.5627304807e-06 -1.9813531319e-05 -5.7969867606e-06 1.0158716807e-05 
5.6204728668e-07 0.069002545006 0.060603613208 0.062469332253 0.012354674687 0.011632388129 0.0076048937206 -5.6944723743e-06 -8.3413151137e-06 
-1.2401787311e-05 -2.8442394274e-06 0.0050639771277 0.0035893463015 0.004213307742 9.7197413135e-06 4.9453184007e-06 -1.6711816917e-06 2.3496839425e-06 
0.00029965198117 0.0013778105666 0.0011177411729 0.0017999984701 0.00045581453341 1.1653365734e-06 3.27802282e-06 -3.4306067874e-06 -9.6046413303e-05 
4.9902552169e-05 -1.3030830677e-05 -5.2379472711e-06 2.5881996644e-05 1.7890091961e-05 0.09877409955 0.090188926777 0.10541629873 0.10377264316 
2.499146353e-05 -4.2105546099e-06 1.359947552e-05 1.3316997164e-05 -1.9488706012e-05 1.4349015279e-07 -0.0020338025227 -0.00044036857816 0.001977951864 
-0.0019534192579 -0.0060568720044 0.0071628674137 0.11302550368 3.2736250573e-05 4.1668580099e-06 -4.6459067618e-05 0.0002316637899 7.6998644272e-05 
7.5714913032e-05 -3.3867721062e-06 -1.8939519879e-07 1.8465117127e-06 -4.9319394869e-06 0.00020745474933 0.0016126822662 1.5092334938e-05 0.0014854460089 
-5.0562074457e-06 7.8626180612e-06 9.7674670576e-06 -1.3558434245e-05 6.1338549514e-06 0.014175592831 0.0089839908084 0.013736128265 0.0041255164879 
0.00019173416652 0.00016698628786 0.00023192216607 4.0592702341e-05 1.254923434e-05 -3.179797989e-05 -0.0015720347833 -9.2032097825e-06 -5.8133318681e-06 
3.0866553867e-06 2.4028717034e-05 -7.943395347e-07 -3.5251297214e-06 -1.5112017997e-07 0.075746951582 0.079498535592 0.073527761365 2.1323292397e-06 
1.5810496008e-06 -4.3934821082e-06 -2.914657625e-05 -4.1320284256e-07 1.7660524731e-05 9.0646725892e-08 2.3452464352e-06 7.2542292966e-06 0.00035560854195 
0.00061180630197 4.3099857641e-05 0.0010402346063 0.0013977470329 0.0012693543748 0.0016242905053 -2.5800614752e-06 -1.6036364008e-06 -6.3844964221e-06 
-5.9098220467e-06 2.5659949061e-05 -1.7292690041e-05 -1.4774536677e-05 3.3823272506e-06 -1.8038352007e-05 5.5985804787e-06 1.0407236859e-05 -6.3964166234e-06 
6.0631629684e-07 6.7957274899e-06 2.813452666e-06 -0.00035179878973 -9.7699212427e-06 0.00010404719376 0.0080794386268 0.013104284169 0.0048115721869 
0.016760252861 -2.3641092429e-05 1.4833733696e-05 1.1760749871e-05 0.10372565471 0.10070448073 0.0713868733 0.083094646357 5.8707668718e-05 
0.00016917051799 7.8919822758e-05 -7.3836104602e-07 2.8409320682e-06 -1.4827929765e-05 9.9523948307e-06 0.01214840187 0.0101748206 0.014889754052 
0.012255438718 5.0464621847e-05 0.00010732542501 -1.7375647967e-05 7.3320015064e-05 0.0051540779117 0.0025096841596 0.0031498179249 0.0039330250856 
0.0043788791268 6.355582741e-06 -4.3114722102e-06 3.4917075074e-06 1.4521017646e-05 0.025355359602 0.013365752979 0.11550534404 0.11738505388 
-1.3913414579e-05 7.1733386283e-06 -3.2126696863e-06 -1.0660482581e-05 -4.5841972819e-06 -1.1260455902e-05 5.1597577617e-06 -0.0020051272649 0.00026255814036 
-3.873186484e-05 0.00020454273021 -1.3798000344e-06 -1.2149473276e-06 -1.2273312434e-06 0.0030143362854 0.0048770892725 0.0012337566521 4.6184831835e-06 
-3.0353871305e-06 -1.8265466109e-05 0.014027424508 -0.00026585483862 0.0018658731573 2.2008110146e-05 3.4288560965e-05 4.6960720893e-05 -8.7545338e-06 
-2.6876057765e-06 -4.1215858693e-06 0.10692064987 0.1120906556 0.11164041411 0.10047867796 0.10140253315 -5.1288935832e-06 -2.184304298e-07 
-5.4550054637e-06 -7.6846482189e-06 -3.8280801761e-06 5.7155412711e-06 -5.3298360101e-06 -6.1429678338e-06 1.8119767999e-05 -1.6121848835e-05 1.2435923973e-06 
-3.7006293181e-06 -4.4524640083e-06 -2.9855942551e-06 0.099491038463 0.10275588253 0.11110831813 0.0029937985443 0.0022639964287 0.0024912383663 
-2.9676582993e-06 -2.268364319e-05 -1.3876652765e-05 1.3417253928e-05 1.6410052058e-05 -2.2567008003e-05 3.679394315e-07 0.02878728924 0.033920852044 
0.028292677357 1.3818722227e-05 -3.1576053258e-05 2.0565826312e-05 0.095867989772 0.094591022998 0.0092163458454 0.0065638671488 0.0078517489696 
0.075560473605 0.074941172695 0.082586686359 0.082185696184 0.0054947849073 0.0067125928711 0.0045537663264 0.11648138029 0.0052959524067 
-1.9764184915e-05 1.4917001803e-05 0.0028424866213 0.0058737913654 0.0014906589091 0.0040267901069 -8.7759664941e-07 1.8016210308e-05 -4.3890226542e-05 
2.7971110209e-05 5.4416383998e-06 -1.3520292397e-05 1.0640436894e-05 0.0077495401663 0.0069716857344 0.010516272194 -3.5036917461e-07 -7.8808457445e-06 
0.00039577043712 8.9378434464e-05 -7.4718214982e-05 0.10169668391 0.00041274900739 0.00033155903882 0.00075125001977 8.5375087485e-05 9.86101592e-05 
3.8952787484e-05 3.9501852848e-05 5.2936280789e-05 0.00013641069781 5.7877730726e-05 2.6481266467e-05 0.043496529565 0.010680414714 0.032110171826 
-0.010199271195 0.0022819241478 0.0017017182305 0.0013107994703 -4.5099576376e-07 -3.9005888479e-06 3.3309519805e-06 -5.4468418885e-07 1.0904936702e-06 
-5.4357572718e-06 0.0032233282275 0.0028756432508 0.0080096609677 7.1741333539e-06 -5.961936065e-06 0.044067580751 0.034453731444 0.05089446964 
-0.0017498027013 -0.000588644609 -0.00051187099139 -1.423289589e-06 2.5086094858e-06 -4.8749344382e-05 0.10553085529 0.10994681335 0.10561713199 
0.10700378511 0.10627285187 0.10667727428 0.0030414833898 0.0019775687879 0.0014999925134 0.01614734941 0.013028401858 0.020900362934 
-2.1913902542e-06 0.097030298483 0.089893117321 0.097032214346 7.3065326738e-06 -2.1318232307e-06 -2.516269274e-07 -4.0615728949e-06 -1.7223040003e-05 
9.7297480455e-05 -0.00041763566074 -6.9089912507e-06 9.5686970403e-06 1.1888404094e-06 -6.4059386396e-06 -1.3021961046e-05 1.5296525978e-05 -1.4044641877e-05 
1.3718633487e-05 -5.4329314509e-06 -1.2279631304e-05 1.1015318534e-05 -8.2687122602e-05 6.827257684e-06 2.3120246546e-05 1.0312945168e-05 -7.4751127046e-07 
-3.0019625248e-06 0.0047356535284 0.0035463139683 0.0011091951183 -2.6180477545e-06 3.2525163686e-06 -4.2680800173e-06 0.082191769873 0.090586228977 
0.083714288941 -3.6642250985e-05 -1.0540530037e-05 -0.0001036843099 -1.8917849736e-06 0.12082529366 0.058216559672 0.065673767454 0.063575421998 
0.051114925261 0.05199640313 0.044013047325 1.4139040122e-05 0.00051316717085 0.00075076663075 0.00048104686183 0.00027533467758 0.00049354273347 
0.0022772082025 0.00028789383274 0.00031229966426 0.095210448366 0.097457502055 0.10283715476 0.075016302817 0.07705323906 0.084170872656 
-2.6684007088e-06 -4.7112907472e-06 -1.1546538953e-05 4.2615256e-05 2.1480714853e-05 5.7945071789e-07 0.00029160510145 -0.00012368311807 -0.0045704932603 
-0.0062815939133 0.005261164089 -0.00026389083634 -0.00014103131413 -0.00023304248153 0.0003257370069 0.00031855587103 0.00029032625314 -6.6680790402e-06 
5.9526363683e-06 0.0002506857447 0.00039666567904 0.00058814396341 0.0030255523486 0.0054199721343 0.0039057541539 0.00023895939532 0.00031919345154 
0.00015276336602 0.00013704899982 5.77009509e-06 9.7550101444e-06 9.5529602258e-06 3.2442937461e-05 5.7424420032e-05 5.1008571206e-05 -4.7672383351e-06 
3.8178994513e-05 0.00097431573882 1.3919267587e-05 0.00066658287426 -0.0001070430265 4.2085516752e-05 -0.00025375905319 -1.2525492167e-05 1.0770111596e-05 
4.2921841719e-06 5.2757091447e-06 6.1483787001e-06 -7.9228761072e-06 -0.0059809340032 -0.0014017185522 0.0031555050767 1.1914663802e-05 -7.9668550241e-06 
8.9719230807e-07 5.3004888064e-07 1.2722915629e-07 1.3702146626e-06 0.066252062209 0.064680840716 0.060161580065 0.058924663884 0.0054793596662 
-0.0082124534346 0.007829404987 -0.0020385883315 -0.00069302956427 -0.00025074899201 0.018175880216 0.022131410613 0.018837969385 0.1015725822 
0.10405373757 0.10419026799 0.00062861882984 0.00072111399142 0.0012969516029 0.0016391399285 0.0020518347963 0.0018348976734 6.4791001221e-05 
1.3873413454e-05 -0.00011200243756 9.9641682922e-05 0.036707992768 0.027886186513 0.037283495299 0.041464949612 0.00069501851195 -0.0020043737797 
-0.00056958637013 0.030396465896 0.021963228914 0.00016869806176 0.057937928562 0.024776829222 0.0096059308375 0.011310656267 0.0088476056374 
0.001819669493 0.0026751138687 0.0020283946936 4.352504748e-06 1.2172474762e-05 -0.00012605471256 7.3272014023e-05 -4.5739102054e-05 2.327258792e-05 
-4.168202612e-05 7.0140406621e-05 -3.1801547312e-06 7.1688045053e-06 -1.1296666223e-07 8.2864060079e-07 -1.1760118204e-06 0.08555492179 0.08419280339 
-8.0915920716e-07 -5.9752193204e-07 1.6841298173e-06 0.00071551583229 0.0024992271603 0.0079635157268 -2.2703750873e-06 -1.7509861697e-06 -1.8981395045e-05 
-9.506093848e-06 1.1923115992e-05 1.3208554018e-06 -4.5302890361e-05 -0.00011480795755 0.087012687305 0.10180612349 0.0010546573294 0.0021164303197 
0.0016751811165 0.0027308572989 0.0050362995193 0.0056220593949 5.0627847836e-06 -8.5746592752e-06 2.0241332764e-06 0.010869311514 0.0076302347074 
0.0015141284272 0.0018280083364 0.0018765938838 0.0005057779041 0.00093542632038 0.0039732142762 0.0041790701321 5.0975857123e-06 -2.1871292478e-08 
-7.159900519e-07 4.051335556e-06 -3.934876954e-06 -4.4173686354e-06 1.7418538655e-05 -1.100504501e-05 -8.3076963489e-07 0.00094194739655 0.0010601670698 
0.0013929540306 7.6229684796e-06 4.0147182149e-06 0.00028859912267 3.7162180783e-05 0.00082008352172 -7.3489465334e-06 5.6785475324e-06 -1.8495213873e-05 
1.9648364863e-06 -5.5831109547e-06 3.8325011399e-06 5.2814056513e-06 2.9085307333e-06 -5.5473785713e-06 6.1280953582e-07 2.532341707e-05 -2.1961168589e-05 
0.032191763941 0.029529240216 0.00024632568156 -0.00021253249534 -1.8868047945e-05 1.7653391392e-05 1.5943687721e-06 -2.0265055301e-06 -2.8657600947e-06 
3.3118211459e-06 -0.00068888746569 0.00084108896084 0.00018983220378 0.0011774045925 0.0010095912503 0.0014404845079 0.11117806414 0.00010954992861 
0.00011082215982 0.00013600991491 0.068143079711 0.075637676785 0.075548075385 -9.4860003503e-06 -4.2379007317e-05 0.00013706615539 4.7610527075e-05 
0.097596552117 0.089856111604 0.089584063462 0.08998615779 0.082505247376 1.9280816904e-05 -1.9880228451e-06 1.7642626995e-05 0.053565605992 
0.056528770975 0.063068102444 0.099162955155 0.11122387814 0.10994940966 0.00088307852454 0.00077880240245 0.001167953156 -2.3888481173e-05 
3.456705995e-06 1.443084332e-05 -1.3586587411e-06 -4.247737293e-06 4.427864462e-06 7.1714287095e-06 3.8887173827e-06 0.0002317285098 0.0076750330121 
0.010511886985 0.0041884128745 0.006560568107 9.1241104294e-05 1.104164248e-05 1.6600564718e-05 -3.5227718674e-05 7.4546056796e-07 4.848976098e-05 
-3.9789270552e-06 -4.6433547864e-06 -1.5698088771e-05 0.01521058178 0.018667579616 0.013386349357 1.1780103927e-06 4.4943926945e-06 8.8602922158e-07 
-5.1906990261e-06 8.9486021071e-06 -5.5246212032e-06 -1.1196495183e-05 0.0026026004642 1.4260163284e-05 -0.00020745049835 0.096483507763 0.097167696643 
0.10142073302 -7.8002113062e-06 3.333320464e-06 0.0058529327013 0.0039617928594 0.015945291397 0.01918650467 0.021655299434 0.079622268372 
0.073251985919 0.080728817574 0.020289746061 -1.6684040529e-05 7.8939587346e-06 6.1777942259e-06 0.00010384039347 0.00020856290701 -1.3615594095e-05 
7.0921418029e-06 -0.00023062642476 0.00054401006096 -0.00016134246654 -0.00011139404345 0.052253571636 0.052997526009 0.057619724212 0.058795199279 
-1.0386647995e-06 -7.9308310609e-06 -2.7552688882e-06 0.040885274543 0.036158326432 0.00019838162781 0.0031595638149 0.0023973598832 0.0022696928659 
4.4581031897e-06 5.6795920834e-06 0.0070803409254 0.0091601829043 0.0049994556079 0.0065895194652 0.012575966765 0.011867842515 -0.0008391519872 
-3.477973205e-05 0.00057418880572 0.00012502743197 9.6485357591e-05 -8.3739712205e-05 -0.00013885564556 -8.3717512999e-06 9.2443395199e-05 1.9505660068e-05 
1.8788222565e-06 -3.6358701807e-06 5.1554566206e-06 1.7524571465e-07 -4.6681844174e-06 5.7709822755e-06 4.7996282908e-06 2.1769307303e-06 -1.339468939e-05 
-1.1942760336e-05 0.11261860187 0.112874631 1.2303592588e-05 -7.5159037322e-05 -3.0388284491e-06 0.0073617659808 0.0071489069457 0.0067355884919 
-0.0004582174198 -0.0015143746003 -0.0028197462321 -1.9642337233e-05 4.4562834136e-07 0.00022755602638 0.00035569901555 -0.00041091737552 9.6995305122e-05 
0.00011331973905 0.00022895974593 0.00092911133796 0.00066551568695 0.00092899462839 0.00065582112288 6.746835189e-06 8.2298320203e-06 1.6241076298e-05 
2.6597552173e-07 -1.2920899915e-05 -6.3235532913e-05 0.00035618279236 -0.0028189579841 -0.00013181119962 -1.1275055662e-05 3.6262726354e-05 7.2558088316e-05 
9.6768058924e-07 1.4081355468e-05 8.4057163391e-05 6.9293581087e-06 -1.7055852648e-06 1.905272203e-05 -1.6580400052e-06 0.026298112943 0.0097138848528 
0.014035929953 -0.016811288385 0.035230500388 0.019007597841 0.0014474929706 0.0013835506049 0.0024374069673 0.00052613176798 -0.0022605309266 
0.0019362899163 6.5833062888e-05 -2.5944641745e-05 0.00033765825613 0.00029849127505 1.6606760845e-05 -2.640860764e-05 -8.8980966089e-06 -1.1683940087e-06 
-6.2784029744e-06 -5.5208247316e-06 -2.3206930806e-06 2.8250069516e-06 -1.5587566468e-05 -2.1107978949e-06 7.1462852101e-05 0.0001213521286 5.4661160588e-06 
-9.2647222392e-08 5.2952726988e-07 8.551456939e-07 2.2611931785e-06 9.0665734014e-06 -2.3372259385e-05 1.5283997549e-05 0.0018854775137 0.0021183272337 
0.0015445192836 3.5655730855e-06 -9.4733673479e-06 0.056470562998 0.063467986289 0.06887945589 0.089143845096 0.097013257409 0.061788721146 
0.055668680895 0.054251585131 0.0069082094999 0.005321696102 0.009781790808 0.090511604548 2.3027827521e-05 9.4062667198e-06 -1.2846196592e-05 
-1.9758313618e-05 -1.3767809038e-05 -1.9507724834e-06 -1.7056082587e-05 2.5271835095e-06 0.00030803800963 0.00066863209023 0.045247286485 -9.8947069256e-06 
1.8175333992e-05 -2.0604903143e-06 -0.00071430023988 -8.2074673217e-06 -3.3537559208e-06 1.0147889663e-05 0.050583243069 0.051765857695 1.7462657871e-06 
1.9043130747e-06 2.2138840029e-06 -8.1064295251e-05 -2.1787839637e-05 2.6954685998e-05 0.084306983443 0.092989959286 0.092023479941 -1.6022306546e-06 
0.00067488315539 0.00019106977216 0.080400555984 0.088501430112 0.08747585449 6.3135103335e-06 3.43390687e-05 1.2457070661e-05 -2.9662834482e-06 
1.3848813665e-05 0.01305106401 0.018742228269 0.01342926811 3.4477398546e-06 -5.7275035737e-06 0.078271946144 0.07969053337 0.086389645883 
0.118657116 0.011083142622 0.011781158768 0.014997837638 0.011014515655 0.0110880515 0.011839123192 0.00829271018 0.0099108829117 
0.00015442018186 8.2969557296e-05 1.2335307959e-05 4.2962961936e-05 6.6194507323e-07 -5.8659164014e-07 0.016385963272 0.010804973541 0.014973751022 
9.8682064364e-06 1.5162233863e-05 0.029377703617 0.037314802602 0.032439896618 0.0046568419378 0.0050709691549 0.0058956509274 0.0044379134836 
-2.1131193328e-06 3.1485703547e-06 0.0012031272236 0.02340420874 0.022422306807 0.018457291912 -0.00028135782584 0.023941345514 0.030992205241 
0.029525456346 3.3444085091e-06 5.7493515909e-06 -1.2975150388e-05 2.1200566e-05 0.094492973024 0.086553248368 0.087135681216 0.09366583946 
0.08573362657 -3.3305041429e-06 5.3447418308e-06 0.011669940379 -9.0828091383e-05 0.077269375638 0.07893168675 0.097768320215 0.11041459038 
-0.00036700700759 -0.000369131814 0.0063140679964 0.0079608023704 0.0017678376416 0.016064398557 0.011271333543 0.0093825575268 0.0047553380817 
0.0071358334438 0.0028839862058 3.089441189e-05 -1.3804628599e-05 -1.1311900879e-05 -5.8795175898e-06 0.11704647514 0.10916573422 0.065901206571 
0.073645671085 0.093782515274 0.095747683668 0.00021843459333 -1.0335838506e-05 -8.3233685851e-05 -1.0237816999e-06 -1.4216250698e-06 2.6777015309e-05 
0.1124864383 0.11239663755 0.11219993299 -4.2209119689e-05 0.11205713189 0.10911852199 2.4560781307e-05 -4.3502008125e-05 -1.5034311236e-05 
-7.235767705e-05 0.01851290895 -4.2944124896e-06 9.6677026448e-06 1.6651892528e-05 -1.4874078191e-06 -9.8867876994e-06 -1.1512589996e-05 -2.3810505195e-05 
-2.0689217265e-05 0.0026694028239 -4.4308678724e-06 -6.020890139e-06 -1.0431738818e-06 -1.6123403578e-05 4.4028503004e-06 7.2899793308e-06 1.0389929047e-05 
-1.4005253654e-05 -2.1621142481e-06 0.00083503393047 0.001161080095 1.8111682785e-06 1.3866273248e-06 1.0036501965e-05 0.11150035569 0.10022527903 
0.046360232598 -4.2353744424e-07 -1.2808358642e-06 5.6259660492e-05 -2.9236670041e-05 0.00024987810942 0.00050690673661 1.3261704141e-05 1.0602217167e-06 
-2.6408928273e-05 9.9520683047e-07 0.0051984724456 -1.6624779561e-05 -3.1355993734e-06 6.0863801388e-05 -1.6110743218e-05 1.2663842098e-06 2.7786945002e-05 
4.780204093e-05 5.3385019978e-07 -2.4723238535e-05 0.0090901561708 0.0065248504141 0.0081023667455 0.010669276689 8.4541486609e-07 3.085134991e-06 
5.8171033443e-06 1.6280126286e-05 -3.2437649111e-06 0.002971719479 0.0023364248466 0.0010991782372 6.3963917996e-05 -3.9657097462e-06 0.0176590823 
0.014794467878 0.020320240898 4.797608336e-06 2.786688895e-06 0.06146648132 0.053592755188 7.5293175137e-06 0.011183862799 -0.0014728743452 
-0.0019547688808 -2.8292511721e-06 4.3060707902e-05 -1.1942430721e-05 0.00016401410348 -6.3366046305e-05 7.7040854846e-05 -1.360135035e-06 -1.3604156703e-06 
3.7547437284e-06 0.00024711179678 1.8424303363e-06 -3.6404512289e-06 7.2555493041e-05 -7.7586620821e-06 9.9970411186e-06 -9.7520761856e-07 -9.6996569199e-06 
-1.7424323899e-06 1.9129337353e-07 -1.3147991325e-06 1.7562734402e-06 -2.3383016312e-06 2.0616519368e-06 -1.2255783841e-05 -8.7477379529e-06 1.9292974742e-06 
0.036622262412 0.027051653302 0.029266074658 0.0019307917148 0.0021828461775 0.0025150817684 0.024752175928 0.00049877896057 0.00073678297654 
0.0010010793333 7.1320228416e-07 -1.3116682985e-05 0.065187009598 0.067258706629 0.065536430661 0.05828759645 0.056308805844 0.074324756391 
0.065374146318 0.061232672805 0.054964601838 0.050690448733 0.00054298833479 0.00056234498613 0.0010000473647 0.0010857565618 0.0010422045332 
0.0013960909483 0.00054430406398 1.2454793763e-05 0.068941220889 0.061570274087 0.060279381328 0.0007880832256 0.00052380469951 0.00068692156364 
0.10056595002 2.6460297448e-05 0.000262245267 0.00050328576357 0.0029357695239 0.0031407666061 0.0035739029959 0.0017681890817 0.0012490653731 
0.042940709257 0.049797067077 0.041327979561 0.048473134107 0.0027272209306 0.0022607774227 -3.9094174361e-06 -1.0893311499e-05 2.7972601848e-06 
-1.7044055467e-05 1.9443571956e-05 2.9224100696e-05 -2.745096994e-05 0.014005039242 0.011053929233 6.6108348606e-05 9.1835978753e-06 -8.5875076406e-07 
2.8901644227e-06 0.0038404777376 0.0053092221729 0.0033207300926 4.3647644951e-05 2.4822964575e-05 -6.527822286e-06 0.00012550938288 -1.2632683627e-07 
-3.0586932012e-06 4.0106875488e-06 -6.6737754978e-07 -0.00020531344782 0.00012095012639 0.00020399593872 0.0065574488922 0.0055530932038 1.1175605369e-05 
1.0893926259e-05 -1.7191972689e-05 2.2426520292e-05 2.5237001575e-05 0.0037299728005 0.018998875064 0.018476129009 -6.1702531817e-06 -2.9031505093e-06 
2.4480291261e-06 2.8164369553e-06 4.5935038578e-07 -3.1698518197e-07 0.002076891986 0.0045193489087 0.0016364050187 0.0045364168898 2.5677210679e-06 
7.5149011112e-07 0.018092678767 0.0053272083788 0.0044048203039 0.0061122199986 0.00089856214253 0.0011891011889 0.0014914996366 0.0043872385247 
0.066854908771 0.0034281991361 0.0023711761496 0.00045931652873 0.12416778816 0.10296108829 -1.2968419288e-07 2.2089447263e-05 -5.2557823184e-05 
0.00012254627471 0.0029878341114 0.0024974968191 0.0025748679343 0.0021796234689 -1.570030786e-05 3.0207950248e-06 -3.3525361762e-06 -5.6250817907e-06 
-6.3163454114e-06 7.8713714015e-05 0.00021846601961 0.00037037511544 0.00024896511154 0.00043034267367 0.0013427068573 0.0015262089239 0.00020951562983 
2.2595936031e-06 -1.3145040556e-05 1.2973342049e-05 -0.0025731697826 0.0002594530945 0.00096437819426 2.5597571763e-06 0.00087635059644 9.0211315117e-06 
0.051779747973 0.044866212657 0.023144364776 0.00018536567484 4.6393105498e-05 0.018385612902 0.014159288898 -5.2311397325e-05 -0.00012981738287 
-1.2848224023e-05 4.6908201183e-05 0.00016399215577 -0.00031406707567 0.11280091073 3.8548791747e-05 3.26887841e-05 -3.9349378305e-05 7.2315471017e-05 
0.00026130348499 -0.00046585979892 -7.4470621961e-05 0.046306611391 0.039587936453 0.047332449772 0.040392533621 0.053318550864 0.047662582088 
0.068479325687 0.07476044358 0.067729147581 0.00087232542814 0.00064865424413 0.00059828001807 0.028435296422 2.3025916371e-05 6.8796047247e-05 
-0.00015469544364 -1.1025540269e-05 -8.2383127677e-05 6.784288836e-06 -2.0555376631e-05 1.5740523786e-05 -0.00011832832894 0.011596101045 0.0026424547886 
-0.00024810324542 6.1223486267e-05 2.1903254428e-05 0.00018167268471 5.5372849648e-06 -0.00018764995031 5.3412122627e-06 0.00017492435959 0.000306809642 
0.00024648344784 -6.3352891742e-05 0.00017726347841 8.607957228e-06 9.4994362921e-06 1.160014579e-06 0.043910628176 4.9397022049e-05 -5.756103069e-06 
1.2080740676e-06 3.4786961048e-06 0.045639379864 0.038254944247 0.040473743309 0.0032560233805 0.0044949169584 0.0023399866911 0.0033534384949 
0.019385541642 0.016534491445 -9.8440556618e-06 -5.5753979556e-07 -6.0112273823e-08 1.0566505757e-06 -0.0007966349948 3.2129618523e-05 0.00087221690687 
0.0022962356594 -7.4927301744e-07 -7.6588688095e-06 -3.2255250549e-05 0.0011113951503 0.0023534557217 0.0016109726465 -2.975505336e-05 9.641563358e-05 
0.014805037033 0.058690957067 0.061150996935 0.067026375197 0.001060136372 0.0090995074098 0.011986066811 0.010202625989 0.026089572533 
0.035471062906 0.015125533848 0.0241385549 0.0076742758373 0.039642737176 0.048370630202 0.044525172097 0.060981184757 0.05368361401 
1.0681215382e-06 -3.6116673106e-06 8.7199567531e-06 0.038446286768 0.032872447663 0.031197266229 7.3497579675e-06 -6.5498020108e-06 3.0635679479e-06 
-3.0708207478e-05 8.9093976328e-06 -6.3608859778e-07 0.0010115689356 0.057715121322 0.047223909679 0.051558941103 0.041836582355 0.10143067922 
1.5115489655e-06 -1.3869206819e-06 2.3771005915e-06 -7.1685010706e-06 9.7705999279e-06 -2.2898665959e-05 0.0024364074681 0.0034441851837 0.0027263734174 
0.00038681835371 0.0087814473524 0.0046232233628 0.0087282953152 0.036169217376 0.043323893264 -1.858263785e-05 6.7505179813e-05 0.054470176338 
-4.0498718481e-06 3.7848268848e-06 -1.2407291696e-07 -0.0010867463193 -0.00091447222905 0.0013521442151 0.031020881595 0.033132384363 0.0057976476183 
-0.00080795714339 -0.0055877421496 6.591945278e-06 0.064387389018 0.061706980142 0.00016720452679 3.0189893423e-06 -4.4501861415e-05 6.7578087161e-06 
-2.3595931941e-07 1.6343032817e-05 -6.9049448492e-05 0.00021741857575 0.0012964423355 -0.00027874197453 0.073074888083 0.071949499514 0.013031788442 
0.017945507172 0.015248774185 0.017876419485 0.0043460430434 0.037341614278 0.029672954473 -2.1272955436e-05 -4.9324317424e-05 0.0084462673884 
0.0018248224064 0.00092640828343 0.0011226947622 0.0099481368872 0.0054326645756 0.0071709612324 -4.759130365e-05 0.00071518475025 -1.0740590746e-05 
-5.1932006577e-05 0.041136685403 0.038928448044 0.046962166946 0.045092557012 0.0088236925385 0.006171644843 0.060678378575 0.0016166600723 
0.0011680024326 -0.00015132919519 8.3500781281e-05 8.5663838142e-05 0.0068308703811 0.008586569358 0.0093613987504 -1.1569606931e-05 0.070256960617 
0.063320545865 7.4722693055e-06 0.00014364207843 0.00061577134028 0.00069187898647 -1.4343723066e-05 1.6017443345e-05 9.8212360733e-07 0.016085678032 
7.0988510086e-05 -0.00054355831793 0.00013560382975 0.01549563043 6.2613658626e-06 -1.3636579004e-05 -1.2342488126e-05 2.5697783946e-05 3.8921238018e-06 
7.0637814101e-05 -2.7690479513e-05 2.5645039409e-06 4.2500398051e-06 1.183789745e-05 -9.3857340404e-06 2.6931971455e-05 3.3372665069e-05 3.0092475384e-05 
-6.5649861956e-07 -1.8142973575e-06 -4.7588502131e-06 0.0095201486821 0.0039406242866 0.0069613313659 6.7902900151e-06 -8.7731279884e-06 8.5800149886e-07 
-1.6443334322e-05 2.3311302367e-05 -7.5158899795e-06 -1.6141961287e-06 1.3616082009e-05 3.3305214564e-05 1.5423046734e-08 -3.8779001657e-06 -1.4513536589e-06 
-1.0125945569e-05 0.00025019977448 9.7286750202e-06 0.0011376698043 0.0016716275065 0.0017264111555 0.012719340897 0.016915840193 0.00089181358757 
-1.506802771e-05 1.9817048658e-05 0.030552648198 0.001687859258 0.0087430789378 0.017593492861 0.029661798073 -0.00093678048493 -6.6219546098e-05 
0.0031241489544 -8.4779267279e-06 3.066033873e-06 8.733079697e-06 -7.7784414826e-06 3.1043417332e-06 -5.059655255e-06 0.077875562975 0.074754044221 
0.067398577479 7.2949662631e-06 6.6887358583e-06 3.3207407416e-07 0.0001427472156 -6.0093603448e-05 6.527143746e-05 2.6381682571e-05 0.00052255267877 
-0.00091523183576 0.0079714672951 0.0076410789193 0.0099761377587 0.0088286866509 0.0401107717 0.019252495955 0.053302645001 0.096968003884 
0.026967777543 0.011936430678 0.0098154807797 -1.1418079951e-05 -2.018109131e-06 -1.4502108264e-05 -7.2704440991e-06 -5.8618526509e-06 -1.0407824851e-05 
5.5785421135e-07 0.0015489646539 0.0018674969456 0.0020187720437 0.0008357098659 4.8148281301e-05 -2.0409644992e-06 -5.7599654627e-07 0.00031061897127 
0.00039510895428 0.00037447921505 -3.813573068e-06 7.3537492109e-06 -2.2481808823e-07 -1.5003242683e-06 5.5443278808e-07 -3.914325426e-06 4.5133516019e-06 
9.4769044267e-07 -4.5626037811e-06 1.1323893574e-05 1.2882463811e-05 1.4242795239e-06 -4.7923324468e-07 -2.362718585e-07 0.0035350995228 0.0053097323353 
0.0026446073638 -4.7526150579e-07 -2.1951906452e-06 -1.3245392847e-05 -1.4389410756e-06 -0.00036037762971 0.00025136426084 0.0007636790116 0.00030893747014 
0.018454289822 0.017306924093 -2.8838834406e-06 9.3824665158e-08 0.0049402519196 0.0097172074148 0.014474265786 -1.6003071595e-06 3.9250847859e-06 
9.1665466197e-07 -3.2916087434e-06 -1.9367160165e-06 -3.876232622e-06 5.4804712309e-06 5.3782482165e-06 0.10944873695 0.11324658056 0.077223142532 
0.0017380139311 -0.00010628153625 0.096905660465 0.10219360271 -1.4216203668e-05 1.1907511299e-06 0.0083527702176 0.012782656037 0.0075984905073 
0.036382136521 0.0033933869074 0.00031934116338 1.6324032546e-05 -7.4233890464e-06 0.0065304355585 0.00018748165784 -0.00029631643264 0.00026340839354 
0.0030968158232 0.0027731533934 0.00022296523958 9.9708255124e-06 0.094109778029 -0.00014443373924 1.0379608489e-05 5.1126771904e-06 9.7786996474e-06 
0.0015603829164 0.0012605389549 -7.2573461634e-05 0.00012876363355 0.031619685172 0.024664647696 0.030964923165 0.030227906581 0.038100362031 
7.1009956382e-06 -2.9871498522e-06 -6.7208201824e-06 0.00026786799754 -9.7182538833e-06 6.9753983287e-07 -3.2273625472e-06 -1.3142538933e-06 1.7945000343e-06 
-1.1118904206e-05 0.001640018091 0.024673582227 0.038479728804 2.7854712582e-06 3.0513692588e-06 -7.2254262587e-07 0.033238776385 0.0069749828451 
-1.2088811258e-05 -3.3455985434e-05 3.4073799197e-06 1.3137343606e-05 -2.7126270867e-05 0.056556472277 0.004443439589 0.003188176496 0.0020508129601 
2.5893084308e-06 -1.4052651299e-05 -4.8407997672e-06 -1.2977758979e-05 2.6998125924e-05 4.2492828716e-06 0.00047269177638 6.4810278875e-06 -0.012236768794 
0.0095197419039 -0.0014923455695 6.8561359656e-06 9.3964184557e-07 -9.9522680625e-06 -1.1134477678e-05 0.095384990595 0.037472360926 0.036999211308 
0.045267736157 0.044451650842 -1.4131772958e-07 -8.6922533058e-06 7.0278813889e-05 0.00012392656725 2.3495763792e-06 1.4882110381e-05 0.055236133503 
0.0038959639558 -0.0048699168914 0.003490863721 -6.3666684949e-06 4.2583426157e-06 8.32401978e-06 1.6743861167e-05 0.0061023943167 0.012324623082 
1.7760373644e-05 0.0071496617389 -0.0083883779573 0.0046028802568 0.02351285203 0.068246704769 0.0020502577491 0.00020413059885 0.040601672784 
0.034643691848 0.025044308952 0.026531863587 -0.014847276977 2.7011829753e-06 -1.8568767505e-06 8.6050093428e-06 0.019245140352 0.013245046625 
-0.0058219555045 0.0041187006364 5.4988191659e-06 0.037087110506 0.046299846438 9.7524236592e-06 0.00095961384774 0.001998027599 0.0019465563548 
0.0032449637429 -4.513877342e-05 -2.4738113915e-05 5.1314344857e-06 1.1762116453e-05 2.1020629293e-06 0.09517386056 0.092325308269 0.058971416249 
0.055424401672 0.054736558568 0.052988059699 0.0089484819133 0.020678393423 -0.00017121959473 0.0061933597682 0.010262395082 0.045577216979 
0.055361419851 -4.0975734648e-06 -5.0454054773e-06 3.6489173379e-06 -1.2145881943e-05 0.00011580823894 0.0055140022594 0.085630811239 0.11419256345 
0.10271263078 -1.9827303058e-05 0.0090948139306 0.010112076362 -9.2569216088e-05 0.0012050839684 -3.2446683808e-05 0.10447590843 0.00014487505119 
-0.0010105506743 -0.0001525735616 0.00013251320934 -4.1094347843e-05 0.00015181491103 0.00019946783985 0.00012999544203 0.01192731247 -4.1946678606e-06 
4.0368996385e-06 1.4661506375e-06 5.9543998259e-06 -1.5203023563e-06 1.4792920219e-07 0.0003429222074 -0.0001271197148 3.4358194719e-05 0.001718727662 
0.018409586555 0.012797249145 3.0824779888e-06 -1.9127149882e-06 0.0010897276491 -1.8616631073e-06 0.00048718813177 0.00084471065706 -2.62556358e-06 
8.0803665798e-06 0.00015462565118 1.3012782009e-05 7.6065886517e-07 5.0949587991e-06 1.0040095187e-05 0.0021512385023 0.00071948201082 0.014662664512 
0.010616537738 1.4206964672e-05 -2.290992896e-05 8.7627895355e-06 7.9551990171e-06 -2.8656822654e-05 -6.438768708e-07 0.00021673279541 0.00027583113173 
0.00013108387768 7.0479442207e-05 -2.3956459018e-06 6.5232693745e-07 -3.7310783812e-06 -7.7045290201e-06 1.824577788e-06 3.5930216403e-06 -1.273630555e-05 
-1.6434877513e-06 1.9855054328e-05 -6.1379224126e-06 -1.6774729907e-06 2.4434259661e-07 -7.2636708712e-06 2.7434428366e-05 0.0018414247573 0.045842864388 
0.012529659665 -1.1825698185e-05 1.0483208007e-05 -2.3992970528e-06 3.6332462159e-07 -6.1307091598e-07 0.003719277321 0.0034677728042 0.004612448825 
0.0071284712245 -4.3848131359e-05 3.0592560347e-05 0.093417853121 0.085416479948 2.7066119666e-05 0.00010923683946 0.040057992517 0.00017294985745 
0.00026906568713 0.088019808947 0.096142090427 -8.1300000063e-06 -2.5061037164e-06 0.003650852671 -4.6037156007e-06 0.053576146577 0.047221243752 
0.068199111228 0.072331722684 0.063797206243 0.053702793431 0.0001067177371 0.0011717373615 -4.3302009057e-06 1.8230584005e-06 8.4035628956e-06 
0.00023362841468 8.2825591032e-05 0.013203056703 0.00057889515644 0.00095902362016 0.0017262857952 -4.02806775e-06 4.3575441083e-06 0.00023071954774 
9.1200775879e-05 0.00036803965532 0.00048316825449 -3.8086599805e-06 2.6896078757e-06 0.081955183032 5.1430749785e-07 2.2967145647e-06 8.6737101639e-06 
0.0018356338516 0.017517354362 -3.5138259727e-05 1.7290900804e-05 -0.00010472303834 -1.7296683928e-06 0.0045366073981 2.9703638073e-05 1.7051523114e-05 
-9.3090552858e-06 -1.0166398636e-05 8.038723575e-06 2.3027907462e-07 0.00020394969168 0.00017513213323 1.1805302602e-05 -5.3064387095e-06 -7.3590829141e-06 
-8.7513541378e-07 1.3429931336e-05 0.10493172828 0.0009725837904 0.083684619387 0.080110217959 0.072782197913 -5.4261428255e-06 1.0591008683e-06 
2.9337961893e-06 0.015999365867 0.019372224212 0.014017069256 1.5482221748e-05 -2.7017960534e-05 1.4811368583e-05 1.8166690204e-06 1.0404001845e-05 
-0.00042725845882 -0.00046155866011 0.00069951731679 -3.5528735259e-06 0.0026390198069 1.8121653495e-05 -1.0313184807e-05 0.00042984643684 0.0063315373447 
0.0050253065167 0.0054201506615 0.039282691984 0.048339178428 0.041428945336 0.050059904618 0.00090437571149 0.00064009834989 0.0042636894402 
0.0045557181237 0.0019725431408 0.001983237191 0.00036376666949 0.045366583631 0.052074865553 8.6040190349e-05 0.026750991094 2.0344806462e-06 
0.00049357980267 6.2801295918e-05 -2.3544105858e-05 -6.519228109e-05 4.218313332e-05 0.083130889625 0.025142255195 0.023959788261 0.00098198636271 
0.00061622374312 0.10233883566 0.11295708107 0.089266418278 0.0793155676 0.00027243923675 9.2385220448e-06 0.0062007026654 0.015630175645 
-1.7229782296e-05 0.0045643706983 0.0031251408179 0.020509901179 0.024329003884 6.3237872282e-05 4.5915110199e-05 0.00014601412191 0.015163411332 
0.00087307513723 0.00038223396695 0.027363039181 0.023380806835 0.029831574216 0.036911934921 0.032763678206 -5.9898253307e-06 2.2537471661e-06 
1.2735871069e-05 -2.1178732349e-06 -2.7478496265e-06 2.9180878673e-06 -0.0062740873771 0.0030036066137 0.0040111890972 -6.3975612442e-06 -6.987224388e-07 
6.0123553126e-07 -9.9343647311e-06 -1.0165624963e-05 -1.9000357527e-05 -5.8566622323e-06 5.3973680027e-06 0.005049743272 0.039393621254 -5.1064816063e-06 
-3.7289984335e-07 -8.1931762997e-06 -1.2320688226e-07 1.85523511e-06 0.0037688070715 2.1875164396e-05 3.3495365972e-07 -3.6804883023e-06 5.7066756497e-06 
0.060340888601 0.068550619266 0.0040331740903 0.00064862763857 0.0011435406888 7.0942291307e-06 -0.00017642968019 0.0012645697741 0.0064230774946 
0.045636495426 0.053993207045 0.063178960085 0.0016606286179 0.0030163063163 4.9700010914e-06 0.010898621154 2.0907338666e-06 -5.0299164702e-06 
0.027083236632 0.021935829327 0.024737719603 -0.0020687033563 0.0074554246832 -1.911059605e-05 1.2820369217e-06 2.1569017048e-05 -1.7953208639e-05 
0.00018654837349 3.756846964e-06 0.044123110009 0.0020921293517 6.644454646e-06 -7.773867006e-06 -7.406966372e-06 0.00029185079569 0.00011789489921 
0.020449636982 0.027459070659 0.026954199669 0.033125193594 -1.6845793954e-06 0.052768844216 0.0046986755491 0.0086768047892 -1.5248367843e-06 
0.033959198746 -2.6462897238e-06 -0.0055850782117 -0.00011622204025 0.0070313501976 -5.0145356693e-06 8.2239938736e-06 -0.00010882102971 0.00041799172668 
-1.9858543547e-06 2.0833041165e-05 0.00023515685764 6.3335934874e-07 0.0038404259839 -7.7901324097e-06 2.4941993268e-05 0.11246825454 0.10037381445 
0.11169800288 9.7271314063e-06 0.088930268516 0.082415972563 0.0006179722625 0.00058431437711 0.00081424749074 3.0016378548e-06 -1.2151605192e-05 
7.9989087351e-06 -0.00021813152884 9.3351482546e-06 -6.0754527406e-06 -9.9523111426e-06 4.3730579219e-06 0.00082609607367 0.0020652259069 0.00022566039894 
-3.8137882635e-05 1.7758973293e-05 2.1270353812e-06 0.0042900764898 0.0015087028269 0.004961960715 -2.1516195852e-08 -1.2895802174e-05 -4.2606335926e-06 
-4.8448379278e-06 1.574906374e-05 0.0020876494229 0.0031845015384 0.0018264593955 8.677412945e-06 1.2648301746e-05 -7.9928659678e-06 -4.5437817676e-06 
1.0256339705e-06 0.00024104159761 0.00017426223718 0.00027284588488 0.025178355566 -2.7945347787e-06 0.00030312165437 -1.1877185493e-05 3.1764146253e-05 
2.3764810775e-05 0.0094625496471 0.02954451411 0.10200235457 0.045377722606 0.00035799102978 5.8558084026e-05 0.077736426368 0.0041343817095 
0.0061867448789 -0.0012489727956 -0.0016590022592 0.0011351278537 2.9805389963e-05 -5.3846279386e-05 -0.00015072287723 -1.1996297795e-05 -3.0807615928e-06 
-5.3216534352e-06 0.00045731208463 0.00046636563114 -6.9557363792e-06 5.9214752347e-06 6.7071315851e-06 -7.2680891745e-05 0.00013541927403 -0.00015533064672 
0.00019526847878 -2.2115918802e-05 -0.0096687454804 -1.6069765481e-06 -3.5650168018e-06 0.051573091263 0.035182334504 2.0775445977e-05 -7.1491927579e-06 
0.0016711345227 7.7214358996e-07 -3.1729339334e-05 -3.3427061297e-05 0.0029003842025 0.098722122767 0.097051968004 -0.00060443816002 -0.00039753557834 
0.0015030368256 8.2457280146e-07 -7.5288092818e-06 1.8314596764e-06 -3.6053839163e-06 1.9182853885e-05 1.8317929559e-06 1.1497517776e-06 -2.1549527333e-06 
0.016630676411 0.00088913126454 1.9045679341e-08 -2.0126782282e-05 0.023714242923 0.074350795125 0.080590508925 0.082721489724 0.097596088828 
-4.5269638687e-06 0.0036521450201 0.0011273542522 -7.7031028226e-06 0.021065076416 0.00017118651602 6.2153930232e-06 3.8062563556e-06 0.10658376457 
0.10866709303 2.2620257394e-06 5.3826217923e-06 0.00087894767524 0.0004092091656 0.00064488044614 0.022146054432 0.025714377484 -6.4651349469e-06 
0.06786289772 0.009866767545 0.010142614283 0.011769155151 0.011882843659 4.3391721688e-05 0.0015446787119 0.0010901375006 -6.2951759806e-06 
-2.2371496538e-06 0.0019126774401 0.0015303379835 0.0017817882417 0.0012427785662 0.0043537955795 0.0038436514062 1.5846639419e-05 4.4669232477e-07 
-4.0638279839e-06 7.7851417255e-06 0.075591825368 -6.5810439263e-05 -0.0070348620985 7.5633775672e-06 -3.5865112237e-07 6.3842515899e-06 4.0622496621e-05 
-7.0189021965e-06 0.087623940595 0.079664465925 0.089658104315 -2.294215941e-05 4.8126431246e-06 0.014419955906 -3.0777421217e-06 -2.9108674685e-06 
-7.343991231e-06 -5.2034797992e-06 -3.0595380672e-08 -1.9299836307e-05 -5.0564708289e-06 0.0004402656355 0.00036558403203 0.00028448840442 0.0011969983971 
0.0015238663796 0.0035436382726 0.0008885820838 0.0021708382188 0.0014311727257 -0.00018819642315 0.0016402518498 0.00094250036199 -0.00028093237727 
-5.8630620889e-06 -9.9245683052e-07 -8.1081725522e-07 0.10688987604 -0.0095096153028 0.081879975397 0.072351235122 0.00018821854004 -6.6183599357e-05 
0.01751228014 0.019802190388 0.041714319326 0.11076335792 0.10211250506 0.013031199912 -2.299457146e-06 0.10356072494 0.11324146503 
-0.00045951878671 -7.4388059327e-05 -7.8651405756e-05 0.0067061605517 0.005204912735 0.005542940774 -9.8280760652e-06 8.1400070847e-06 7.6734221651e-07 
-5.2743340988e-06 -2.4544300217e-05 1.9833589064e-05 4.3829568147e-06 1.8198460977e-06 2.0932327904e-06 0.046860506177 0.056079487386 -6.0235271302e-08 
-8.884240792e-06 0.0028177045247 1.0982701209e-06 0.023435178456 0.034441185325 0.0037015486258 0.11163704833 0.11007816889 2.1547363322e-06 
0.0013111741198 0.0044554816528 0.073022418971 0.11007760361 0.075447070514 1.191337311e-05 0.035534895508 -1.1600279333e-06 0.069981114322 
0.0052716443387 0.0029892191813 0.0045678808065 0.0010091574809 -0.00056315184781 -0.00010267388351 3.7699456723e-05 0.00038274030922 0.00015310391882 
0.0022771727145 0.0090864164636 8.6279224793e-06 -7.2728943984e-06 2.2650703197e-06 5.0399233597e-06 8.4859802584e-06 0.000143201246 0.00028862284281 
0.0005882334575 0.00031426505802 0.0091158571834 0.0033146783627 0.0031794786828 0.014199825238 6.695958187e-06 1.005891813e-05 0.015796478359 
7.947523934e-06 -3.6303638391e-05 0.00043204755229 0.00043786547442 0.00042317786661 3.1911654487e-06 0.0011343214474 0.00047774976261 0.00014011931785 
3.6540813906e-05 0.00037322891496 4.4952814451e-05 0.00072747774085 1.6997151678e-05 2.4218069189e-05 0.00030219297422 -0.0013247529187 -2.7931813659e-05 
0.0023690830121 -0.00048375912278 5.921875127e-06 -0.00049846023498 0.00030635759142 2.5048341213e-05 3.6803256241e-05 0.088618341625 0.081512495515 
0.081987940235 0.081969094493 0.074828797492 -4.5357175148e-06 7.608806513e-06 0.016275624907 0.02069393905 0.024066242817 0.00031178786006 
0.00028932279366 0.00018370318734 -0.00097163103032 1.4615542056e-05 8.1984717107e-05 0.00018476516862 0.0001008831323 -0.011104306231 0.0047165752015 
0.0042286149023 -7.4292282975e-05 -5.0086139054e-06 4.4092418164e-06 0.014740909516 6.25582618e-07 -1.2570690617e-05 9.059898003e-06 1.4491389333e-06 
0.0020603433984 0.00030850453698 1.395443943e-05 -2.3191621548e-05 0.031470780991 0.033878456947 0.017189758507 0.020070103268 5.4652914162e-06 
0.068457961976 0.045915705507 0.006655553073 0.0031984480648 3.557610074e-06 0.068132635099 0.042990176876 0.051256011682 -1.632988789e-05 
1.6503171552e-06 1.7527037246e-05 -8.8365718847e-06 0.00034381941102 -1.4217844846e-05 -3.3700432486e-06 -1.8814856041e-06 3.4925742943e-05 -1.3418539265e-05 
-2.0290191892e-05 1.4706884758e-06 5.8916525968e-06 0.0021350342125 0.034534052011 0.024370699742 0.01700419664 0.00010762457997 4.4015928384e-05 
0.0071097999463 -1.6991114814e-05 0.00011809406074 0.0034696243265 1.8973340505e-05 -8.23621365e-06 -2.0638604432e-06 0.0019901114439 0.001526498777 
-2.5575195979e-06 -3.9147477112e-06 5.273493633e-06 9.5869688726e-05 0.0089342792196 0.00834560671 0.0066566263323 0.0063175199446 0.052049304969 
0.016365192753 0.01243016672 0.011825207252 0.060705920738 0.057979502931 -2.675871241e-06 8.6854132027e-06 -9.0263266285e-06 6.5535398698e-06 
3.1740487409e-05 5.8703336788e-05 -6.5124465351e-06 3.5067428216e-07 -3.2922025545e-06 -1.6473789994e-05 1.7523072824e-05 3.0207361295e-05 0.012816751124 
0.072153617947 0.018568379029 2.2247557582e-05 2.8880778135e-05 2.9366452009e-05 -0.0050001353965 -0.0013844176899 0.00074777778024 3.5594935362e-05 
2.1206381051e-05 0.09730917068 8.0379198774e-06 0.0066621902793 0.0031525496697 0.0010061764717 0.073564493119 0.082890861379 0.0021709752402 
0.011278834499 0.0040027009639 0.00010102474999 0.06831934553 8.1509260485e-05 0.00018878220402 0.033067585088 0.028675601575 -7.6039408709e-05 
0.0071144386455 -0.0046282543106 0.00026778985018 0.0026468680772 -2.9819432235e-08 -2.479266264e-05 -1.5859051295e-05 7.3169330928e-06 5.5879378625e-07 
-3.7031880847e-05 1.4554229742e-05 0.00023743006768 -5.8082848362e-06 0.00055291983443 6.5915379911e-05 0.00078796556696 1.4014822531e-05 -1.6767189254e-05 
0.00017750644857 0.059033857456 0.053720559616 -6.0156408332e-05 1.7535886523e-05 0.0078402755116 -7.2459628021e-06 -2.7379688555e-06 -0.010269899878 
-5.9852128197e-06 3.4453293417e-06 -0.00014535840597 -3.7894178491e-05 0.071682060967 0.0015294975917 0.00098254675728 -7.0623996856e-06 -1.5964248385e-05 
0.00077435415411 4.6437625693e-06 6.2512858035e-06 -1.3622350979e-05 -3.9729262066e-06 -6.6502952407e-07 0.021048988253 0.028144456991 0.0003921704764 
0.036565305799 0.0036405175401 0.034995841519 -0.00010540238184 0.024420864368 2.4813244963e-06 -9.940638676e-06 -7.0150974802e-06 3.844542964e-06 
0.0018151176239 -4.3248886958e-06 0.0027969792233 0.10026974729 0.10131376515 0.098536944518 0.00045889561631 0.070815093677 -1.7993344081e-05 
0.00012477566153 0.00016185388978 7.3456003735e-05 -0.00027243387005 -2.7853777259e-05 0.00028875789499 -5.2576109719e-06 0.0033661616297 0.005043830393 
0.0050624685185 -6.5489679368e-06 0.034227616119 1.3519350394e-05 0.002951994354 4.5959927255e-06 6.9902195316e-06 6.2719233619e-05 0.0015001527674 
0.0075505354239 -4.5623757672e-06 -1.3779173597e-05 -4.2700677293e-05 -2.9410317576e-06 0.098066993561 0.00035249881418 0.0001784287478 0.11203446869 
0.021974744005 0.10032010519 0.011681146126 0.016721416241 0.0073701004414 0.00010602836054 -4.0147356883e-05 0.00030483847071 -1.1802469948e-05 
0.10241894357 2.7626488227e-05 -9.3522445523e-06 0.0014729487498 0.00066192575575 0.00044228334111 0.00046916452299 -0.00069669121104 0.0034303970067 
0.0052179687005 4.4669544043e-05 0.036271553637 0.027670483103 0.043810118725 0.006529936919 0.0010520179258 0.0023628444898 0.0036058589066 
-8.6494707321e-06 0.032000428756 0.0041195661672 -2.8817506396e-06 0.00057123894748 0.00046468759539 0.023825674458 0.024042219814 0.068913010199 
0.067482450542 0.099159319111 4.0337581836e-05 -0.00014698125243 -0.001728295267 0.00018364469041 -0.00063701716474 0.0036291231481 3.5204081673e-05 
0.061107779297 2.0282834902e-05 -1.4455295921e-05 -6.4144726948e-06 1.6192617322e-07 0.0062474234974 0.00089513051012 0.0010271011338 1.5070496595e-06 
0.076711039886 0.088133208703 1.5097884246e-05 1.7252953025e-05 -1.5685742208e-05 0.018549425411 -1.0213088251e-05 -3.4532690104e-06 2.3853982926e-05 
0.090571899433 0.09457478189 0.067204338604 6.9851409899e-06 0.0022966682656 2.0354002057e-05 0.0015902361345 -9.9988619922e-06 1.29951416e-06 
0.00010468494598 1.1032938505e-05 9.4916677761e-05 1.1943514117e-05 -2.0095008705e-05 4.2057645597e-05 -2.907933573e-06 -4.3193039798e-05 8.3084541524e-06 
-8.2595896328e-06 0.0005664372675 0.0013161726198 0.085336661928 -2.0786144141e-05 0.10043247974 -6.4921662575e-06 -2.3693174168e-06 -0.0001437374855 
0.00074053963855 0.0018709951899 0.0050899778702 0.011130561342 0.013596047273 -3.8201638389e-06 0.091525010337 -4.0507782072e-06 0.0041789656464 
0.0058403974234 0.0030534422717 -1.4868215392e-06 0.018546455904 0.075469889042 0.087706422882 0.1080851142 0.023680305214 1.7661871616e-05 
-4.0158074649e-07 0.011818190181 0.0024666936198 0.0044370404247 -1.851869327e-05 -3.422852618e-06 -3.0606488168e-05 0.042183203464 0.036959764143 
0.0075289659876 1.0793678311e-05 -0.00039881753828 1.3471374281e-05 -3.0568944903e-07 0.0023470926321 6.2458781939e-06 -0.00093739922222 0.0022461837597 
3.9442010286e-06 2.9710737005e-06 0.0088777676485 0.0067182396657 0.0052729583536 -1.0934636771e-05 -1.2078309818e-05 0.00022424100169 0.00088904232974 
0.00091867535556 0.011880028507 -1.9759632595e-05 1.2454648219e-05 2.4032751726e-05 0.0074362712288 0.0060639476479 -1.3841989635e-06 -0.00015202570093 
0.0011773658145 0.10269245729 0.11733434575 0.10849622952 0.0007386666566 -0.00018479458794 5.1078726404e-05 -1.2621992031e-05 0.00070474185491 
0.0026479747099 0.00017316400212 -4.0526236017e-06 0.073977588693 0.081474099304 0.086736504648 0.00087261007017 5.5578215446e-05 0.00013145316785 
-0.0010860720599 -0.000649213837 0.010910882333 0.04931864528 0.023522144435 0.077698147242 0.014641884815 0.046513812077 0.041510295514 
3.1467570052e-05 -1.3404938652e-06 0.00021175087763 0.014119964937 -3.3029034525e-05 -7.1232125952e-06 0.021247040693 1.1234618236e-05 -2.2510124116e-05 
-1.2612899582e-05 7.7114222806e-06 1.725901648e-05 0.0066446959968 0.0055746231792 6.1627199387e-05 0.0045543288291 -2.8652218899e-05 -1.6686090541e-06 
0.0080335739346 -0.00034794628401 0.00090140852168 -1.4446995808e-05 1.2687036735e-05 8.8572078661e-06 0.00049682618933 -1.3232839565e-06 -1.011191655e-05 
-1.7480238187e-06 0.069546960896 0.01529394307 2.0127962166e-05 0.00037335821257 0.036910167975 -0.0038605401382 1.7718952845e-05 0.00097766711162 
9.2626791753e-07 -3.5716368093e-05 -0.00060410024043 -2.4780172539e-06 6.681893132e-05 0.088813868582 0.027665384794 1.0357973176e-05 0.025483337634 
9.3791973886e-05 0.00074069593152 0.064189984601 -4.5319590412e-06 0.096847285237 0.029577224989 4.6391760207e-06 -2.2562036074e-05 -1.9601987783e-05 
0.057562741266 0.00069514970094 4.3665804029e-07 -1.269365223e-05 7.2069633594e-06 0.013332918655 0.0083817530636 0.059974939891 0.010722495391 
0.0090343347063 1.6758832746e-07 0.0051785215867 0.092762776551 0.00013416429949 1.1582972802e-05 5.4083173393e-05 2.3788128655e-05 0.00069629465052 
1.300540201e-05 0.097122172369 -6.0203419749e-05 0.039788097696 -2.0620242913e-05 0.074138114292 0.00045094327752 2.3322633543e-05 0.10233701284 
0.067901161111 -0.00015177759475 -3.4875437027e-06 2.7747361015e-05 -0.00015883735372 1.4327369167e-05 -4.6996037337e-06 -0.00017764039205 
Minor%20Principal%20Stress 1 9350 double
0.40250010549 0.30572240069 0.30365046354 0.40136354537 -2.5084460502e-05 -2.5824721025e-05 -5.4342636176e-06 -1.2421851457e-06 -0.033308953944 
-0.03057400343 -0.021984386192 -0.033678503801 -0.10496536822 -0.10682237683 -0.0031895444858 -0.057628375445 0.14506018426 0.14046917568 
0.12627089056 0.14140507239 0.14003111584 0.14190351419 0.13022517759 0.12388431508 0.1427978953 0.14395731414 0.14458097848 
0.13389475767 0.14289231244 0.14441412601 0.14511137897 0.13059999724 0.12208388446 0.1404472337 0.14035411753 0.13169505796 
0.14159648383 0.13737894448 0.13064880276 0.14777114199 0.15663401504 0.14630147206 0.14094335543 0.13769558749 0.1381991493 
0.16537951046 0.15860880594 0.14046018265 0.14084203293 0.14097107296 0.14288315763 0.17514819583 0.14120460613 0.14071544146 
0.14231049399 0.1453753339 0.16802913621 0.15664767629 0.13694565601 0.13768374295 0.1356671609 0.1409965615 0.15393102592 
0.13891704547 -1.3689680237e-06 2.5867409647e-06 -0.00011797360426 -0.00043778860299 -0.00089184117087 -0.0014853606054 -0.0022850124673 -0.0033192976516 
-0.0044951431787 -0.0057672683004 -0.0071754106788 -0.0088288643799 -0.01019721361 -0.011561218396 -0.012628518071 -0.013182001582 -0.013304101401 
-0.01278080123 -0.011731301384 -0.010083606791 -0.0082923907567 -0.0062200024668 -0.0042556073814 -0.0024354769819 -0.00099456471611 -0.00012683361821 
1.3207655914e-05 -0.19805892919 -0.0016394242428 -0.0010782167064 -0.00058269573845 -0.00032322896149 -0.00020442197531 -0.00023088232039 -0.00012760473184 
-7.1456733038e-05 -4.4891732317e-05 -4.0017721135e-05 -5.6124904772e-06 -1.3367679697e-05 -6.5036267831e-06 -4.0220376725e-06 -1.8427365425e-07 -2.3737356805e-06 
-6.9046796853e-07 -1.992039953e-06 -1.0662699449e-05 3.4179590975e-07 -1.0454268107e-06 -6.0361546857e-07 -2.369543268e-06 -3.6220967661e-06 1.5579814476e-06 
-6.5872796545e-06 -4.8389582762e-06 -3.3025549466e-07 3.0650828117e-06 -4.9487687375e-07 -4.3240618626e-06 -7.4631262983e-06 -1.1982192404e-05 -3.8690353688e-06 
-1.5040138644e-05 -1.5025547653e-05 -9.3714553582e-06 -6.6000817698e-06 -4.0164540875e-06 -1.7881144459e-06 -3.8301003205e-07 -8.2046392059e-07 -1.1463409522e-06 
-1.022150527e-05 5.0227583057e-06 -4.5604595978e-06 8.129471033e-07 -3.520072584e-06 -8.5582678274e-05 -4.4127449518e-05 -0.00011494528957 8.8905888231e-05 
6.0750938483e-05 -4.4015120849e-06 -0.00012765137668 -0.00039628536173 -0.0006093785208 -0.0004517270017 5.6349581401e-05 -1.6945009882e-05 -4.0847677085e-05 
-5.2148157757e-05 -8.2338301587e-05 -0.00031817901101 -0.0011853923213 -0.0018017397498 -0.00078749712113 -0.026211925797 -0.012437915253 -0.0035355759894 
-0.002219241439 0.012425417767 0.013356741948 0.012103676978 0.0068870009595 0.017243996014 0.024431447768 -0.015876877243 0.013356586882 
0.1116482266 -0.0029519625748 0.0008102602278 0.00049636488057 -0.0067561126767 -0.0069305233917 0.0049721770094 0.00108358113 -0.0084674098258 
-0.0039794649508 -0.0096875755174 4.9843101378e-06 2.9985128018e-06 -0.00018374681693 -0.00068709062773 -0.0014198400206 -0.0024854011041 -0.0038640724594 
-0.0054448520596 -0.0070670742845 -0.0089736657892 -0.010774406147 -0.012332408338 -0.013199101234 -0.013167009788 -0.012363213367 -0.010629912852 
-0.0084473638363 -0.0058686035988 -0.003393475149 -0.0014187520661 -0.00019002936101 7.9748691809e-06 -0.026704245111 -0.0086914266353 -0.001080672274 
-0.0006118465921 -0.00025288180555 -0.00014426021143 -9.7793797487e-05 -5.6734291233e-05 -2.7409511162e-05 -2.5899024935e-05 -5.1111943844e-06 2.7528690294e-06 
-2.5634275985e-06 4.7181641987e-06 -1.6691323868e-06 4.3209309869e-07 4.8660714034e-06 -2.4898997632e-06 -3.2554991113e-07 7.8284674207e-07 1.7628643815e-06 
2.5439328425e-06 -1.48715668e-06 -2.8540038735e-06 -1.2222873222e-06 -6.8452957349e-06 -1.186909807e-05 -1.5805299739e-05 -1.6673905088e-05 -1.5415336388e-05 
-1.2062463766e-05 -4.6884594604e-06 -4.1035668581e-07 -3.4182985709e-07 1.2900093773e-06 -1.9258924482e-06 7.5214754242e-06 -3.7159924721e-06 -4.4432933313e-07 
5.8003667882e-06 -3.0392765755e-05 -0.0001095965096 -0.0001099612936 -6.396282875e-05 -5.1954024818e-05 -6.8378735515e-05 5.7710294772e-05 -0.00028668694842 
-0.00073615776127 -0.0001278720673 -0.00017801298491 -8.357415817e-05 -4.228269606e-05 5.4035662985e-06 -0.00013184186446 -0.0002780519565 -0.00059583296962 
-0.00048696346911 -0.0026703173061 -0.005092174632 -0.10844169524 0.0099389226859 0.0091122974302 0.014422897813 0.0025575532615 -0.0039946215983 
-0.0039435001063 0.0067976740133 0.0024197293711 0.0054010191217 0.013985677135 0.087317241326 0.0076945889822 -0.0069546960065 -0.0060605284867 
-0.0052530603968 0.0043459189622 0.0051896652567 0.011343356429 0.0069346137287 -0.00036990280754 -0.020850254495 -0.020246775589 -6.4647084375e-05 
-0.0001984028879 -0.00045909569711 -0.00080243246653 -0.0012739307296 -0.0018771499883 -0.0026290798116 -0.0034939089311 -0.0044936495103 -0.0055861836722 
-0.006719482438 -0.007838800366 -0.0088662336657 -0.0097803216997 -0.010352052308 -0.010644208056 -0.010498220209 -0.0099429559483 -0.009000912233 
-0.0077629189648 -0.0062733514152 -0.0047622972082 -0.0033390490374 -0.0020864191458 -0.001149315838 -0.00041867343707 -0.032276428626 -0.00067843744575 
2.6448043667e-05 3.4693295574e-05 9.9539978112e-05 -0.00010132595105 1.5468669765e-05 -2.0588036442e-06 8.727261669e-07 2.1662828924e-05 -5.2942394891e-07 
-1.8093757434e-05 -3.0521542762e-05 -4.8529421298e-05 -6.6475121055e-05 -6.1179265685e-05 -6.9854831174e-05 -8.0465039891e-05 -9.3682796181e-05 -0.00010064416839 
-0.00010353729938 -0.00010397479113 -0.00011484572795 -0.00012454755996 -0.00012111856001 -0.00011074203733 -9.8210530714e-05 -8.2729289599e-05 -5.397242507e-05 
-2.3885413689e-05 -6.3528794692e-06 3.1866521135e-06 5.6624803364e-07 -5.9375156991e-08 -1.7566882048e-06 3.6582893279e-06 1.1611074948e-06 6.6987892605e-07 
2.0897960033e-06 -1.2066709105e-06 -1.2111564553e-05 -2.9703002825e-05 -4.0510580954e-05 -4.1024638972e-05 -0.00026320078589 -0.00010915199722 1.7432929203e-05 
5.7895120271e-06 -4.6228347908e-05 -0.00054480977268 -0.0021529193293 -0.0019707686336 -0.00093458172327 -0.00015034065086 0.00032723563771 0.0001185569404 
-0.0011369961552 -0.0018649322527 -0.0012626792386 -0.00049099950535 5.4327149813e-06 2.5581796878e-05 -7.5738605981e-06 1.1797995642e-05 0.00011540722083 
0.0027605509991 -0.019129722066 -0.064348801347 -0.039484360801 -0.033482050673 -0.032879599334 -0.033211614408 -0.038426193066 -0.064297124395 
-0.037756584015 -0.033236472472 -0.033298943917 -0.033146271057 -0.048858232612 -0.037776803127 -0.038553708502 -0.032445991935 -0.033099848311 
-0.038850591128 -0.06509184938 -0.037230617578 -0.038168454063 -0.032924875903 -0.03801008319 -0.066115439968 -0.074084778109 -0.029014505331 
-0.032410079452 -0.052043259864 -0.041173603313 -0.031118282175 -0.023382219175 -0.018369783288 -0.014967875321 -0.012880316814 -0.011207738091 
-0.023090345368 -0.017118146357 -0.017514216902 -0.0087609292436 -0.0052409989632 -0.0070300266109 -0.0086275080697 -0.017485192255 -0.027506111295 
-0.033902213543 -0.043489271784 -0.048356848312 -0.045937808087 -0.040643659089 -0.035494681681 -0.00022295252073 -0.0011713463271 -0.0041015781079 
-0.00096915755933 -0.0011897628549 0.00037744990571 -0.020609175251 -0.00036718868294 -0.00062902683689 -0.00095736516427 -0.0013687925875 -0.0018931573583 
-0.0025233780029 -0.0032890282211 -0.0040876269045 -0.0049717486087 -0.0058833646247 -0.0067540386639 -0.0074967331508 -0.0081384795097 -0.0085020089663 
-0.0086442407746 -0.0084040017588 -0.0077475597312 -0.0068834088708 -0.0059179279095 -0.0047278779451 -0.0036136222095 -0.0025801022846 -0.0017109356311 
-0.0008076662859 0.00020670623421 -5.982847334e-06 -5.8342638281e-05 -7.7116674792e-05 3.8414498901e-05 3.1203242319e-07 8.8322382826e-07 1.3816236353e-05 
-1.11771334e-05 5.3669862693e-06 -7.5754318061e-06 -3.831828414e-05 -0.00013379267658 -0.00020537902591 -0.00025398431847 -0.00030255824949 -0.00034818107625 
-0.00037596911296 -0.00040981288337 -0.00044027475822 -0.0004688378545 -0.00049319125746 -0.00049071447507 -0.00046200977018 -0.00043493063587 -0.00037149405001 
-0.000287751684 -0.00017787333988 -6.6543376261e-05 -2.4083106171e-06 6.3142320233e-07 -1.0626337399e-06 -5.2024192149e-07 -1.146933226e-06 9.3956084193e-07 
3.3583526136e-08 3.0149481568e-07 -1.0040371821e-06 -3.4085292835e-06 -7.192102394e-05 -0.00013343965055 -0.00017120577191 0.001130898111 0.0014473481261 
-8.2084287498e-06 1.3167044074e-05 -2.4863279064e-05 7.5864368333e-06 -0.0060620938379 -0.0075952781512 -0.0038981181447 -0.0018476019011 -0.0058379534731 
-0.0049767312798 -0.0026864150454 -0.00011193252375 1.6435452102e-06 -2.2881483854e-05 -4.3784318459e-05 -6.2852824033e-06 0.00026698473002 -0.0099436213806 
0.00036698990898 0.0020032684449 0.0016626405132 0.0014043001945 0.0019101919325 -0.00033311188205 -0.00032138913591 0.0020713336309 0.0015043918627 
0.001613394114 0.0020441770147 0.0012460814743 0.0030638531395 0.0017490239931 0.0016824900287 0.0020511323322 2.4531544026e-05 6.1817869045e-05 
0.0036299112839 0.0019648523837 0.00018270267032 -0.0023825521528 -0.00516710061 -0.016231940594 -0.023855132315 -0.018578745006 -0.013467843795 
-0.0091362540317 -0.0058500286747 -0.0010025642524 0.00018653253104 -0.0056119782511 -0.026101051857 -0.018899015024 -0.0015210814312 -0.028952507205 
-0.00088936407188 -0.02452569844 -0.0031059482744 -0.030730157618 -0.029738501639 -0.0038017955199 -0.001098023776 -0.012388068645 -0.027696780855 
-0.018139968839 0.00015043821165 -0.014357065565 7.1606612237e-05 5.3387271782e-05 -0.013060861382 8.4400916569e-05 -0.00060856241099 -0.00085340426716 
-0.0011576762698 -0.0015302335449 -0.002006265271 -0.0026578947068 -0.0033595308212 -0.0040875111447 -0.0048869301142 -0.0055183870126 -0.0060741598034 
-0.0066677041109 -0.0070308059701 -0.007050269531 -0.0066237765156 -0.0059755911562 -0.0052141170483 -0.0043343800821 -0.00341327162 -0.0026437836625 
-1.6787261387e-05 -0.00034766822562 6.3267760282e-05 -2.8773363701e-05 -7.3943611827e-06 -6.7748311954e-06 1.2247001929e-05 4.3171193902e-06 -9.2406007331e-06 
-3.6639335014e-06 1.0028717066e-05 8.6728346022e-07 -2.6426620581e-05 -0.00023773820766 -0.00040205696294 -0.00054406890186 -0.00065467238765 -0.00076089129858 
-0.00085267783907 -0.00091659805786 -0.0009819287114 -0.0010297524379 -0.0010571137093 -0.0010554350436 -0.0009868347144 -0.00087917434045 -0.0007113713579 
-0.00050292330554 -0.00025790605512 -2.1612375756e-05 -1.1421596622e-06 1.0340536912e-06 1.1656870128e-06 -1.4071016623e-07 -1.05326508e-06 1.6821958955e-06 
-2.0838899629e-07 -1.9162460754e-07 1.3214293951e-08 -8.8222483836e-05 -0.0001924139924 -0.00078062143988 -0.0071163524038 3.7289753256e-05 -0.010249153831 
-6.1403150353e-06 0.00026297615908 1.349741135e-06 -1.9392670315e-05 -4.9837276044e-05 3.7648759462e-05 -0.0085134854128 -0.0064386623502 -0.01478889618 
2.7248465394e-05 0.00028295585157 0.00026241829731 5.3432406851e-06 5.5831605937e-05 0.00033036192564 0.00033419311359 0.00025809215897 3.1552164593e-05 
8.2569451845e-05 4.1554925752e-05 0.00029189093797 0.00020827352658 0.00016932416034 8.4610099601e-05 7.3206294608e-06 0.00030836077522 0.00030149092113 
0.00018528477801 7.1313806007e-05 0.00013893996803 -0.005821361457 -0.00010554626638 -4.0472640944e-05 -0.013339918583 -0.015062586942 -0.0066198274042 
-0.0093531510535 -0.018583521995 -0.00022757627191 -0.011687013106 -0.018271032702 -0.0066052860569 -0.006760597663 -0.017507840893 -0.015265809918 
-0.0014666087425 -0.014896216498 -0.0017411167367 -0.013663555533 -0.0092602572104 1.1594712324e-05 0.00027806093089 8.9570225122e-05 -0.012143387504 
1.0354159458e-05 -0.0030232643862 3.9304015252e-05 -0.00090083715391 -0.00048501820602 -0.00058323211129 -0.00077463290372 -0.0011120760798 -0.0016204351852 
-0.0023296245859 -0.0029954564811 -0.0037693502522 -0.0040096834115 -0.0048689331065 -0.0056390093987 -0.0059482748746 -0.00580554808 -0.0052460526936 
-0.0045225165524 -0.0037071330976 -0.0030260028216 -0.0019556236862 9.1210065197e-07 -0.012770708443 -1.0625475557e-05 -1.6415074915e-05 -1.0458267962e-05 
-3.0386309124e-06 2.280744883e-07 -1.2667045829e-05 -1.0435513877e-06 2.5042830375e-06 5.6996473682e-06 2.6331848943e-06 -3.403562147e-07 -0.00037515502832 
-0.00068438069253 -0.00092025936347 -0.0011351805084 -0.0013141273142 -0.0014781133644 -0.0016077693492 -0.0017182484587 -0.0017867112749 -0.0018266746797 
-0.0017695368797 -0.0016315550474 -0.0013988193896 -0.0010701118225 -0.00065533555862 -0.00021250185832 4.9591651691e-07 8.6851144932e-07 7.4627127738e-07 
1.5643728258e-06 -8.9098341645e-07 1.7533797482e-06 -9.9982471819e-07 -1.2121678043e-06 5.6572910824e-07 -6.278672658e-05 0.0002711092554 -0.0034706723896 
-0.011882785563 -0.0086233061298 -0.011140399943 6.1703338691e-05 2.5190307911e-06 -2.5488346701e-06 2.1142311711e-05 -1.1322082697e-05 5.9080782242e-06 
-8.0568777632e-06 6.3336553749e-06 -6.7187166099e-06 5.607684823e-06 -1.3050110615e-05 -1.6700003293e-05 -3.3818213821e-06 -1.9994089268e-06 -5.1473508834e-06 
-1.7756297254e-06 3.8818938124e-06 -8.2317944319e-06 -3.7597742862e-06 -1.4904502179e-06 -1.774479282e-05 -2.0740761788e-05 -0.020613542147 -0.0081401718439 
-0.010060537046 -0.00039146794525 -0.0090190423838 -0.012093656252 -0.00029778090282 -0.0031224318075 -0.011436046495 -0.0084541674743 -0.0051429756023 
-3.0333437823e-05 -0.011598932522 -0.0046014296139 -0.0018822134881 1.1517039068e-06 -0.0087077111616 -0.0099873429203 -0.0020646506547 -0.0023304429971 
-2.9658221171e-06 -2.2753432587e-06 9.0226337325e-06 -0.00043252449419 -0.0013207133186 -0.0015414924393 -0.0026105473601 -0.0043312520916 -0.0049375868109 
-0.0052707703718 -0.0048832910234 -0.0029402243529 -0.011537518332 -0.0081441264489 2.6691059789e-05 -2.9066875867e-06 -1.3812599672e-05 2.2308000365e-05 
1.803001611e-06 -4.5750530595e-07 4.8608184303e-06 4.9948017698e-06 1.1009146464e-06 2.6765543593e-07 -0.00054804523061 -0.0010107184491 -0.0013761958319 
-0.0017133837942 -0.0020018491767 -0.0022300236985 -0.0024371393753 -0.0025882389069 -0.0027269788283 -0.0027273967638 -0.002584730033 -0.0023272074657 
-0.0018974245547 -0.001308044761 -0.00057683729056 -5.358225589e-07 6.9787543279e-07 3.2565206025e-06 3.0878996768e-06 -1.2333269343e-06 1.6593660515e-06 
-1.798867438e-06 7.2542350319e-08 1.4800105757e-06 2.9307961904e-07 7.3557084522e-06 8.2261898767e-05 -0.0044907102356 -0.0079624550344 -5.1347187491e-05 
-2.4382227561e-05 1.932617927e-05 -0.0021242372947 -7.702299284e-07 -7.5002167831e-07 -5.5334753843e-06 4.6570734667e-06 -1.6701289444e-05 -5.5557704833e-06 
1.4408661294e-05 7.813192735e-06 1.6632653943e-06 8.4883134515e-06 9.2052948607e-06 -2.267007354e-05 -1.6807793723e-05 -2.1024830934e-05 -0.0080260158095 
-1.493288944e-06 -0.0079708182078 -0.0086390260647 -0.0080088788173 -2.5011646653e-05 -6.1590913418e-06 -0.0039848169897 -0.0084298527178 2.9138726791e-05 
-0.0087613955917 -0.0092895968836 -0.0037294528283 -0.0067072732427 -0.0078375830185 1.2195453656e-05 7.1785404864e-06 -0.0078976039942 -3.9435450959e-06 
-6.9651354291e-06 -0.0038959043975 -1.9629809522e-05 -0.004313881742 2.2627418145e-05 -1.8102865897e-06 1.5121277312e-05 1.016212439e-05 -4.4746068856e-06 
1.2811185287e-05 5.4537408344e-06 -2.6309496662e-06 -0.00011228978057 -0.00079503760212 -0.0013730089034 -0.0019385002991 -0.0024149685762 -0.002799837101 
-0.0030829697486 -0.0034187518601 -0.0037316695465 -0.0037954950466 -0.0037089393824 -0.0034454283578 -0.0029988866402 -0.0023155738533 -0.0011761206279 
1.2812947542e-06 -1.4681764446e-06 -1.6197926471e-06 5.1463913953e-06 4.1046981739e-06 -3.6897423204e-06 2.9420823073e-06 4.0700581927e-06 4.8780958249e-07 
-3.5762703173e-05 2.2839779799e-06 -1.7388239274e-05 -2.6545496521e-05 1.3425312333e-05 1.8837203597e-05 8.9880066028e-06 -7.8674995147e-06 -1.1277944304e-06 
-0.0026646683571 -0.0053940375376 -0.0052058967448 8.6327340812e-06 -0.0047586644788 -0.0056937091783 -0.0072446689226 -1.8484262281e-06 -0.0081313421958 
-0.0066632651495 4.1607592184e-05 -7.3695251519e-06 -0.0031378926101 -2.0389771875e-05 -9.4076157433e-06 -0.006374297872 -0.0072593404345 1.244760815e-05 
-0.0050508176984 -2.6288012844e-05 -3.4587420024e-05 1.6452317604e-05 -1.2449445752e-05 1.0318227702e-05 -2.4221497633e-05 5.6503935323e-06 4.2812420174e-06 
-7.0703039456e-06 -0.00071158828555 -0.0017113709548 -0.0025149390928 -0.0031955520349 -0.0037428665509 -0.0040311524816 -0.0047227537989 -0.0050625637655 
-0.0048180780813 -0.0048491935115 -0.0042086018394 -0.0037766989552 -0.002218758691 -9.1850804868e-05 -7.3409750436e-06 -6.7082318416e-06 -7.2938101227e-06 
9.4531115453e-06 -0.0049536929037 -0.0079795967787 -1.2500950569e-05 -2.0683222998e-05 -0.0064381422553 -1.4930344633e-05 -4.1692069048e-05 -3.011297183e-05 
3.7316660124e-05 -0.0044631162326 -0.0026572848726 -0.0054342090198 -0.0032940682724 -3.6497302669e-06 1.5890077725e-06 -0.0012636762947 -0.0024536684469 
-0.0050996113852 -0.0056033351536 -0.0071852568591 -1.1111783847e-05 3.5580061257e-05 -0.006546351203 1.1511291218e-05 1.6704471938e-05 -1.524030675e-07 
1.1635217326e-05 -1.0581078962e-05 -1.239173633e-06 -0.0032810637325 -0.0042497406705 -0.0059684311256 -0.00068107892218 -0.0025324370612 -0.0037660483528 
2.1352130461e-05 1.3982529782e-05 -7.2820545797e-05 -0.00027381437327 -0.00062083709212 -0.0011251544399 -0.001834073487 -0.0027592980892 -0.0039157104734 
-0.0050972532123 -0.0064351399198 -0.0077296789213 -0.0088789579806 -0.0097761422972 -0.010053305444 -0.0097488374014 -0.0089117974003 -0.0075476126573 
-0.0059186467854 -0.0041728355469 -0.0026192956218 -0.0013791207225 -0.00047220728479 -0.0046720846321 6.7138671078e-05 7.9820668434e-05 2.7258263815e-05 
4.5057978223e-06 6.3796006778e-06 3.7349935742e-06 -4.992751133e-06 -5.3920967798e-06 8.8462777318e-07 -2.1914213661e-05 -5.3670060362e-05 -7.8580222179e-05 
-9.6230712232e-05 -0.00010851959842 -0.00012558596707 -0.0001380954499 -0.00013657071877 -0.00013997918168 -0.00013913792742 -0.00013860716028 -0.00011991433525 
-8.946893247e-05 -4.1987255548e-05 -1.4109234735e-06 -4.3672308121e-07 6.8330763668e-07 -1.6940931333e-06 5.8921488527e-07 6.3427477288e-07 -8.1452307648e-07 
-1.0884416748e-07 -2.5931091839e-05 -5.746520679e-05 -0.00022040798327 -0.00013700077045 -0.00020451560907 -3.9463721397e-05 1.741091949e-05 1.0884680392e-05 
-0.0015822841061 -0.0031344627706 -0.002897480544 -0.0015576212625 6.2030712168e-05 -0.00019725187245 -0.0022332735257 -0.0021235687174 -0.0011201111906 
-0.00038380321014 -4.2100011852e-06 6.6715929072e-05 1.7038641211e-05 8.7746257375e-05 8.5344501205e-05 0.0010976675579 -0.051199893013 -0.011309292057 
-0.034021081344 -0.036035718339 -0.036000717474 -0.031183355669 -0.01176750405 -0.031065478232 -0.034518863953 -0.034690829148 -0.029589551387 
-0.030959747689 -0.031835877899 -0.036771417954 -0.033946559153 -0.011144322047 -0.03108486466 -0.030642571088 -0.035454173239 -0.015221517293 
-0.082721759324 -0.039391828297 -0.053283526241 -0.041768607502 -0.031288898572 -0.023266351996 -0.017062788699 -0.01228238695 -0.010827176746 
-0.0091890241426 -0.0062377706197 -0.020489369924 -0.04629000563 -0.0026393569474 -0.0065765618574 -0.0077081405566 -0.0094971322615 -0.016696186742 
-0.0271457038 -0.042213817317 -0.046572578386 -0.043246278731 -0.047604977003 -0.042917450994 -0.024220740361 -2.3141746685e-06 -0.00018901498099 
-0.020461039078 -0.0189147803 -0.015168488534 -0.0076686287992 -0.0068192681911 -0.0098023175535 -0.000477247063 -0.00023505667652 -0.0011416796633 
-0.001699593068 -0.0024066593678 -0.0032929798484 -0.0042244647862 -0.0052192306228 -0.0062604509642 -0.0071429304689 -0.007684460488 -0.0077538151729 
-0.0073711823633 -0.006494192557 -0.0054382450588 -0.0041968221705 -0.0028736993602 -0.0017269103523 -0.00079132777111 -0.010912412296 2.6328871256e-06 
5.3533840468e-05 0.00022992475092 -4.7230148879e-05 7.7631423526e-06 3.9495478337e-06 -6.0171497346e-07 -3.6201997797e-06 -1.104020621e-06 2.762753541e-06 
-7.1439715912e-05 -0.00020357721111 -0.000297454443 -0.00037777732486 -0.00044452408027 -0.00049491861753 -0.00053444269312 -0.00057535121923 -0.0005854774154 
-0.00057420739005 -0.00051902866342 -0.00041532652165 -0.00024735721137 -6.9193263622e-05 7.7547560926e-07 -2.9965308883e-07 -1.1075735587e-06 -6.4822250607e-07 
-9.1286307733e-07 5.0531788679e-07 -7.99616489e-07 -3.3776310793e-05 -0.00014862040658 -0.00070369032194 3.5197247669e-05 -1.4118697168e-05 -0.0085669000229 
-0.0016963464626 -0.0071192099238 -0.0069927034824 -0.005063854254 -0.0019617062095 7.6236331319e-07 1.0644567449e-05 -2.008022594e-05 -0.0001703894847 
-1.8163643156e-05 0.00075633313898 -0.019060778773 -0.0089850079355 0.001187201025 0.0012985327432 0.0014377093245 0.00056066786967 0.0006808220781 
0.0014151548623 0.0016153862935 0.001618291513 0.0010905350928 0.00076335425798 0.0012751978972 0.001294587737 0.00059784445397 0.00041492231558 
0.00089541271288 0.0010948609648 0.00048768992032 -0.0089064630092 -0.0015789379954 -0.02494588587 -0.026325929548 -0.023767956028 -0.018215164256 
-0.012938505728 -0.0016124822581 0.00080581332527 -0.0047413238257 -0.0069987884002 -0.0019921634743 -0.028828042306 -0.024835899602 -0.024858021153 
-0.028803464294 -0.00075411589162 -0.0045650375603 -0.018863283963 -0.00037026689582 -0.013172244818 -0.016915513247 0.00065469397237 -0.013244309196 
-4.2082936443e-05 0.00037807024274 0.00019223245822 0.00029766251297 -0.013447184155 -0.0059350657983 -0.0087895629424 -0.00043477557854 4.995129105e-05 
-0.0014978773346 -0.00073101069783 -0.0021465050592 -0.0029915385741 -0.0039126515908 -0.0049311589169 -0.0057252129489 -0.0061809848926 -0.0061575592914 
-0.0055957828685 -0.0046807863964 -0.003718997928 -0.0028676222317 -0.0016815390203 -0.012937776512 -0.00038064875281 -0.0083069315783 -1.7202472682e-05 
7.4677215846e-05 -3.7278566759e-06 7.1887879917e-06 -7.8550106111e-06 -2.79920979e-06 -4.4279669823e-06 -0.0001284655675 -0.00042736838475 -0.00065523519851 
-0.00083595322426 -0.0009777500748 -0.0011070016698 -0.0012069618596 -0.0012493621523 -0.0012550858508 -0.0011673517874 -0.0009705635427 -0.00070115824245 
-0.00032266521993 8.5490936559e-07 -1.8208264026e-06 -7.4038620861e-07 -1.0331073875e-06 -1.380700631e-06 2.3154035318e-07 7.0821427174e-07 5.6606003531e-09 
-0.00013864790568 -1.1161973635e-05 -0.00048412535839 -0.0010534096831 -0.0082270030209 9.2495273837e-06 1.5047697297e-05 -7.3211636456e-05 1.0754026232e-05 
0.00012568681899 3.303162312e-05 5.8648507597e-05 1.7495000958e-05 9.954810522e-05 8.4272901283e-05 1.2105282052e-05 2.8930402164e-05 2.2805751429e-05 
1.3148992612e-05 2.8091427284e-05 2.5731279182e-05 5.3818305733e-05 5.5842300934e-05 -0.0070215045311 -0.0043245897093 -0.017671121978 4.7443313854e-05 
-0.013678138011 -0.0019225858749 -2.8323484189e-06 0.00041059671602 -0.012073790439 7.4040111112e-07 -0.0073374627065 -0.012315889734 1.8119021141e-05 
-0.015683964245 -0.0090610865432 -0.0070912214488 -0.018306764036 -0.00050361436942 6.809002666e-05 -0.0029257249536 -0.000903382556 -0.00016853195656 
-0.014283428606 0.00031124238861 -0.011557376795 -0.018911197157 6.749543495e-05 -0.017127445609 -0.0001336737865 -0.0026512436117 -0.0039366892703 
-0.0048105420983 -0.0052370122201 -0.0051050768172 -0.0038441852852 -0.0030220178858 -0.0020116001329 -0.00019675042961 -0.0028193085397 8.3289087187e-06 
-1.1654078358e-05 -4.7389310106e-06 -5.9778964546e-06 -0.0002481222229 -0.00076455002245 -0.0011253904973 -0.0014310051628 -0.001716475517 -0.0019419374768 
-0.0020707001063 -0.0021468826192 -0.0020740736497 -0.001868665874 -0.0014464544366 -0.00088713908739 -0.00018732099235 3.9823680341e-07 -2.9797617561e-06 
-1.1974754535e-07 -1.2212779495e-06 9.876044219e-07 9.933562127e-07 2.0028000219e-06 -0.010706231448 4.7922785854e-06 -0.008688721322 2.2768458355e-05 
3.1982769736e-05 8.9484656048e-07 -1.6645610114e-05 4.7339789928e-05 6.1737008247e-06 -3.5630640202e-06 -6.1684820049e-06 1.9733532473e-06 4.0675582311e-06 
1.7781391803e-06 3.5578512174e-05 7.8420749774e-06 9.5723359077e-06 -0.0015683682656 -0.00066479168252 -0.0058279126157 -2.6214432605e-06 -3.7127048921e-06 
-1.0032577152e-05 -0.0039182134591 -0.010372809273 -0.012090413663 -0.0093793318868 -4.0773540007e-05 -1.3984474513e-05 -0.006546392925 6.4356040219e-06 
-0.0099490256369 5.9465524608e-05 -0.011705635387 -4.8411237839e-05 -0.00080691719152 -2.4594869432e-06 -0.0087109319118 1.0533252712e-06 -1.2077109809e-06 
-0.0061731636762 -6.8293443695e-06 -0.0086933453609 -2.7261299667e-05 -2.3683783127e-05 -0.012833941324 7.7447438802e-06 -5.0748606938e-05 -0.00862721873 
-0.0015441117859 -0.0046869252303 3.8895111869e-05 -0.0022549577865 -1.8466998147e-05 -0.0049800799725 -5.9362271218e-06 -5.4483247654e-06 -0.0011675522958 
-0.0017152373823 -0.0022115810011 -0.0026327003468 -0.002977307565 -0.0031886519311 -0.003149810657 -0.0029576417806 -0.0025107010144 -0.0018050793559 
-0.00075268805214 -1.3238219773e-06 1.1547708687e-06 -2.8701420752e-06 2.251751766e-06 5.4158884334e-07 9.8843698929e-07 3.0769420695e-06 -2.1626554877e-05 
-0.00046830054782 -1.8026350508e-05 4.4056765143e-05 2.3107898925e-05 -0.01192465736 1.9632424895e-05 2.1852836493e-05 -0.0013306420361 7.1474186175e-06 
-2.2739058879e-05 2.9070706088e-06 -1.9808745632e-05 3.0572314833e-05 8.3067181101e-06 -2.54078675e-07 -2.8270083073e-05 -1.0076968948e-05 -0.0035112295089 
-0.0045429171448 -0.0066038184526 -0.0087999952799 -0.0085392464677 0.00010018007515 9.7577286976e-06 -0.0077450271961 1.1455183119e-05 -0.0057054640172 
-0.0071081771315 -4.5267474193e-06 -1.3932852584e-06 -3.291078811e-06 3.2692765722e-05 -0.0089060360505 -0.0088524237815 -0.0021287211341 -0.010480409547 
-1.2408435121e-06 -2.3337772687e-06 -2.7150133425e-05 -2.5269226873e-06 -5.0350565012e-05 -0.0089476183724 -0.0085582681088 -1.629925515e-05 -2.5625875357e-05 
-0.0053394536247 -2.5744471098e-05 -0.0024100377396 -0.0016567427605 -0.0037317346817 -0.0041590146859 -0.0043547521125 -0.0042990656061 -0.0039399084196 
-0.0030729314419 -0.0018264228752 -0.00016324010674 6.0107182717e-06 -3.4524726616e-06 1.1018154823e-05 2.5005598946e-06 8.78942476e-06 3.3416047409e-05 
-4.55343675e-06 3.9332450276e-05 -0.0089190568677 -5.8388395998e-06 -0.0013231289892 1.2617510879e-06 2.4052869162e-07 -8.3771140748e-06 -1.7192184358e-05 
-2.0695858218e-05 1.2028840467e-05 -0.005154304732 -0.0071571944041 5.0424825551e-06 -2.9736661073e-07 -0.0031164603285 4.4215657602e-06 -0.0088125663406 
3.8330367745e-05 -1.6770618542e-05 -0.0038107981815 -5.9801942146e-06 -0.00089756850669 -1.8314075596e-06 6.9777026779e-06 -0.0075671353143 -0.0061756028204 
-0.0069517910376 4.9648395702e-06 -0.0076811585752 1.8371812798e-05 -4.3222388181e-06 -0.0022493975855 -1.0149602585e-05 -0.005629064332 -0.005020705718 
-0.0058572714313 -0.0035251662266 8.1094936404e-07 -7.8427048281e-06 1.7841278326e-05 -1.0173250525e-06 -4.8988070602e-06 -6.2752115045e-06 -2.3449155566e-05 
-3.0945637585e-06 -0.0016107760515 -0.0041824323703 -5.6770524276e-05 -0.0055298720302 -0.0018795022359 -1.515330609e-05 -1.7895129141e-05 -0.0081968835152 
6.7496036071e-06 -0.0058602010297 -0.0046500329898 -0.0010036192452 4.1774010472e-05 -0.0061242919507 -0.0081395285451 -3.8378386776e-05 6.4293579658e-06 
-0.0031621798996 -0.0053498102248 1.8973015702e-05 -0.0069529880509 -0.0053936336348 -0.00024517887183 -0.0011917724176 -0.0043876009273 -3.6795905796e-07 
-0.0033532743904 -0.0028051077752 -1.3489258089e-05 -0.0013357227167 1.9437906661e-08 -0.0068526560742 -0.039569847003 -0.0045677239121 0.42297264192 
0.41854776327 0.21379536093 0.17329534976 0.13093571854 0.2201427859 0.21875983511 0.2222606665 0.22324904623 0.12802033043 
0.22552180799 0.22820781267 0.22786257747 0.23659890049 0.22512078466 0.22809068175 0.22612632402 0.22537326493 0.12691760643 
0.22528890973 0.22267711722 0.21902938294 0.13860732542 0.1666486359 0.26078239977 0.25798447386 0.14617025308 0.18903736204 
0.20596856381 0.22567715624 0.22555967034 0.22109824804 0.20007909065 0.16344080247 0.20468374914 0.22941918274 0.22829096477 
0.22932367534 0.21149704493 0.21244836182 0.23065076491 0.23122966682 0.23255522254 0.20415327747 0.16386220362 0.20070527982 
0.21953044984 0.21806058558 0.18795601146 0.14802204769 0.15679992018 0.17998384054 -5.570288548e-06 2.4947146535e-06 -1.2365407465e-05 
-0.00024144873517 -0.00062455824052 -0.0011478399074 -0.0018516448519 -0.002777300659 -0.0038547472978 -0.0050866784323 -0.0064491133864 -0.0080045008079 
-0.0095593297445 -0.010950750343 -0.012166719669 -0.013000408422 -0.013363702217 -0.013152905522 -0.012410904963 -0.011009820218 -0.0092366832236 
-0.0072674774688 -0.0051955496805 -0.003271513808 -0.0016475304595 -0.00040066631476 9.4185986186e-05 -6.1271073297e-06 0.034233124069 -0.033519449802 
-0.0047562358287 -0.0024645681858 -0.0011000452187 -0.00068166724111 -0.00024880058938 -0.00027067859122 -0.00021767607182 -0.00015457906177 -0.0001309617734 
-3.9729547195e-05 -2.3866268858e-05 -8.9240158122e-06 -1.0399459142e-05 -2.8237658717e-05 8.6173117051e-06 7.8215629445e-06 1.0023004057e-05 1.0003184665e-05 
-1.1611196475e-07 1.8959342491e-05 1.4934962931e-05 1.6316925898e-05 1.8599479843e-05 2.1642120394e-05 1.8002849676e-05 1.6936112714e-05 1.2872903545e-05 
7.6797208319e-06 1.9873977231e-06 -8.9652365858e-06 -1.7900043466e-05 -2.5540240523e-05 -2.2213429063e-05 -1.7741525874e-05 -3.1865743054e-05 -3.4090448878e-05 
-2.5361167482e-05 -1.1614135437e-05 -3.9050756887e-06 1.4139505151e-06 4.8094099626e-06 3.1182585213e-06 6.6338074238e-06 -1.3580111964e-05 -3.6350173162e-05 
3.1759339817e-05 3.131395354e-05 8.1722976307e-06 -9.1569867402e-05 -0.00023563634189 -0.00017744368482 2.4997542791e-05 0.0001869568856 0.00025675547698 
-2.9237192093e-06 -0.00031227070167 -0.0015662764127 -0.0012774915375 3.7125717026e-05 0.00022278821142 0.00010131190301 1.5217771611e-05 -0.00014502347226 
-0.00053539546047 -0.0011698202068 -0.0037858632444 -0.003593788025 -0.0061219608049 0.041052471102 -0.077856608103 -0.037996218154 0.0011546973221 
0.0013745370698 0.0060975416068 0.021500385217 0.02169378302 0.0019332638288 0.020176932805 0.026470583497 0.0006890311932 -0.0043233384906 
-0.0020368819022 -0.081636772473 0.028023777344 0.055149363329 0.015738970729 0.010821717196 0.0033619075063 -0.0051184715137 -0.0083999387444 
0.0048348806201 -0.0035690193948 -0.0042660224624 0.006473944118 -0.017342750606 3.7375146607e-07 2.3226500211e-05 -2.7386189637e-05 -0.00039159109903 
-0.0010031550642 -0.0018867103764 -0.0031086821546 -0.0045938748465 -0.006220023479 -0.0080085548331 -0.0099214610766 -0.011678706267 -0.012947508776 
-0.013392102425 -0.012970509224 -0.011677126002 -0.0096392336652 -0.0071987621288 -0.0045744852036 -0.0022632970536 -0.00066347458348 5.5921159168e-05 
-1.3053066658e-05 0.043854999435 -0.015599687984 -0.0049922593724 -0.0014555386756 -0.00071878672142 -0.00045329773289 -0.00025629084726 -0.00015321485945 
-6.8757420435e-05 -7.885939197e-05 -4.5045936166e-05 8.3161211783e-07 7.6138822406e-06 1.9208953162e-05 5.7063322382e-06 1.2901906886e-05 2.787193043e-05 
1.4750998443e-05 1.4599389577e-05 1.6842952613e-05 2.3508129208e-05 5.116617844e-05 1.6555057107e-05 8.3593874801e-06 2.3453535415e-06 -4.6903767649e-06 
-1.8960469208e-05 -3.2472770218e-05 -4.0632742781e-05 -3.7379096024e-05 -2.6876717467e-05 -1.712535062e-05 -3.0726515758e-06 3.5405115918e-06 9.219622073e-06 
1.3002802481e-05 -1.1412950747e-05 -5.9891041581e-05 3.202508483e-06 2.82201451e-05 1.9120084465e-05 -1.8136688802e-06 -0.000139995921 -0.00039146253552 
-0.00022663810412 0.00010353619033 0.00025688093516 0.00066125907524 -9.8208258781e-05 -0.00060142932434 -0.0021919716129 -0.00035029939296 0.00014809188787 
0.0001059850036 7.1462370728e-05 2.065655435e-05 -0.00030418210193 -0.00068167695244 -0.0012037716781 -0.0025714564109 -0.0060432364945 -0.026565862126 
0.012167914226 -0.16441227075 -0.0065991259867 0.026156958347 0.018720539458 0.018429544813 0.0013587948393 -0.0030419565721 -0.0024005824044 
-0.0008757697088 0.012919852797 0.019162488536 0.04827841719 0.022990608323 -0.092395166725 -0.0034492338234 0.0017750850654 -0.0028832229642 
0.00059649019323 0.0072964902471 0.011959625484 0.0075109072875 0.010110990159 0.0031303448891 -0.0067970837795 -0.016793502968 -0.011810894618 
-2.1827517914e-05 -4.0704684223e-06 -0.036979743551 -0.04531671182 -0.036942737098 -0.12017070699 0.24326992606 0.23166173174 0.16939028659 
0.19751291026 0.19895704882 0.17588178156 0.18347206882 0.17803504225 0.1899397128 0.176045404 0.18212619363 0.18076907581 
0.1772343541 0.18488539521 0.17488073667 0.18867037409 0.19244523788 0.17006229039 0.18996565624 0.17850530034 0.18292938401 
0.18511958661 0.1751343523 0.1925122616 0.17382692077 0.16860510572 0.18815258254 0.17968874919 0.18250797263 0.18534497043 
0.17793058152 0.19290011097 0.1735152935 0.1886730114 0.18452693506 0.16839031273 0.18789209694 0.17512901195 0.18212647385 
0.18257258788 0.17485991751 0.17307689333 0.17384809288 0.185253539 0.17603215138 0.18781453252 0.1992646786 0.19365617339 
0.18166862404 1.1691183536e-06 -1.0931914163e-05 -3.2082291588e-05 -8.9794570253e-05 -0.00017661330506 -0.00011433764397 -0.00030517201514 -0.00046812870832 
-0.0003030612911 -0.00064018676554 -0.00086997908704 -0.00060288558288 -0.0011094387686 -0.0014009162387 -0.0010050161233 -0.0017060543688 -0.0020987423418 
-0.0015372391327 -0.002483105673 -0.0029987613311 -0.0022149126193 -0.0034345151043 -0.0040159963443 -0.0030195667966 -0.0045277000424 -0.0051583812403 
-0.0039558095285 -0.0056940522542 -0.0063793504468 -0.0050094826492 -0.0069596277694 -0.0077660432352 -0.0061407828673 -0.0083143310672 -0.008983616239 
-0.0072947746903 -0.0095136840463 -0.010161291251 -0.0083964142682 -0.010624107504 -0.011139561291 -0.0093969341519 -0.011438025116 -0.011686280881 
-0.010165488861 -0.011846019629 -0.011897304168 -0.010628334646 -0.011801908134 -0.011554223007 -0.010675980932 -0.011284001417 -0.010773858055 
-0.010356779991 -0.010291297498 -0.0094924812615 -0.0095841194849 -0.0088830554494 -0.0080217306515 -0.0084544998496 -0.0072468468982 -0.0062446313246 
-0.0070616608782 -0.0054991327473 -0.0045361982985 -0.0055188167821 -0.0038095830527 -0.0029342022447 -0.0040141072411 -0.0023051969617 -0.0016195638999 
-0.0026429370397 -0.0011298257074 -0.00074122503214 -0.0015329333551 -0.00036735573784 -0.00017519551978 -0.00070865034507 -1.1326423103e-05 -0.19304039387 
-0.00012529472912 -0.035116398321 -0.081354542927 -0.0028506393994 0.0020528490948 0.00081714299574 -0.01102632386 0.0018013869295 0.0002150656604 
-0.002736100921 0.00038926629909 0.00013106311743 -0.00079162678253 0.00028162171056 0.00018692000494 -0.00041003953003 1.0354123165e-06 8.5042901033e-05 
-0.00035234152916 0.00020476028726 8.3995699105e-05 -0.00026199164801 8.8009502623e-05 3.9631620277e-05 -0.00012068077449 4.5009551696e-05 2.6894849972e-05 
-9.8892950177e-05 1.1809934007e-05 3.4636363671e-05 -8.7154172708e-05 -2.2192833576e-05 2.2755666703e-05 -6.3707942999e-05 -4.1224206022e-05 -1.0540388308e-05 
-3.9586176238e-05 -1.9637361101e-05 -1.1386647977e-06 -4.6104554259e-05 -3.5748154435e-05 -1.051415486e-05 -5.7111134161e-05 -4.1383865146e-05 -2.3119881459e-05 
-5.5063840724e-05 -3.4772392667e-05 -2.4188054574e-05 -5.056002397e-05 -5.250121083e-05 -3.7142975577e-05 -5.8133621583e-05 -5.2519163995e-05 -3.1833934256e-05 
-4.7740800726e-05 -5.4872560416e-05 -4.1544390964e-05 -5.8129453365e-05 -5.2499700464e-05 -4.3247357147e-05 -6.2241514648e-05 -5.2582027944e-05 -5.3091089493e-05 
-7.6773161996e-05 -6.4107354306e-05 -5.4326032177e-05 -6.3389725547e-05 -6.6144473296e-05 -5.9517814204e-05 -6.222577731e-05 -7.3604284451e-05 -6.5775833671e-05 
-7.2001037433e-05 -7.1965903511e-05 -5.5175147779e-05 -7.7647935545e-05 -5.6243143409e-05 -6.0244465431e-05 -7.8124040573e-05 -5.6155543918e-05 -5.6372623222e-05 
-6.3603050797e-05 -4.7068570072e-05 -4.6969683004e-05 -5.1157360989e-05 -3.1817516939e-05 -2.7707118424e-05 -4.0178142979e-05 -1.6199454066e-05 -1.2085412975e-05 
-2.7164252352e-05 -4.5512397589e-06 -4.1946628078e-06 -1.1059242717e-05 -2.4561918072e-06 6.3399126199e-06 -3.1399849453e-06 2.8846578642e-06 1.0873452191e-05 
-8.0710003295e-06 8.4167551495e-06 6.9225561469e-06 -1.326089828e-05 1.2650259963e-05 1.277763161e-06 -1.8963710678e-05 9.9030803325e-06 1.3084658384e-05 
-2.47028367e-05 1.1989878135e-05 6.8584340951e-06 -1.604891123e-05 8.7738742212e-06 3.6486541313e-06 -1.2408033464e-05 5.7847369421e-06 3.9212053638e-06 
-7.042018567e-06 -1.3642279012e-06 -6.1952808315e-07 -4.6471906435e-06 -3.6691901093e-06 -6.9922145037e-06 -4.4066597912e-06 -1.3600519905e-05 -1.7056652366e-05 
-1.4222949388e-05 -1.986382696e-05 -2.5737424386e-05 -2.457106832e-05 -1.6420234175e-05 -2.0146484604e-05 -3.0967122395e-05 -0.00014706630411 -9.1903610784e-05 
-0.00010153522258 -7.8312361736e-06 -0.00012915768739 -5.7325493628e-05 4.0106528922e-05 2.9982252273e-07 -6.6573871949e-05 8.3103534461e-05 -1.1184741947e-05 
-5.0834219559e-05 -1.5300031484e-05 -5.274941406e-05 -2.2398322669e-05 -0.00049170299288 2.7144140517e-06 -0.00076634392077 -0.0010494901269 -0.00088680879954 
-0.00093526695153 -0.00084021325504 -0.0016242822838 -0.00055034119325 -0.00026177940484 -0.0012752906589 -5.9929662245e-06 0.00011663109219 -0.00086751653092 
0.00053512913143 0.00051420084763 -0.00046934897665 0.00045615886231 0.00025351969557 -0.00106407248 0.00024496031757 -0.00089597770546 7.1836389958e-05 
-0.0008685875043 -0.0008489119351 -0.0011364196235 -0.00075604498571 -0.00043738237493 -0.0012911183524 -0.00041600544701 -6.809496148e-05 -0.00072444730953 
-0.00016552489806 0.00011885134222 -0.0001843197674 -0.00015648806111 0.00019346435557 -6.1959107672e-05 -0.00012992995689 0.00038632069691 -0.0001924793018 
0.00028431897823 0.00093066073672 -0.00060500586669 0.0010905060043 0.0022185071412 -0.00072103863084 0.0013239284971 0.0041187805229 -0.0064521220165 
-0.021809600843 0.0018157529553 0.0013925846852 0.027267809356 0.014886465313 -0.0046773551154 0.0094414997915 0.013554865356 -0.056834593644 
0.01607835767 0.013009455588 -0.0058039204226 0.013773469267 0.013297947734 -0.0088943669602 0.010223339079 0.012930232055 -0.0078883245932 
0.017438711211 0.014569297508 -0.0079833674892 0.018736869502 0.019912131054 -0.053914544585 0.0057836990096 0.014845508418 -0.051093680262 
0.014013479658 0.013346234485 -0.0070372385444 0.011439761967 0.013136785921 -0.0085253696493 0.01291750002 0.015647782474 -0.0089181919652 
0.01502735921 0.010280943542 -0.0061559122784 0.0079226476763 0.016530155946 -0.049088091842 0.013884328497 0.012740068358 -0.0063664226938 
0.0097288457634 0.011748573059 -0.0048578836179 0.010320512531 0.016537073065 -0.0069791001938 0.013027687636 0.01053888758 -0.0067031264968 
0.017502392009 0.018686513637 -0.054055289327 0.0058010514512 0.01728953157 -0.051016270077 0.013328785533 0.017241491979 -0.0060515362332 
0.014404576706 0.016375825324 -0.0069888142808 0.019634680721 0.020522330102 -0.0056924276924 0.025650340324 0.02735420788 -0.051980266635 
0.013558207467 0.027216590418 -0.068169291162 0.00039256214461 0.0011364996946 -0.056016589774 -0.075904345448 -0.050095018562 -0.064211254622 
-0.051158309986 -0.036310792421 -0.046156187916 -0.048061605222 -0.027721822567 -0.034570251929 -0.035410568559 -0.021735443848 -0.025048403572 
-0.02515989564 -0.016287050561 -0.018681740371 -0.017526560438 -0.014570756638 -0.01441891866 -0.012772971243 -0.0096469256563 -0.010703494082 
-0.0094891227378 -0.0106239342 -0.010210593597 -0.006964072993 -0.0072845574137 -0.0025215672712 -0.0069939538473 0.012344071707 -0.0079490799522 
-0.020199854496 -0.00066959673442 0.00072147530711 -0.0021445549078 -0.011826195986 0.017812360659 0.016038961737 0.010387619866 -0.0074964716385 
0.0042545200065 0.0031950897573 -0.0082031337364 -0.012827330977 -0.0031194279938 -0.02353680999 -0.026995631802 -0.036020690571 -0.037191307049 
-0.02143230213 -0.039990233549 -0.042428221155 -0.030557964219 -0.049849416928 -0.055913208123 -0.054681650756 -0.058576815402 -0.047787945266 
-0.053910053742 -0.055225561123 -0.050266816137 -0.053647153226 -0.057516057922 -0.045741885126 -0.041568907826 -0.035162316282 -2.2605822484e-05 
0.030605407801 -0.00012670054672 -8.396853095e-05 -0.0057947750086 0.009813056855 -0.02850284025 -0.02161145093 -0.01315668603 0.0011683098502 
0.0036236905447 -0.0040507297749 -0.0023213903338 0.0077053718557 -0.0030647331207 0.0066892507856 -0.0071577471938 -0.013224434282 -0.02230747952 
-0.028661386702 -0.036893217203 -0.0035000635618 -0.0096754234888 -0.039262897738 -0.00019020522401 0.0085379034845 -0.0048201283137 -0.062918360041 
-0.0002950227304 -0.00042518902992 -0.00055881968681 -0.00073840321762 -0.00048748772098 -0.00088755949907 -0.0011396526565 -0.00077503242039 -0.0013310928643 
-0.0016452122302 -0.0011331062261 -0.0018998263653 -0.002282049186 -0.0016019843345 -0.0026034810224 -0.0030215788786 -0.0021797721683 -0.0034140447662 
-0.0039082213381 -0.0028798321154 -0.0043008421618 -0.0048418234079 -0.0036610967931 -0.0052792633209 -0.0058433547454 -0.0045105832271 -0.0063034042284 
-0.0068466342457 -0.0054291584535 -0.0072838141794 -0.0077823946918 -0.0063494570929 -0.0081568182447 -0.0085784123606 -0.0071688363167 -0.0089218988247 
-0.0091926028561 -0.0078801605847 -0.0093755380785 -0.0095297603754 -0.0084094566148 -0.0095688317058 -0.009508629395 -0.0086825324666 -0.0093653748295 
-0.009146476431 -0.0086177255981 -0.0087638621011 -0.0083237727687 -0.0081663662831 -0.0078906426518 -0.0072921558684 -0.0073943864878 -0.0068142468886 
-0.0060855791034 -0.0064606866083 -0.0054763076596 -0.0047502241489 -0.0053448478557 -0.0041864937496 -0.0034944463828 -0.0041549576795 -0.0029711877729 
-0.0023802297996 -0.0030600033811 -0.0019158428777 -0.0014867142439 -0.0021087271389 -0.00059736366501 -0.00037556755784 -6.0366573317e-05 0.00095130705596 
-0.00011998087706 0.00077475615175 -7.9227396878e-07 -0.00066583574003 0.00064964797723 0.00015183946486 -0.00080290645507 0.00039386463553 4.4466466931e-05 
-0.00070274285932 0.00012485248823 0.00015327372496 -0.00043620321849 0.00017966926008 4.2084140022e-05 -0.00016367517842 9.3933351247e-05 3.9416093093e-05 
-0.00011525277501 6.355862825e-05 7.0890497634e-05 -0.00012544948676 4.0079219044e-05 4.3342738416e-05 -0.00013645408783 -5.5747984261e-07 4.3286799249e-05 
-8.4493065307e-05 -2.3119452786e-05 9.833530982e-06 -2.064704763e-05 -3.329399824e-05 -2.3033723502e-05 -4.1583010373e-05 -9.8816949973e-05 -9.5295170774e-05 
-0.00010605553203 -0.0001440992498 -0.00012034999838 -0.00016532212661 -0.00016306639728 -0.00015292021818 -0.00023748750781 -0.00020860616228 -0.00018832646115 
-0.00026959898709 -0.00023115739509 -0.00021790090531 -0.00030936816794 -0.00024921632488 -0.00024478041816 -0.00033843679828 -0.00027214777613 -0.00026040206141 
-0.0003598685191 -0.00029108099517 -0.00027859257045 -0.00040121487128 -0.00030410179657 -0.00030095011432 -0.0004217288324 -0.00032079721624 -0.00032088880662 
-0.00044474073864 -0.00032796790801 -0.00031503653788 -0.0004533819597 -0.00031107050975 -0.00029889872311 -0.00043981032783 -0.00028988243029 -0.00027564718824 
-0.00041336419036 -0.00025457373729 -0.0002325528106 -0.00037188495583 -0.00020299059446 -0.00016718905488 -0.00030087986337 -0.00012909736572 -9.5260341123e-05 
-0.00021817198278 -5.8740023057e-05 -2.8698553694e-05 -0.00011716194837 -7.1412953905e-07 4.5587161665e-06 -9.4204671035e-06 5.9856503474e-06 1.120152307e-05 
-1.3422626088e-05 3.5630284043e-06 3.6754582994e-06 -1.4518333827e-05 1.2931625053e-05 3.0041528342e-06 -1.2283756014e-05 8.3109101495e-06 1.3233947608e-05 
-2.4161614052e-05 1.1569408526e-05 6.9404587118e-06 -2.164433412e-05 1.2605926915e-05 1.7030297711e-06 -1.2028900356e-05 1.1107791414e-05 2.1188670966e-06 
-9.1712984786e-06 4.5828270973e-06 -9.6940816795e-07 -1.0841634037e-05 2.8380738594e-06 -1.5726739133e-05 -2.6398060014e-06 -3.6186210366e-05 -6.2995215085e-05 
-3.4587907146e-05 -7.6563242123e-05 -9.5288581318e-05 -9.7772870354e-05 -0.00010774192129 -9.6800094735e-05 -0.00014915944273 0.0080938909772 0.00063519337198 
-0.012549694465 -0.0090814218516 -0.00093194770143 -0.0014802666696 -0.00016811693266 0.000114282711 -0.00012663647021 0.00010477875555 1.2027933776e-05 
-5.3463443039e-05 -0.00010654342645 6.2302368278e-05 -0.00095755840565 0.00026496569474 -0.0025515265461 -0.0045858186177 -0.0023982080042 -0.0048253429074 
-0.0045495633762 -0.0066875661706 -0.003566912452 -0.0016201956266 0.00014372210349 0.00099322459276 0.00074220371472 -0.002690044496 -0.00322068189 
-0.0040536859873 -0.0037981574466 -0.0028006709004 -0.005418279887 -0.0024063105891 -0.0011730812974 -0.00071629635126 0.000276506893 -0.0014881626288 
-0.0003205442386 0.00033710377187 -4.2231015045e-05 -0.00033570098785 0.0004899357169 -8.0501448862e-05 3.8478772858e-05 0.00022898916169 -0.00024823633743 
0.00011302330308 -1.3847758364e-05 -0.00018704941521 -1.6893785047e-05 0.0011982332691 -0.0024718258619 -0.00057556419521 -0.00048534330065 -0.01603900976 
-0.010622961064 -0.0061202277595 0.0035791057754 0.0038555971139 -0.0031635725809 0.0015203894155 -0.001333766242 -0.0023928516733 0.00088491496245 
-0.0012313684133 -0.0023705054054 0.000551816379 -0.0023450537867 0.0022751798682 0.00061627233742 -0.00631834167 -0.0083911895902 0.001516411596 
-0.0081619595702 -0.0051116579374 0.00060412714632 0.0035177796261 -0.0023190289305 0.0010872645541 -0.0010050082722 -0.002263633598 0.00045254078012 
-0.0016248560549 -0.001611462938 0.00031516051689 -0.0016526680592 -0.0014775176972 0.00053036661711 -0.0038620246471 -0.0025075608368 0.0026706545999 
0.0022736933619 -0.002562205332 0.002480203217 0.00019825711077 -0.0022853818949 0.0037264241156 -0.00091202543515 -0.00088089174915 0.00080197990035 
-0.0013381594798 0.0020911474934 0.0005716764044 -0.0062865777658 -0.0091069132994 0.0016139376655 -0.009529018562 -0.0059111330084 0.0014058463312 
0.0031041706081 -0.003009427493 0.0022992068569 0.0005550866693 -0.0033970976769 0.0039376514783 -0.00247170271 -0.0030185003477 0.0010714704203 
-0.0053124025056 -0.0053965953668 -0.020245880035 -8.2465809395e-05 -0.0065994886419 0.00053737437619 -0.035948086149 -0.029556475804 -0.0019333414142 
-0.02208486126 -0.027853005887 -0.016585697223 -0.021367655786 -0.021522774683 -0.012601186517 -0.016058381976 -0.016051969644 -0.0084506030445 
-0.012556862871 -0.011096079929 -0.0043360891199 -0.0074546903754 -0.0071325445708 -0.005425689606 -0.00056742016712 -0.0032716521176 -0.0025627405566 
-0.0043813669705 8.4443785191e-05 -0.0061390427401 -0.0033939939039 -0.0096763075658 -0.037524213856 -0.033253292522 -0.021228622644 -0.026786423117 
0.0029183602826 0.00019924668073 -0.034908947843 -0.03938747773 -0.027622086169 -0.00054252597631 -0.0005552982341 -0.031022226065 -0.032158067061 
-0.022413678717 -0.001789030134 -0.01468057291 0.0019283926069 -0.0093867722518 -0.036633653759 -0.038874623718 -0.0256809796 -0.028874552628 
-0.036584833153 -0.031642875364 -0.027129215957 -0.0024547002316 -0.0036343960397 -0.0050467205443 0.00076123208632 -0.00051099394328 -0.0033787759009 
-0.012859912122 -0.01859240176 -0.016800261366 -0.03461213088 -0.035558538873 -0.026576635401 -0.033798724616 -0.025507189544 -0.021455710425 
-0.00012089264251 -0.00019135663615 -0.00025808800391 -0.00035716657204 -0.00087374507186 -0.0010434024818 -0.00069240817585 -0.00035533951851 0.00019338143552 
-0.0048277970566 -0.002131733478 -0.010216378693 -0.0086816195504 -0.0099061411782 -0.0094358929294 -0.00014069607976 8.6075987706e-05 -0.0058989558464 
-0.00038609297417 0.0003424320729 -0.0033737337409 0.0001284195947 -0.0038738219242 -5.4181440382e-06 -0.00030273891497 -0.00030835241226 -0.004901017541 
-0.0027612001177 0.005172436904 0.00023004378018 -0.017286526153 -0.021364593151 -0.011844195759 -0.0015878441285 -0.0003277493414 -0.00037595212168 
0.0021854777587 0.0001483224284 -0.028729812397 -0.00062159205899 -0.00079733730311 -0.0009040092359 -0.0011302882293 -0.00071475905217 -0.0012636756817 
-0.0015536914854 -0.00099222334433 -0.0017259033526 -0.0020558554906 -0.0013298867923 -0.0022829691832 -0.0026685348398 -0.0017466290555 -0.0029848858181 
-0.0033793028475 -0.0023005146904 -0.0037339774489 -0.0041576735742 -0.0029771588463 -0.0045434573635 -0.0049721170242 -0.0037087344166 -0.0053907346891 
-0.0057924462619 -0.0044868564381 -0.0061388263452 -0.0064475856024 -0.0052320114769 -0.0067718072829 -0.0070399561154 -0.0058334893832 -0.0073792210473 
-0.0075063973332 -0.0064298072725 -0.0077175541874 -0.0077812174123 -0.0069253928901 -0.0077796008299 -0.00767234226 -0.0071303601044 -0.0074474163887 
-0.0071336636043 -0.0069326089306 -0.0068035999515 -0.0064059541312 -0.0063728451178 -0.0059966151854 -0.0055697732506 -0.0056512330966 -0.0050758584356 
-0.0045436972881 -0.0048046169372 -0.0040451810532 -0.0035253759084 -0.0038731307667 -0.0031272204518 -0.0026267151632 -0.0030178591199 -0.00012017257267 
0.00010540048703 -0.0002671490318 -0.00035867640434 -0.00022944210236 0.00078024248256 -4.4616727609e-05 0.00055068645634 -3.2257133545e-05 -0.00041659213317 
0.00024496150818 2.5422236658e-05 -0.00040889365343 0.00026612768548 -3.7802133534e-05 -0.00016861081604 0.00017335997643 8.6387373405e-06 -0.0001079620885 
0.00010384013751 6.3004558335e-05 -0.0001588984805 9.3017296473e-05 3.0475100468e-05 -0.00017523983892 5.5640521207e-05 4.4348013499e-05 -0.00013589400955 
3.4445328356e-05 5.3350471236e-05 -7.6695242809e-05 2.797157245e-05 2.8055519373e-05 -3.0051979486e-05 -2.1190597623e-05 -7.7223109139e-05 -5.3306058955e-05 
-0.00019168872554 -0.00022717375954 -0.00015915297663 -0.00031221064931 -0.00031532295727 -0.00033137919796 -0.00040395630283 -0.00041605906709 -0.00049026579042 
-0.00048500752134 -0.00050231827341 -0.00060371797278 -0.00056810289004 -0.00057571508217 -0.00069752594881 -0.0006326102198 -0.0006389340244 -0.00079036405886 
-0.00068007603275 -0.00068509429457 -0.00086245330204 -0.00072095976989 -0.00072977990793 -0.00093192042479 -0.0007618939561 -0.0007734954366 -0.00098590704343 
-0.00078716451915 -0.00078344802836 -0.0010184494577 -0.00079300102902 -0.00076341986097 -0.0010264550655 -0.00074661726587 -0.00071516959603 -0.00099634220005 
-0.00067983844091 -0.00062383648178 -0.00090941700372 -0.00056584937945 -0.00048981740395 -0.00077450217195 -0.00041813804837 -0.00032443267803 -0.00059980411455 
-0.00023541992395 -0.0001493362394 -0.00037556754419 -6.3933973084e-05 5.8918649407e-06 -0.00013478686197 -2.8540334864e-06 7.1682026065e-06 -1.166824367e-05 
2.5929438981e-06 1.1625111174e-05 -1.3083505085e-05 1.03488459e-05 8.1883305782e-06 -8.3836522489e-06 9.5907166881e-06 9.1394308351e-06 -1.6714330725e-05 
6.6262295222e-06 8.2781262735e-06 -1.9601505652e-05 1.2106298955e-05 1.1635867265e-06 -1.4283830997e-05 1.4204785459e-05 -1.1344757571e-06 -6.2502917672e-06 
1.1667394137e-05 -2.9772575049e-06 -8.1585143049e-06 6.7471982514e-06 -4.9617021175e-06 -4.9324507507e-06 -3.1930469788e-05 -9.2643854839e-05 -6.5187772989e-06 
-0.00012297316213 -0.00017517801805 -0.00026920606105 -0.00013772689281 -0.00090504233172 -0.00021882495285 -0.0020427713787 -0.0075197216312 -4.5344820427e-05 
4.427679033e-05 4.9618913935e-05 -0.0066589704104 -0.0084019979777 0.001439675085 -0.0027190640374 -0.0011631786958 -0.00022803717896 9.469878041e-05 
-0.00032302220152 0.00037858901971 -0.00037749290178 0.0004439051292 -4.2740942598e-05 -0.00021670047699 0.00018594685368 -9.1049739819e-05 -0.00011619762321 
1.6603876773e-05 5.3565324451e-05 -0.0067866310886 -0.0095452346042 -0.0041918862376 -0.0053409487649 -0.024106544129 -0.016400744917 -0.0019986858447 
0.00064289683228 -0.0016061134881 0.000417712714 0.00039007093922 0.0002455215972 0.00041602609425 0.00045051313883 -6.1259255009e-05 7.2261935595e-05 
0.00015416677418 0.00018848104759 0.00022005464207 0.00030083173456 -0.00091904015072 0.00029660969982 -0.0011296318366 -0.001482008029 0.00043138332736 
-0.0011348387334 0.00018325423457 0.00050368479641 0.00034345196688 1.0043688368e-05 0.00012621429814 0.00028154881322 7.7555048644e-05 7.0442583688e-05 
0.00021641296052 6.7842806239e-05 9.3168190161e-05 0.00037409090551 -0.0010168034505 0.00018568161549 -0.0010716333002 0.00027806559124 0.00040660844961 
-3.670283229e-06 0.00039284276557 0.00014439676316 0.00064087318352 0.00016984538025 0.00022111702097 0.00026943538707 0.00026538974073 0.00016895403564 
0.0003200686411 -0.00064589760515 0.00012369681841 -0.0011401655674 -0.00078863401293 0.00044640518517 -0.00089939435016 -0.00050529980654 0.00055013029011 
-0.00037730372779 0.00014903194345 0.00032136871258 0.00062195617583 -0.00050065519041 0.00044356377832 -5.427601345e-05 -0.0057946213722 -0.0037149863119 
0.00096897036735 -0.00046618046704 -0.00034855698535 -0.00034728082401 -0.0061842398197 -0.00054398852524 -0.0072152698596 -0.00049485665506 -0.013201600055 
-0.015953470898 -0.016910255733 -0.019496040797 -0.014231552904 -0.0013061726496 -0.0031434498801 -0.0054423861884 -0.0083811097114 -0.0079831868234 
-0.0066613874071 -0.0077648610757 -0.0096970952135 -0.023215625799 -0.023350297291 -0.00021164527748 -0.00048605343735 -0.00070782775773 -0.011949526552 
-0.014583421697 -0.01089843969 -0.024106761684 -0.021731957573 -0.018790180642 -0.0037156116012 -0.0063894497394 -0.007227695673 -0.0033019753781 
-0.0035669492567 -0.0029018837139 -0.0039400962949 -0.0074523854527 -0.02116126319 -0.021924097802 -0.018413614811 -0.021568780217 -0.017165283795 
-0.016621945982 -0.002464043392 -0.00022732647014 -4.9411562127e-05 -0.016914213279 -0.01900334156 -0.016683422818 0.0013895192586 -0.0021453063922 
-0.0017209756787 -0.0021627543467 2.8792960003e-06 -0.013911982748 -0.016132758406 -0.014777456776 -0.01289236614 -0.011416863715 -0.010264763978 
-0.0013167469831 -0.0012231864164 -0.0087819179332 -0.0060333917945 -0.0013069995354 -0.0032277473144 4.2580728938e-05 0.00017671652181 -0.011222578852 
-0.0038388171418 0.00059739759947 0.0002393481553 8.987951368e-05 -0.0072742614256 -0.00046753878537 0.00019856054512 -0.00087669494316 0.0013299773592 
-0.012687795535 -0.01501277512 -0.014228639683 -0.0075827932446 -0.0047528392659 -0.0032692119701 -0.00076507269404 0.0012604536011 -0.00034506604844 
0.00018981887247 -0.0013076859555 -0.001884526874 0.0009297195687 -0.0069307133019 -1.5570218962e-05 -0.00046517616027 0.00036426656921 -0.0059363593708 
-0.011910576091 -0.0093823538109 -0.011227583492 -0.011559320102 -0.00084088463251 -5.1448845189e-05 -0.00066392880989 -0.00083670325813 -0.00087181590643 
-0.0010812732358 -0.00053922078091 -0.0011612433663 -0.0014094925888 -0.00067875646781 -0.001573834398 -0.0018916478189 -0.00091849418512 -0.0021580144152 
-0.0024858848122 -0.0013264895025 -0.0028710506614 -0.0031959952069 -0.0019334232927 -0.0035683461441 -0.0039163265764 -0.0026411447037 -0.0043464466396 
-0.0046060532671 -0.0033799480612 -0.0047730177505 -0.0049912085642 -0.0038843309995 -0.0054725475433 -0.0057133945386 -0.0044502654311 -0.0061241463542 
-0.0062730473723 -0.0053347934897 -0.0064359049964 -0.0064426662067 -0.0058725765649 -0.0063744577373 -0.0061857774206 -0.005971296168 -0.005872969334 
-0.0056119417442 -0.0056184125455 -0.0051744832744 -0.0048868892139 -0.0049361250054 -0.0044124392014 -0.0040437969488 -0.0041231703087 -0.0036623349764 
-0.0032522708913 -0.0033651828074 -0.0026475292287 -0.0022789026484 -0.0024731134375 -2.0610827732e-05 -0.00015824905566 -0.0012696810553 -0.014034985636 
-0.012537175249 -0.012085296591 -0.00030707599706 0.00033396957434 0.0002182639012 -8.65887647e-05 0.00018793731017 -0.00011697009009 -0.00013675956166 
0.00017532772778 -6.1646469243e-05 -0.00012245985558 0.000181102816 4.38384292e-05 -0.00013288826395 0.00012657704097 1.957432068e-05 -0.00018906449887 
0.00011972508513 2.5873608701e-05 -0.00017640165236 4.9663343205e-05 6.0028008611e-05 -0.00012954629979 3.0181083296e-05 5.1687588681e-05 -5.4637308587e-05 
2.7167836025e-05 3.1160318215e-05 -2.9889227114e-05 1.2575012312e-05 -0.0001179778962 -5.835933083e-05 -0.00029524457636 -0.0003827868686 -0.00020642791439 
-0.00052735666753 -0.00060204542901 -0.00055970025529 -0.00072492452681 -0.00078319053334 -0.00081777023522 -0.00090191513261 -0.0009534387175 -0.0010368928606 
-0.0010476907453 -0.0010915856037 -0.0012204282881 -0.0011739413691 -0.0011991189032 -0.0013879572854 -0.0012634460211 -0.0012950479402 -0.0015392634572 
-0.001353107315 -0.0013795402298 -0.0016529371707 -0.0014248969902 -0.0014301382818 -0.0017422457233 -0.001455241225 -0.0014441314002 -0.0017875238999 
-0.0014297129294 -0.0013774725132 -0.0017798267516 -0.0013277426671 -0.0012491888754 -0.0016860013536 -0.0011658887787 -0.0010432672259 -0.0015006747742 
-0.00092370881254 -0.00075801659571 -0.0012268305343 -0.00060537370273 -0.00042929934478 -0.00086803075619 -0.00025956571439 -9.5324341257e-05 -0.00043869812643 
-4.9954088392e-06 1.3086985529e-05 -1.3186822292e-05 -4.1328109552e-08 1.4355437687e-05 -1.519304133e-05 5.947323562e-06 7.0265578307e-06 -8.3198987091e-06 
1.0365099456e-05 5.4022802768e-06 -1.126465298e-05 6.8281828878e-06 7.1645622742e-06 -2.0821174291e-05 1.1545318365e-05 7.0829647994e-07 -1.433906528e-05 
1.4033550176e-05 -1.010925307e-05 -4.6557543097e-06 1.3083983354e-05 -6.3119262808e-06 -1.9809775652e-06 9.7420860005e-06 -7.1699994631e-06 -8.6876275561e-07 
6.5751906337e-06 -8.9980318622e-05 4.2749269149e-06 -0.0015391556757 0.0004356368597 0.00093147349493 -0.0050480921615 -9.8799875166e-05 -0.014656490131 
-0.014727628001 -0.0071571586691 -0.0076737012194 -0.012846134368 -0.013645259694 -0.011893805909 0.00014366476694 -0.00020071976767 -0.00034502570379 
0.00030674981181 -8.3093259844e-05 -0.00028897501448 6.7973917778e-05 -8.4052138339e-05 -0.00041104543697 0.00039712886763 -0.00084054022776 -0.00024883792062 
0.00029039745867 -2.300695274e-05 1.9762208465e-05 1.2572316557e-05 -5.8039496448e-05 -4.8830996596e-05 2.6342484001e-05 3.9809069406e-05 -0.00012206810574 
0.00014744791524 -8.5629763076e-05 -2.8667177446e-05 -4.0582368189e-06 4.5846571936e-06 -8.1700389006e-05 7.3694456028e-05 -4.7625619465e-05 -6.0255857418e-05 
6.2544708381e-05 -2.0200924716e-05 -6.756182118e-05 7.8278203343e-05 -4.6637400142e-05 9.4229278276e-06 8.8114832007e-05 -1.4349550755e-05 -2.4955708538e-05 
0.00012565970458 -6.7471021964e-06 -1.6493877697e-05 0.00011169215136 5.6046393039e-07 -1.3824304986e-05 0.00012598688906 -3.2132673361e-05 -4.7159129561e-05 
0.00018100180596 -0.00013598649743 -3.6235352491e-05 0.00016360480015 -0.0001427921316 -4.0031605579e-05 0.00016459041488 -0.00026614183269 -3.0068730566e-05 
0.00022541282799 -0.00032380936095 -0.00013298346039 0.00027833817522 -0.00016194215006 0.00010028156379 0.00014945260217 -0.025529531817 -0.024581981555 
-0.017987024334 -0.022136080256 -0.0069927341372 -0.0079330979913 -0.008691186961 -0.01058801762 -0.011883974735 -0.011005035679 -0.017804313767 
-0.00049562568163 -0.00062883831368 -0.00045007605712 -0.00013811166252 -0.0084021391533 -0.0098346139205 -0.010007260833 -0.015438635264 -0.014726990798 
-0.012277955558 -0.00032225938176 -0.00046389455723 -0.00034993044294 -0.00024546952413 -0.0047015498586 -0.0018438678686 -0.015048040091 -0.013213368603 
-0.011802975671 -0.0070336324872 -0.0081062817782 -0.0092615337861 -0.008957494455 -0.0034077756281 -0.0056233092827 -0.0048717827194 0.00044317801304 
-0.00013627733244 -0.00050242150501 0.00013691779845 -0.00021449428123 -0.00017109835871 0.00037090279404 0.00037317851294 -0.00028875188549 -0.010406488915 
-0.0096068758987 -0.004831029875 -0.00018312567666 -0.012809399997 -0.01318332267 -0.011473287085 -7.8177094361e-05 -0.0024682434869 -0.0054665200213 
-0.0064598288803 0.0010947082055 -0.0031771162336 -0.0035164985032 -4.1633677075e-05 5.0820903077e-05 -7.2511619926e-05 -0.00016701795233 -0.0093903275578 
-0.0068057209291 -0.0061322732236 -0.010588158423 -0.012562228005 -0.01142467789 -0.01039564942 0.00018596531508 -0.0001338173922 4.864451842e-05 
0.00023053950136 -0.0080190274467 0.00061379441103 -2.3541730915e-05 -0.001372523236 -0.013699108187 5.3237248639e-05 -0.00081193693493 -0.00017859564783 
-0.0020606030677 -0.0013739307089 -0.0015153670707 -0.002556135357 -0.0014243355917 -0.00057534474397 -0.00010819639823 -0.00023121084196 -0.00016915238237 
-0.00035093760953 -6.6888428523e-06 -0.0004583125232 -0.00070659744717 2.6906398731e-05 -0.0010734210705 -0.0013783593374 -5.3237404844e-05 -0.0018666026975 
-0.0021677737349 -0.00082378774469 -0.002290442955 -0.0026724402176 -0.0014642739885 -0.0027567338901 0.0020435799119 -0.003359015751 -0.0037406960719 
-0.0019963246364 -0.004565827107 -0.0049253361942 -0.0034326782521 -0.005284235698 -0.0054025966264 -0.0047356613576 -0.0055391142262 -0.005478225808 
-0.0051574361916 -0.0053107535686 -0.004996417301 -0.0051037398958 -0.0036668786551 -0.0033647614352 -0.0028791314966 -0.013270665507 -0.012598881509 
-0.011427628042 -0.0083610918365 -0.0087715993398 0.00039646367411 -0.000147176012 0.00014055232709 -4.0176119588e-05 -0.00015961401944 0.00010797628922 
7.8836247054e-06 -0.00020502766655 0.00015150493994 4.338583126e-05 -9.0913532724e-05 0.00014825377052 3.0242002259e-06 -0.00011085793276 0.00012394533603 
2.8359515609e-05 -0.00013833398521 5.9527362703e-05 5.1432210652e-05 -0.00010043336769 3.3609625054e-05 4.5466238515e-05 -3.8269368828e-05 3.0732663566e-05 
2.4550010111e-05 -3.1106601436e-05 3.5489308796e-05 -0.0001977582587 -6.5566752129e-05 -0.00043368551074 -0.00061203910562 -0.0003090787329 -0.00082508076845 
-0.00095505914811 -0.00081569407699 -0.0011334577381 -0.0012513942735 -0.0012138312429 -0.0014178212454 -0.0015233389165 -0.0015584946628 -0.0016564840079 
-0.0017478668289 -0.0018748350812 -0.0018534368507 -0.0019178858871 -0.0021247368417 -0.0020161776131 -0.0020765057765 -0.0023421770153 -0.0021518015776 
-0.0021906489437 -0.0025161815362 -0.0022617096117 -0.0022815959345 -0.0026542270804 -0.002287644494 -0.0022452624044 -0.0027205645047 -0.0021958651736 
-0.002097759445 -0.0026542441166 -0.0020024844005 -0.0018432268685 -0.002452838164 -0.0016818557894 -0.0014551491531 -0.002111813638 -0.0012352821212 
-0.00093673632378 -0.0016080708158 -0.00064769698095 -0.00035759305396 -0.00095806527696 -7.1838797827e-05 1.9884270541e-05 -0.00024528729058 -3.584609887e-06 
1.5538447541e-05 -2.3682268591e-05 5.6660002836e-06 1.5528132223e-05 -1.9878835955e-05 6.2740500096e-06 1.2831166595e-05 5.5028929102e-06 4.5499500063e-06 
1.0484287378e-05 -1.2962627162e-05 1.1330261752e-05 -4.9144385359e-07 -2.0241104013e-05 1.1412341569e-05 -1.3823981848e-05 -4.3276727966e-06 1.2423047569e-05 
-1.6119036013e-05 2.4530995376e-06 8.0529333061e-06 -1.0881733674e-05 6.1446792961e-06 3.8953219324e-06 -3.5755246433e-05 1.0144596869e-05 -5.4533027839e-05 
4.6277123584e-05 0.00039724743654 -4.9949785907e-05 -0.00016504639888 -0.00022297735906 -0.0044764308164 -0.0036003556021 -0.009433154209 -0.0095873961862 
4.545664466e-05 0.00019099565935 0.00019212092021 -0.00016643832284 0.00025604502915 -0.00014776189022 0.00023055957893 -0.00014636002561 -0.0029324958213 
0.00022438881836 -0.0034635738213 -0.00033299195232 0.00014071783114 -0.00018020458211 -0.0002240813042 -3.7509400479e-05 -2.304242625e-06 2.0949286441e-05 
-8.3746709274e-05 0.00011149917885 -1.6749400873e-05 -2.8836559887e-05 7.5010724332e-05 -8.8411854499e-05 -8.7630472675e-05 5.4978071221e-05 -7.9876514158e-05 
-5.3933615248e-05 9.2313722466e-05 -0.00010702547031 -4.6116340417e-05 0.00017247145552 -0.0001224281889 -7.0819788611e-05 0.00019527625354 -6.884409794e-05 
-0.00010703308135 0.00010314210385 -4.8510496386e-05 -0.00013422674959 0.00014009929537 -8.0084702563e-05 -0.00014582443449 0.00023585099156 -0.00017477874833 
-0.00014022020623 0.00023635196257 -0.00025429649126 -8.4947535968e-05 0.00021080818214 -0.00026981119156 -9.8833741793e-05 0.00028707526273 -0.00010137206221 
-4.527774926e-05 -0.011121496905 -0.0088700835681 -0.0091731178437 -0.0082616638228 -0.008365650298 -0.00012927167933 -0.00020357229132 -1.8468581669e-05 
-0.0098690630246 -0.0097739898327 -0.0081935715392 -0.0082751602196 -0.0088190341216 -0.010069254603 -0.0094904188365 -0.0081684284889 -5.7267249177e-06 
0.00017577316176 -0.00019019724245 0.00022177033759 -0.00015861223185 -5.6263778056e-07 -0.0001699908994 -5.3817663084e-05 0.00018835971375 -0.0024600168581 
-0.0045593069284 -0.0043082650691 -0.0034333256447 -0.0024757070164 -0.0085357712666 -0.0086038252953 -0.0081653289194 -9.1564091991e-05 2.9267438817e-05 
4.37575183e-05 -0.00012413697104 -0.0019192370224 -0.00064766436904 -0.0088795343826 -0.0084257152611 -0.0086378096134 -0.010767087146 -0.010647937536 
-0.0093843270527 -0.0012017674726 -3.6825949671e-05 -0.0061488514372 -0.0032547028942 -0.00068283427913 -0.0056677343884 -0.0074044070393 -0.0077924837043 
-0.0096426058223 -0.008952241336 -0.0079477708192 -2.7973717654e-06 0.00034155186262 -4.9775853563e-06 0.0002845361526 -0.010553090053 -0.00011169244245 
-0.00010310558274 -7.4851612335e-05 6.0509983088e-05 -6.6058680568e-05 -0.002766220279 -0.0044733827414 -0.010011013389 -0.0096704596001 -0.0085061544234 
7.5955515616e-06 -9.4100551273e-08 -5.8680664248e-05 -0.00040608226729 -0.004146235736 -0.0043598194338 -0.0050687088791 -0.0047919521773 -0.0029677141079 
-0.00062295012632 1.5700812097e-05 -5.3039761653e-06 0.00018893646595 -0.004609700983 -0.0042971677673 -0.0032695459171 -0.0043669632712 0.00028173347299 
-1.6244063901e-05 9.1598602509e-05 1.947665418e-05 -0.00015832402375 0.00012744683851 3.2803483107e-06 -5.4304519424e-05 0.00014761843856 -9.9580303614e-06 
-7.9907186598e-05 9.8178376157e-05 1.2738282081e-05 -9.5849728693e-05 6.9785850011e-05 3.2926877218e-05 -4.271568122e-05 3.9021306922e-05 3.777781125e-05 
-2.9271410065e-05 3.2046537059e-05 1.7284027521e-05 -2.9234104033e-05 -6.9881568524e-06 -0.00033971348939 -6.2913564819e-05 -0.00063469995943 -0.00090414759235 
-0.00048718546701 -0.0011593946682 -0.00137463646 -0.0010907935437 -0.001634902412 -0.0018351587095 -0.0016815457882 -0.0020466863175 -0.0022185083277 
-0.0022068189652 -0.002388904703 -0.0025202545452 -0.0026393895362 -0.0026430789149 -0.0027585968607 -0.0029644834464 -0.002915012396 -0.0030025790781 
-0.0032699935992 -0.0031533319478 -0.0032263309998 -0.0035863644567 -0.0032586935676 -0.0032602375533 -0.003775080867 -0.0032233876459 -0.003137368886 
-0.0037619996626 -0.0030300316803 -0.0028640713434 -0.0035879031225 -0.0026922547142 -0.0024114796116 -0.0032280029369 -0.0021485823255 -0.0017350210004 
-0.0026733773846 -0.0012823219208 -0.00081494733832 -0.0017849099048 -0.00031089210945 2.0413708509e-05 -0.00061873677426 -4.710989897e-06 2.2641995582e-05 
-5.1226960906e-06 -3.343739049e-06 6.6263171785e-06 -2.9025835449e-05 -2.0864638889e-07 3.0479575555e-06 -1.7818725965e-05 6.7541498866e-06 -0.0034108747063 
-0.0044242114496 4.9431672219e-06 2.9633368283e-06 1.6168492839e-05 8.8750995532e-06 -1.9894913321e-05 1.7539106294e-05 5.4723518434e-06 -1.4740601701e-05 
6.3106256091e-06 7.1393996071e-06 -1.1882517897e-05 1.8912890785e-05 -5.5066940268e-06 -0.00020706243715 -0.00013227356791 0.00033163264718 -4.3977726344e-05 
-0.0081915216684 -0.0061198374307 -0.00092896251523 1.9109148217e-05 -0.0041294664268 -0.0028994846316 0.00012559764249 -4.438016073e-05 -9.3108067995e-05 
-6.6590427675e-05 -2.20172303e-05 -0.0050174986519 0.00075023302385 -0.00010292799624 -6.9992845305e-05 0.00017773744424 -0.00013683668465 -5.0515432483e-05 
0.00012262307768 -0.00012184967046 -0.00015532693011 0.0002910219374 -1.6596232997e-05 -0.0050043460515 -0.00018382030787 -0.00010125521556 -0.00018055659116 
0.00025749462757 -0.00012219988006 -0.00014380819558 0.0002346342272 -0.00018428580269 -8.7642333022e-05 0.00021960315031 -0.0002198115394 -0.0028498682995 
-0.004976541392 -0.00026107299817 -0.003258769671 -0.0047833834104 -0.0065500584502 -0.0065778393976 -0.0064729707708 -0.006390465135 -0.0053691089836 
2.1608427555e-05 -9.4349073721e-07 -6.5010672644e-06 -1.8769447597e-05 -1.2153739408e-05 5.0510933359e-05 -0.00091972180154 -0.0047703364441 -0.0043570930165 
0.00269317832 -0.0088608633709 -0.0067108609577 -0.006616872468 -0.0056533908682 -0.0024506145272 -0.0070179428831 -0.0079305160938 1.4861838224e-05 
-1.4331225736e-05 -9.6858305153e-06 -0.00017245565422 -0.0045446146749 -0.0083099425639 -0.0085228453169 -0.0077778620283 -0.0082572866072 -0.0080908180183 
-0.0070904645702 2.6665775322e-05 0.00027558147734 -2.8746563513e-05 -2.3667542459e-05 1.7112756065e-07 -7.0777268453e-05 0.0001055589681 -0.0034485973244 
-0.00077154361397 8.0665489392e-05 1.9979126229e-05 1.0527777541e-05 -0.0003426467901 1.8489596966e-05 -9.733674338e-05 -0.00018385611696 -0.010048394904 
-5.0245184859e-05 0.00029552126627 0.00031307782476 -0.0071118663214 -0.0069873619774 -0.0062384074285 -2.0053814259e-05 -0.0054134472511 -0.0075300404661 
-0.0069939902488 -0.0076948987649 0.0001664709294 -0.00018635314497 -0.00012648019088 -6.0706468501e-05 -0.00046109221783 -0.0032598715534 7.8176088146e-06 
-0.00031246372926 -8.34538957e-06 -0.0057056799273 -0.0062484657136 0.0001610421841 -3.7469769393e-05 0.00021653944399 -6.74833955e-05 -4.4678912165e-05 
0.00011083752038 -1.0798310384e-05 -9.1544586971e-05 0.00011900462507 -6.4564290765e-06 -3.5923749913e-05 0.00012836575183 -1.2194461943e-07 -6.3082772944e-05 
7.9166014822e-05 2.9307912611e-06 -7.865223635e-05 5.8319658592e-05 6.2652146622e-06 -5.6689295879e-05 3.6902102306e-05 2.2534424836e-05 -1.6666342001e-05 
3.0991957665e-05 1.0127578847e-05 -2.2739211538e-05 -0.0003630784515 -0.00073132379899 -9.1240042272e-05 -0.0010812830342 0.00096908958062 -0.00061204986269 
-0.0015126532614 -0.0018286742458 -0.0012439554505 -0.0021925620262 -0.0024795931053 -0.0021723565875 -0.0027798903116 -0.0030009648597 -0.0029070538428 
-0.0032454895127 -0.0034150755351 -0.0035148974309 -0.0035367917852 -0.0037272591698 -0.0039165573958 -0.0040367282894 -0.0042255412765 -0.0043851778547 
-0.0043702155068 -0.0044131661596 -0.0049195879802 -0.0042999992941 -0.0042621760661 -0.0049631456955 -0.0042649998173 -0.0041103213855 -0.004840854337 
-0.0038529116317 -0.0035834749057 -0.0045489047927 -0.0034178778901 -0.0029976287247 -0.0040310233808 -0.002325383764 -0.0015565478129 -0.0030056834792 
-0.00061667832552 1.9288329432e-05 -0.0011500502855 -5.7137323902e-06 1.3886360206e-05 -3.3519685352e-05 2.0734825885e-05 1.1611474489e-05 0.0028963075875 
-6.2528440493e-06 -3.9862617871e-05 -5.745263725e-05 0.00029946094908 -0.00016290335789 1.6714796343e-05 -1.9504717245e-05 -4.9861575475e-05 -1.6214938923e-05 
5.0725492682e-05 2.2157910461e-05 -3.9106030218e-05 -0.0011575068504 -7.0392720932e-05 7.9045002731e-06 -8.9504219879e-05 -1.064382469e-05 -0.0051931060999 
-0.0064135449943 -0.0063414817663 -7.1956865253e-05 -0.0082261817468 -0.0081510615724 -0.0077907313268 -0.001665167904 -0.00097967967431 -3.4626077315e-05 
-0.00017543866204 -2.5784132675e-06 -7.4622036451e-05 -0.003923683757 -1.1744895956e-05 -9.7630000151e-05 -0.0072345139748 -0.0049879466743 -0.0044720721209 
-0.0075557054511 -0.045278278765 -2.7711572985e-06 -1.9974598747e-07 7.8785999483e-06 -1.7799108746e-05 -0.0068687583213 -0.00725593708 -0.0082002321661 
5.7607314515e-05 -0.00013097412701 0.00014468138181 -4.2517763936e-05 -5.4026953946e-05 -5.3414014308e-05 -0.00015430999291 -0.00011510995756 0.0041560241944 
-0.00021467172996 -0.00016728384256 0.00017565043478 0.00010315778342 -0.002378217287 -0.00020461451046 -0.0053102129403 -0.0049941511681 -0.0038882961707 
-0.0039747449813 -3.3719668791e-05 -0.0047511312082 -0.0062521757722 -0.0057896065992 -0.005074339005 -0.0043875706795 -0.0041864901574 -0.003086431935 
0.00011191666235 4.3835138582e-05 0.00011815946158 -0.0039968553425 6.9679400093e-05 0.00011061547147 -9.83163902e-06 -7.4856155091e-05 6.9003695842e-05 
-0.00016727751758 -0.00091548969406 -0.001488266186 -0.00048252672326 -0.002043579546 -0.0024703124202 -0.0019354054653 -0.0043723864857 -0.0045298581697 
-0.0047562691955 -0.0048448631929 -0.0063588133752 -0.0061070950723 -0.0076167865114 -0.0075846464385 -0.0068731623551 -0.005795169441 -0.0039274469292 
-0.0029433958451 -0.00088625927914 4.3617626993e-05 3.5017261819e-05 -0.00018108876065 4.1494583173e-05 -5.0150548099e-05 -0.0071826894437 -0.0068343231009 
-0.0060859101802 -0.0069672844656 9.1305390189e-07 0.00011217877912 -7.9632108968e-05 -2.5286527892e-05 -0.00022545486391 1.8221761562e-05 1.4193288086e-05 
0.00015256561708 7.8836100654e-05 -6.6270005106e-05 2.1739211434e-05 0.00010946449314 -3.9472077894e-05 -1.2789810303e-05 7.6776325067e-05 -1.9825003975e-05 
-5.9205926964e-05 6.1091117686e-05 -2.576405941e-05 -3.6298816499e-05 3.2021552467e-05 -8.5679322167e-06 -4.9361086933e-05 -3.1162055037e-05 -0.002926351188 
-0.002862120613 -0.0032434257557 -0.003685895741 -0.0040047340307 -0.0037853984213 -0.0036541376801 -0.004349688694 -0.0053140709 -0.0055148606124 
-0.005729256188 -0.0055688887637 -0.0056423286455 -0.0052558487739 -0.004722304207 -0.005400906447 -0.0037979231953 3.3866155288e-05 2.1078444497e-05 
-0.001616301177 -8.8866100967e-05 -2.0214136027e-05 -0.00342011573 -0.0028467055222 -0.0018568167173 -0.0024634603888 -0.0062578368764 -0.0049468394842 
-0.005586447097 -0.0040945144421 -0.0032304310759 -0.0030553991437 -0.0045572158706 -0.00094734963729 -0.0017210883488 1.9839262886e-05 5.7288878896e-05 
-0.0019284620837 -9.0797918229e-05 9.6187193619e-05 3.880383453e-05 -4.5157682364e-05 7.1920331202e-05 7.7848666317e-06 7.7873886798e-05 -1.5936871842e-05 
-8.148953574e-06 3.1183933231e-05 -0.0034915125842 -0.0040394309773 -0.0065415255742 -9.2407360146e-05 9.9829199673e-05 1.5276534872e-05 -0.0062510049241 
-0.005782322473 -0.005302580466 4.4094345436e-05 -0.0047851696351 -0.00012777931227 -9.0337255634e-06 -4.2334667147e-05 -2.6043265071e-05 -0.00024849474734 
-0.00013513751152 -0.00015187193076 -0.00067513120679 -0.00041788497186 -0.00040939510842 -0.0012998773399 -0.00092969251452 -0.00083818344032 -0.0021985998776 
-0.0016615336944 -0.0014411584988 -0.0033375231353 -0.002666528934 -0.0022514302227 -0.0046905585899 -0.0039265271719 -0.0032947074417 -0.0060778398117 
-0.0052953409274 -0.0044780865245 -0.0076890372375 -0.0067800031105 -0.0057528700239 -0.0091975273827 -0.0083572207865 -0.0071071322655 -0.010521766677 
-0.0097955510549 -0.0083707552839 -0.011355188141 -0.010964934081 -0.0094340880383 -0.011504417928 -0.011504209254 -0.010048210207 -0.010956406242 
-0.011347283636 -0.010064627352 -0.0097179730386 -0.010536369921 -0.0094697542671 -0.0079771006865 -0.0090046282312 -0.0083299888935 -0.0058999375636 
-0.0071079711264 -0.0067906024558 -0.0038423667373 -0.0049969921112 -0.0050328039894 -0.002117085047 -0.0030419456449 -0.0033261005143 -0.0008982642798 
-0.0014729401986 -0.0018966811635 -0.00020066129759 -0.00045215016905 -0.00083542168478 -8.8026036623e-06 -0.017447197591 0.0054009328033 0.0068966678754 
-0.00034447194404 0.0002390412227 -0.002904997746 4.6204362329e-05 0.000702750167 -0.00075530319668 9.7911105701e-05 0.00035349950206 -0.00078469917099 
1.2864710861e-05 0.00022888177511 -0.00051300856026 5.3721784472e-06 7.8404115308e-05 -0.00013206583322 6.0846736206e-06 4.3286171592e-05 -7.5599678707e-05 
5.9286626326e-06 2.5862179399e-05 -5.8077118811e-05 3.6313084123e-05 1.7316863126e-07 -8.2363361252e-05 -1.3275985762e-07 1.0255914916e-06 -3.9788255499e-05 
-5.4920440335e-06 -1.5329030806e-05 -2.9463133825e-05 -9.1461886036e-06 -3.0756975672e-05 -4.605360003e-05 -2.5694341102e-05 -4.1621366324e-05 -6.0388994822e-05 
-3.7241626977e-05 -5.4233686265e-05 -7.751310989e-05 -4.8438897154e-05 -5.3250115507e-05 -7.6195691718e-05 -6.0783199878e-05 -6.774798649e-05 -8.3028425519e-05 
-6.1798063321e-05 -7.6207100343e-05 -8.7018496945e-05 -6.5970991448e-05 -6.8389324608e-05 -9.2868365388e-05 -7.0132069114e-05 -6.9967822887e-05 -9.2392514028e-05 
-7.4100333514e-05 -7.087203361e-05 -9.3269212079e-05 -7.1193079068e-05 -7.6873736016e-05 -8.3848342136e-05 -5.2866181733e-05 -6.2909883227e-05 -8.4741377979e-05 
-3.9098461604e-05 -4.4455891928e-05 -7.0991684687e-05 -1.7801974873e-05 -2.7045359961e-05 -4.8300618217e-05 3.2099117292e-06 -2.1901569132e-06 -1.1659210009e-05 
4.6947059789e-06 -4.0275087104e-07 -8.8654427994e-06 4.2652648394e-06 2.6215797186e-07 -8.1179471803e-06 1.2329652918e-05 1.3133436708e-05 -1.8082303108e-05 
1.5828196065e-06 5.2376893138e-06 -2.3887533902e-05 6.2700796939e-07 5.2750314774e-06 -1.0126298454e-05 1.1371938113e-06 8.0867881946e-06 -8.2796771513e-06 
-4.6227102966e-06 2.3582945449e-06 -5.0005956071e-06 -1.6997933425e-05 -9.0923968568e-06 -7.0886995313e-06 -2.8222883458e-05 -2.5296046482e-05 -3.4809998374e-05 
-0.010106359033 -8.7485893287e-05 -8.4436908976e-05 -6.5302338869e-05 -9.06080382e-05 -0.00012051627534 -5.7628694731e-05 -0.00010530421602 -0.0001591881781 
5.4531049325e-05 -3.7704664173e-05 -5.0077919933e-05 0.0001038410656 -1.3192221542e-05 -2.0340154926e-05 -0.0002065873463 6.573672139e-05 -0.0010267120354 
-0.00049323753846 -0.00014231327528 -0.0015260343962 -0.0013664995341 -0.0017668431753 -0.0011117404014 -0.0013747593705 -0.0025034958504 -0.00033845037184 
-0.00055362378577 -0.0019557958032 0.00035722376723 -0.00017885951534 -0.00038838616723 -0.00059102469843 0.00048491819271 -0.00099590737838 -0.00048618047132 
0.00077115983573 -0.000813225009 -0.0010452494926 -0.0018824506477 -0.00035173134887 -0.00067783146491 -0.0013444736073 4.8197938622e-05 -0.00030443294268 
-0.00067660599205 0.00023082164018 -0.00012045248179 -0.00015064716254 0.00062760613637 -1.9660570106e-05 -0.00016844742793 0.00037752441335 0.0003707918404 
-0.00040763686902 0.0028043671649 0.00077451887614 -0.0012084499632 0.0022449865154 0.0011538365669 -0.001779705524 0.00094955540241 0.0039356940073 
-0.0014493286469 -0.016708108156 0.029708026189 0.031153272345 0.0037248275288 -0.0066559200691 -0.0046544241252 0.0073334410514 0.012189556236 
-0.010077607884 0.0057434235792 0.0083181841463 -0.013175935263 0.0077983897246 0.0055511706097 -0.010981091762 0.0094919943643 0.0072596433859 
-0.011439180505 0.0065049585872 0.0046315082382 -0.0081387062581 0.005192547531 0.010057332926 -0.0096293521526 0.0071573408009 0.0063325658784 
-0.0097223844105 0.0079634234575 0.0056961221741 -0.0092077304324 0.014282707833 0.0052433946246 -0.010390529293 0.0048052769501 0.0054027964204 
-0.0080076087248 0.0062128005173 0.0022763555643 -0.0058543280935 0.0070953703263 0.0043502497365 -0.01090319442 0.011377976771 0.0050950637203 
-0.012027732707 0.0048111699276 0.0045261114004 -0.010045289293 0.0091992156137 0.0095322175468 -0.008627134572 0.011179555122 0.0052752050791 
-0.0055666450125 0.015713161791 0.0052234512689 -0.010173418002 0.010922554236 0.01423624242 -0.014739550723 -0.035736013085 -0.0066149336817 
-0.10707900267 -0.039165516606 -0.066555177871 -0.040940123507 -0.06239800963 -0.047262647004 -0.039696706677 -0.049600656754 -0.033084058879 
-0.027951120473 -0.036089457049 -0.02667631714 -0.022876282627 -0.025152387985 -0.020754740734 -0.017724830242 -0.018152843079 -0.016395421642 
-0.012864560814 -0.012087824433 -0.01077346729 -0.0079869837086 -0.0074953652271 -0.0057828924401 -0.0015833186666 -0.010225576027 -0.0046388962685 
-0.0037776590033 -0.0066185089782 0.0022194270601 0.009885838621 -0.0041187659549 -0.001232625856 -0.026161671113 0.023413722247 0.0037999820472 
-0.003642237704 0.0034371941639 0.0013461795361 -0.0062071369152 -0.0019081778979 -0.00048098791062 -0.016210427692 -0.011768886642 -0.0039749751248 
-0.026994209169 -0.024170523144 -0.0098126020063 -0.035802031762 -0.035000348983 -0.019895173461 -0.047006970852 -0.051344783449 -0.056263460072 
-0.049863470633 -0.04326215109 -0.053117531796 -0.050191346082 -0.058175454306 -0.063491321389 -0.043688089131 -0.054132522723 -0.059174313938 
-0.040341626808 -0.043212444753 -0.054082505846 -2.3248810407e-05 -0.00010850640629 -3.6651600383e-05 -5.1420873845e-05 7.1755171767e-05 7.3024924373e-05 
0.00017541005563 -0.0002520061414 8.9479596193e-05 -0.00013539339373 -0.052598164245 -0.0047099002166 -0.065723820742 -0.0013144183857 0.023175881733 
-0.043207627888 -0.0046054090301 -0.01546909896 -0.021253849031 -0.013080776903 -0.011443471832 0.0095984490743 -0.0039779552017 0.011593422788 
-0.014686811846 -0.0045819427353 0.022614686645 -0.030639745238 -0.031062407854 -0.045388566436 -0.034988930505 -0.015693593255 -0.021862584578 
-5.8759872603e-05 -0.0056125100705 -0.00056235552378 -0.00038732060057 -0.00025896941279 -0.00016186733516 -0.00013851319808 -0.00033806162211 -0.0015161616354 
-0.0011452022212 -0.0022548619867 -0.0017886835251 -0.0013955617004 -0.0031744237087 -0.0026142383919 -0.002020047995 -0.0042016591264 -0.003631782785 
-0.0028155776952 -0.0053121625384 -0.00467776875 -0.0037353543082 -0.0064375882213 -0.0058311471174 -0.0047232660142 -0.0075134913175 -0.0069767395787 
-0.0057658191594 -0.0083530145004 -0.0079763614748 -0.0067699155806 -0.0087633972706 -0.0086592900599 -0.0075120398905 -0.0086692114372 -0.008807059304 
-0.0078336920305 -0.0080872226599 -0.0084530457392 -0.0076731811646 -0.0069808413669 -0.0076164117476 -0.0070325659448 -0.0056854372752 -0.0064245405617 
-0.0060277895329 -0.0042142532271 -0.0050231866069 -0.0048391624215 -0.0027984655319 -0.0035182626509 -0.0034970533906 -0.0016132757598 -0.0021911286133 
-0.0022224140237 -0.00065366634401 -0.0011378359012 -0.0012277086838 -0.0066605355832 -0.0069888415392 5.4390623613e-06 0.00075928724639 -0.00040618226492 
0.00087932783703 -0.00048861476562 -0.00023434635965 -0.0019925597605 -0.001597798104 4.6159186215e-05 7.2552310824e-05 0.00064949245099 -0.00046823814206 
-1.5045185775e-05 0.00019870299785 -0.00022392109586 -4.3340110719e-06 9.8948483891e-05 -9.9358589396e-05 9.4074604297e-06 4.7283325355e-05 -7.8279990669e-05 
3.1186095785e-05 3.9728333282e-05 -0.00014731350921 5.8748775264e-05 5.2177841073e-05 -8.5965370994e-05 -4.8435871657e-06 1.515149461e-05 -5.3419596641e-05 
-6.6556939321e-05 -5.2831152358e-05 -3.9285167716e-05 -0.00013333408472 -0.00013679714281 -0.00015478550343 -0.00018238641911 -0.00018764124441 -0.00025967409352 
-0.00024379638072 -0.00024368284121 -0.00033397709567 -0.00029308661523 -0.00029336045457 -0.00039461133477 -0.00031769437787 -0.00033054182941 -0.00044191352249 
-0.00034318929924 -0.00035342015393 -0.00048375940611 -0.0003642137354 -0.00037072499272 -0.00052611017427 -0.00037273253779 -0.00038173929544 -0.00054867599025 
-0.00036372275142 -0.00037956440981 -0.00054386813806 -0.00032163236027 -0.00034654669358 -0.00050946297381 -0.00024137502946 -0.0002870943456 -0.00044142297285 
-0.00012522267051 -0.00018893577785 -0.00031283085045 -1.5779935516e-05 -7.683512486e-05 -0.00015309685367 5.0198888788e-06 -2.2397508018e-06 -9.1357302038e-06 
7.491770769e-06 -3.2376656589e-06 -1.1164806838e-05 1.381439329e-05 1.3260224861e-05 -1.4203372853e-05 8.1373991227e-06 5.9860583728e-06 -1.7757700732e-05 
-3.5642061241e-06 8.1484730618e-06 -1.6802926654e-05 -3.7639035778e-06 1.0941181963e-05 -7.0038451476e-06 -3.0351214724e-06 1.0298746089e-05 -1.1214899572e-05 
-4.20411298e-05 -3.3131801697e-08 -5.9137236202e-07 -0.00011693940144 -7.5637204913e-05 -8.9933731484e-05 -0.00019024003829 -0.00022775405214 -0.0005040700855 
-0.00018991722161 -0.00016424312794 0.00011392024774 -0.00010931604877 -0.00010983072593 -0.0061804986345 -0.0045114754327 -0.0095787071461 -0.0024898464904 
3.5930659908e-05 0.00034699273005 -0.003809599292 -0.0053139867388 -0.009056917929 -0.0043577680413 -0.0049769191019 -0.0038820085584 -0.00010743979734 
-0.0065795466908 -0.00072524793074 -0.0019143175664 0.00035649195411 -0.00026613806313 -0.00085670195152 0.0005237990175 -0.00017067717611 -0.000100079712 
0.0003994011977 -1.7870003834e-05 -0.00021369774292 0.0005129982799 0.00020852147944 -0.00068162827588 0.0002912327982 0.00051856409541 -0.00046680251917 
0.0014822064732 -9.0823845677e-05 0.00017283100486 -0.025652125408 -0.023289171715 -0.035360100807 0.006067678333 -0.0050913966271 -0.0023459028497 
-0.00034540019936 -0.0032047464034 -0.0029169292265 0.00041365149754 -0.0020935359893 -0.002943405491 0.0006953981047 -0.0012439087653 -0.0029901466205 
0.00056592413078 -0.0032847221834 -0.0026505329113 0.0010400361829 -0.0028828457763 -0.0020661445515 0.00069539886388 -0.0021146496788 -0.0018301739025 
0.00058397397731 -0.0020888393122 -0.0027105073043 0.00062095039191 -0.0033898276031 -0.0027622960838 0.00091486952645 -0.002530676638 -0.0012738694775 
0.0017547232751 -0.0027767772338 -0.001732810453 0.00065740840904 -0.0023561452667 -0.0038006348917 0.00032355503544 -0.0010432024782 -0.0030429258031 
0.00072590354323 -0.0019250646807 -0.0027922544033 0.0011274147072 -0.0027565730481 -0.0029912385002 0.0011838741989 -0.0035465934334 -0.0022355411183 
0.00088395393572 -0.0028348273296 -0.002194135272 0.0017081549994 0.0018081346532 0.0036039833754 -0.029232194875 -0.012892026437 -0.00072720592633 
0.0013221134209 -0.035082044722 -0.032744825989 -0.032294086513 -0.028323353415 -0.027361102131 -0.028318747188 -0.023152559974 -0.025536212721 
-0.021956113865 -0.017673856797 -0.021215979271 -0.015776226656 -0.012871660046 -0.015713049059 -0.0031630734261 -0.00065495259781 -0.015809360022 
0.00076511072378 -0.0023836320853 0.0031921584077 -0.0054480031763 -0.011894914127 -0.0053484221761 -0.0034105402883 -0.00010712060045 -0.0056406689033 
-0.039040978801 -0.034177489165 -0.031971474352 -0.030953164604 -0.026905753823 -0.032801194405 -0.034662475448 -0.036629550876 -0.037562066653 
-0.029239248195 -0.026534159231 -0.00096075332394 -0.00069258484842 -0.00060679750438 -0.0009337098177 -0.0024553447807 -0.0038118974834 -0.0033613901076 
-0.023547447489 -0.037254710315 -0.024200794882 0.00041020120258 0.0030652009313 -0.011536885976 -0.020586621501 -0.014170583656 -0.011039438202 
-0.022853214357 -0.030063383183 -0.020570125884 -0.001980300329 -0.00077650386861 -0.00048827525525 -0.0051474261647 0.0044889236045 -0.0048971345895 
-0.015357539736 -0.014917569394 -0.013008360015 4.0833512171e-05 0.00013907691153 -0.00038073937528 -0.00044030090841 -0.00049591320477 -0.001579163337 
-0.00055639586568 -6.4124824562e-05 -0.001814622418 -0.0042388691287 -0.00594044166 0.00022655390428 -0.00028793928449 -0.0012028596852 0.00086966068166 
0.0006310278747 -0.017175898076 -0.022382821228 0.00040687151779 -0.0031445173992 -0.0038062059798 0.00049920729255 -0.0033995388677 0.00015191630511 
-0.015497291137 -0.010286852377 -0.0081763246937 -0.00077504568171 -0.0018209491802 -0.0045010804168 -0.0033029878125 -0.0068694414745 -0.0087599839871 
-0.011430105881 -0.0077690729743 -0.007423580034 5.2930335885e-05 -0.0058327136583 -0.0015276362328 0.0022370254928 -0.00017495529266 -0.010941435707 
0.00070986653218 -0.002107708278 -0.00018278657133 -0.0015697979683 -0.0024062639438 -0.0019772572279 -0.001231951859 -0.00094140203444 -0.0031786299447 
-0.0027427529928 -0.0017886481441 -0.004085589674 -0.0036245468412 -0.002533767563 -0.0050409030754 -0.0045798445454 -0.0034477810973 -0.005955372181 
-0.0055877530526 -0.0044532925964 -0.0066365698371 -0.0064013889188 -0.0053889874859 -0.0068846393775 -0.0068684955233 -0.0060665695518 -0.006689883031 
-0.0068737468845 -0.0062818704902 -0.0060126927729 -0.0063964297435 -0.0059801222442 -0.0050591583951 -0.005510209789 -0.0051888322669 -0.0039759918568 
-0.0045252086158 -0.0042412375018 -0.0029052583058 -0.0035201426698 -0.0033002724267 -0.001776824555 -0.0022899781532 -0.0022116796516 -0.0011044779075 
0.00016943947268 -0.010949230709 -0.0066608162373 -0.00042390458959 -0.00032328066708 -0.0002522986001 -0.0073482058643 -0.0061852628741 -6.996211054e-05 
0.00047574643502 2.2383921689e-05 -0.00044325861766 0.00049267561924 -1.3604096237e-05 0.00010192727087 1.6319046794e-05 9.3553527942e-05 -0.00017891592552 
4.1568315468e-05 9.8334381526e-05 -0.0001519342333 3.5446975189e-05 2.276156144e-05 -6.0991192963e-05 9.2904875774e-06 1.977686365e-05 -4.1900955031e-05 
-0.00017559030614 -8.2898043122e-05 -5.5059135807e-05 -0.0003558677564 -0.00030420609235 -0.00031055072298 -0.00051512323073 -0.00046660073966 -0.00055662781228 
-0.00064781270658 -0.00060795461852 -0.00074435488324 -0.00074301510928 -0.0007223959506 -0.00089490792556 -0.00082994842693 -0.00080800144484 -0.0010291098923 
-0.00089881239904 -0.0008732965066 -0.0011406774363 -0.00092364573725 -0.00092094747877 -0.0012059725688 -0.00091403210261 -0.00093936349617 -0.0012270943349 
-0.00084140767717 -0.00089233452356 -0.0011841969318 -0.0006834656292 -0.00077156113772 -0.0010501162518 -0.00044108588329 -0.00058645744704 -0.00081800603642 
-0.00016724756355 -0.00031851982502 -0.00050291607554 1.3521895118e-05 -3.9252207524e-05 -0.00013973458074 9.1451868043e-06 -4.167187219e-06 -1.7414166912e-05 
4.7121633062e-06 6.355442679e-06 -8.8803374769e-06 8.2920546248e-06 9.8057798506e-06 -1.3429238739e-05 -3.0825061395e-06 6.9448337369e-06 -1.3997997004e-05 
-7.7183902739e-06 1.1673772023e-05 -8.7046029186e-06 -5.5324971486e-06 1.4858315366e-05 -3.7618457112e-06 -5.2215320054e-06 1.3843309825e-05 -6.533243821e-06 
0.00027952194948 -8.2593674278e-06 -5.2457237963e-05 0.00018920381243 -9.4285940495e-05 0.00010650123159 -0.0008050699765 -0.0017545774792 -0.0013935839533 
-0.00086947592061 -0.0012485520016 -0.0059251668345 -0.0081481935612 -0.017520444357 -0.020022632034 0.00040329089454 -0.00027200094989 0.00033763913346 
-0.0013175546205 -8.1744689848e-05 0.00017982464985 -1.2746872455e-05 1.9837194962e-05 -0.00015397752731 -0.00013093378789 -0.0001018514041 -0.00021193733637 
0.0001482165476 0.00049076334142 -8.2817557008e-05 2.3913044289e-05 -3.7124958561e-05 0.00022604595081 -0.00010528247018 -0.00010191867343 0.00012787458041 
-1.0014531101e-05 6.0642187518e-06 0.00012713051852 -0.00021634322704 4.2378269224e-05 4.325853928e-05 -2.8549789895e-05 -7.1244199989e-05 4.3544546541e-05 
-3.3918341545e-06 7.6836235432e-05 8.7188223961e-05 -7.4301830475e-05 5.4901754096e-05 0.00010813472086 -7.6673744108e-06 9.22739246e-06 0.00013009609473 
5.9298004333e-05 -3.4495718477e-05 0.00010359244519 -1.4106452706e-05 -1.2442184137e-05 0.00014744843833 -2.6904668369e-05 -0.0002088617064 0.00019045743532 
5.7716370951e-05 -0.00030751107664 0.000335893282 0.00011178474795 -0.00022143191977 0.00028356269032 -0.0044378160571 -0.0033146961245 -0.00096330318868 
0.0018856090944 -0.002686210007 -0.0048260755042 -0.0065926305306 -0.0023662936025 -0.021129874887 -0.018020270896 2.0442377694e-05 -9.1761663568e-05 
-0.00029541000077 0.00014549830118 0.00011595156486 -0.016080759058 -0.019451037798 -0.0084617304117 0.0015389414052 0.00026874911018 -0.0002244407321 
-9.3395720143e-05 -0.00034107231886 0.0023743663238 -0.0053581383861 -0.0054601758558 -0.0090275226572 -0.0093846030912 -0.010410708684 -0.00016702291746 
0.00016046930443 0.00033353352543 -4.2455645804e-05 -0.0052932537067 -0.0040268338552 -0.007845669673 -0.01499553201 -0.012881866864 -8.8545301348e-05 
0.00030487606725 -0.0001405652647 -9.9608297717e-05 -0.019787365411 -0.017668265461 -0.014620575231 -0.010292145029 -0.0078587231025 -0.011423296922 
-0.006364086935 -0.0041510298374 -0.0077480859586 -0.0087151777706 -0.023148062625 -0.022080958027 -0.017452988509 -0.00061078748944 -0.00082981503649 
-0.00063142997027 0.00012345119798 -0.0064375688255 0.00084062681198 -0.00056536049623 -0.005069591787 -0.0036310126619 -0.00063214524719 -3.6441786702e-05 
-9.9313581325e-06 -0.00017466427325 -8.0017895552e-05 -3.9517515758e-05 -0.00027172807059 -0.016342087986 -0.013259719458 -0.014723754895 -0.0064148276738 
-0.0097599161662 -0.012215023473 -0.00056104058898 -0.014344261249 -0.013066659188 0.00055581680832 -0.001821038063 -0.00018488656444 -0.012829314654 
-0.013917555001 -0.012055584537 -0.010447421279 -0.00078402979717 -0.00065721953374 -0.014515845271 -0.0011904226012 -0.0010944203791 -0.015759344755 
-0.024174687872 -0.018944223431 -0.023262970367 -0.00022883262717 -7.3508401494e-05 0.00018346639293 -2.5709254222e-05 -0.0039543366365 -0.0010975084652 
-0.0073934154307 -0.0081695302856 -0.015167356907 -0.020823695561 -0.023420215176 -0.0011455763425 -0.000846639624 -0.003721989289 -0.00333234962 
-0.0047478332024 -0.004455159627 -0.0033198979476 -0.0054289516305 -0.0052543085851 -0.0044640919819 -0.0056362931861 -0.0056490426749 -0.0051419418545 
-0.0053128150845 -0.0055423529847 -0.0052765753788 -0.0042424269185 -0.0046806436505 -0.0045611108461 -0.0034240326787 -0.0038226007854 -0.0033890514106 
-0.0024427197083 -0.002833706434 -0.0024894883365 -0.0019622268581 -0.00025901240985 0.0012015344928 -0.013945926423 -3.4630319257e-05 -0.0016699187187 
1.38628698e-05 0.00016133454315 1.3635720643e-06 0.00014617362868 -0.00018184088022 3.1516115538e-05 2.9160448779e-05 9.4694735248e-06 3.40887178e-05 
-3.568771104e-05 -0.0003476097566 -0.00014889320474 -5.8144639365e-05 -0.00070768231066 -0.00056741576388 -0.00054262766948 -0.00098658727933 -0.00087262497259 
-0.00096959836487 -0.0012148951285 -0.0011294857013 -0.0012937875808 -0.0014204213188 -0.0013477011688 -0.0015754772262 -0.0015810652698 -0.0015181996158 
-0.0018269779932 -0.0016619564928 -0.0016355217546 -0.0020034053132 -0.0017023240913 -0.0017045564088 -0.00210161837 -0.0016123570674 -0.0016833230407 
-0.0020989648202 -0.0014046583539 -0.0015400805789 -0.0019563173993 -0.0010454295725 -0.0012443373245 -0.0016530675603 -0.00055636194504 -0.00083170461841 
-0.0011573371412 -2.7620076622e-05 -0.00029951770649 -0.00054206846011 1.6940992982e-05 -5.9776277546e-06 -1.945485166e-05 6.2144675003e-06 1.0716069009e-06 
-2.6436441702e-05 6.8281787472e-06 8.2780981088e-06 -1.0789782785e-05 -6.5027401696e-06 6.8408485969e-06 -1.3081891724e-05 -1.1038727826e-05 1.2314154706e-05 
-7.7630946354e-06 -1.1687864673e-05 1.7225892412e-05 -1.5773486826e-06 -7.2634386968e-06 1.6415654599e-05 8.4818914291e-07 -0.0014483959626 -0.0012463753631 
-0.00046081528155 -0.01256411519 -0.011402070114 0.00025906144294 -0.0002254786985 -0.0081409891563 -0.0073537356508 -0.021227191347 -0.041407497804 
-0.00020595619489 -9.1139140637e-05 0.00012548583228 6.5741817119e-05 -5.227909545e-05 4.5391603898e-05 -3.0012364582e-05 -1.6083451618e-05 -9.4275639127e-05 
-1.0492155254e-05 0.00010286184557 -8.036057065e-05 -2.4688233219e-05 0.00014212047873 -3.5946412953e-05 2.3189930137e-05 4.7577223659e-05 -3.0730188515e-05 
-4.1471237741e-05 0.00012236820775 -3.3292738335e-05 -8.6302334576e-05 0.00015229734013 -0.00010772509313 -7.6109190811e-05 0.00016891474032 -0.00013883125006 
-3.8512218805e-05 0.0001456059012 -0.00011471654777 -5.4475891939e-05 0.00021271152018 -2.1209431186e-05 -0.0001668630226 0.00023248672293 -1.5607652372e-05 
-0.00024538501964 0.00030529033759 -3.787132868e-05 -0.00026927196308 0.00036604336144 -0.0027065647697 -0.0023226126332 -0.0020710759217 -0.0018253575474 
-0.0014391914691 -0.00034053163383 -0.0010448120028 -0.0078713929397 -0.0034541422027 0.00090801634356 -0.00022691224489 -3.9449718519e-05 0.00016811943333 
-0.00015698666335 3.6278921835e-05 0.00011059729612 -0.00014178737362 -5.1202594817e-05 -0.00050278027376 -0.0057115382812 -0.005852108721 -0.00051327260157 
0.00023285820553 -0.0028219932049 -0.0088218678486 -0.011284181143 -0.014701412537 -0.014007168805 -0.011868739585 -0.0042831201437 -0.010265442564 
-0.008997818039 -0.010608288846 -0.012487709352 -0.00011973118782 7.1981452966e-05 -1.9697544119e-05 0.0002177023849 -0.0002055939401 -0.00016963110389 
-0.0069518830096 -0.0048705181115 -0.0077251748548 -0.00024908710274 -0.00017797105761 0.00027758239573 -0.01194810111 -0.013515661499 0.00015422636776 
4.8235723205e-05 -0.00048341226192 -0.012761489492 -0.013099394143 -0.011358354754 -0.012764763214 1.142729892e-05 1.1337594472e-06 -0.0001240413426 
-5.24742639e-05 2.1159839081e-05 -0.00048229901064 -0.0003078689789 -0.0072099056045 -0.008992198151 -0.007872791578 -0.0027746421917 -0.00072356879898 
-0.00049444475858 1.0569387798e-05 1.2587778582e-05 -0.0031978938521 -0.0025355188013 -0.018005958343 -0.00032067493683 -0.0002084674736 5.2679792789e-06 
-0.0048603665192 -0.0074139673777 -0.003748168871 0.00015524921477 -0.00015257529314 -0.00014121286322 -0.010303454497 -0.011090775415 -0.0090953106462 
-0.00065199687541 -0.00022550131993 -7.8124766932e-05 0.00023165060862 -0.0019073006629 -1.6894114236e-05 -0.00021719720703 4.936319056e-05 0.0001685538538 
-0.01578180688 -0.012807953494 -0.015392391453 -0.0086435616323 -0.0002641968395 -4.814242416e-05 0.00011283817807 -5.014024008e-05 -0.00013993446226 
0.0001271496896 -0.00016198088103 -4.1346958642e-05 -0.0085559818659 -0.0073867976268 -0.0090585037841 -0.0095607616388 0.00035920461338 -0.00030674716789 
-0.0026747232848 -0.0022124499367 -0.0049154256286 -0.0048158853465 -0.00016088563928 -0.00015759874667 0.00025044280547 0.00034887024905 -0.0033270699259 
-9.1248487708e-06 0.00013549943034 -0.0042412967071 -0.0049169890233 9.7870627101e-06 4.9767604027e-05 2.6651508891e-05 2.4927692895e-05 -3.1412569732e-05 
-0.001147476904 -0.00092889009379 -0.0015876177381 -0.001401173844 -0.0014660850515 -0.0019759112801 -0.0018076614268 -0.0019798104267 -0.0022946589467 
-0.0021637115678 -0.0024369855123 -0.0025283071052 -0.0024451933122 -0.0028154731787 -0.0026725994669 -0.0026191989384 -0.0030918332853 -0.0026048394171 
-0.0026522026015 -0.0031768791897 -0.0023965782704 -0.0025288452875 -0.0030532651327 -0.0019472130754 -0.0022214811683 -0.0027412616984 -0.0012875133616 
-0.0016687484191 -0.0021614803372 -0.00040301363698 -0.00087224234433 -0.0012942424875 2.6970535625e-05 -1.6575092458e-05 -0.00025122682774 1.9851957282e-05 
-4.0403440471e-06 -3.3239864426e-05 8.261129483e-06 5.3244437446e-06 -3.4845561047e-05 -1.1115419016e-05 5.1276121357e-06 -7.8510096107e-06 -1.3878732435e-05 
1.7880949699e-05 -3.9445314948e-06 -1.6851495667e-05 2.0194542814e-05 1.7386125764e-05 -1.4012132866e-05 1.4010653146e-05 2.1696607772e-05 0.00013365862987 
-9.1722918718e-05 -0.002041984769 -0.00025372783382 -0.00062358630374 -0.00030794986219 -7.0067323979e-05 -0.00086348279284 -3.0431530466e-05 -0.00015047197666 
-2.5941477737e-05 8.817576019e-05 0.00014176804898 -5.4572288616e-05 -2.1164533534e-05 -0.014373224604 -0.015585130769 -0.01243175317 -0.010733464983 
-5.6391738037e-05 -2.2585425339e-05 7.1859006498e-05 -3.3996296201e-05 -7.7248114764e-05 2.7454625254e-05 -0.00092560994708 -0.0037293806638 -8.3545034094e-05 
-5.6883108475e-05 -0.00010751354406 0.00015621897802 -5.7468598821e-05 -0.00014027399335 0.00017761656147 -0.00016010945317 -0.00011640035844 0.0001725247814 
-0.0002322519413 -3.7428499979e-05 0.00016532194887 -0.0001810566696 -5.9281623469e-05 0.00025595254178 -5.4083302654e-05 -0.00023740218806 0.00022107621909 
-6.0841673386e-05 -0.0003154045301 0.00031061130036 -0.0042430719693 -0.0012810939588 -0.00089915614867 -0.00079950407321 2.6796412686e-05 0.00027575062344 
-9.4628382431e-05 -0.0040821488219 -0.0037423195807 -0.0026354207233 -0.004750989906 -0.0047118118822 -0.0040502454895 -0.0046865214547 -0.0061504333334 
-0.0084148090155 -0.010069606073 -0.0096773105155 -0.0092613810817 -0.0087499549321 -0.0090230519723 0.00030417905063 -0.0044289482113 -0.00024229218888 
-0.00024070611042 2.0566825715e-05 -2.5977896542e-05 0.00052434150679 -0.0082592943431 -0.0071607818871 -0.0040400475641 0.00015762469571 -0.00015166812978 
5.0070148754e-06 -0.0072430574094 -0.0078134475297 -0.0041818827573 -0.003745011565 -0.0048273084962 -0.0062545816032 -0.0085774203928 -0.0094999025091 
-4.2549407496e-05 3.353151258e-05 9.3975561762e-05 6.88898269e-06 -5.9144091653e-06 -5.5095328565e-05 -0.00012386218228 0.00021204586318 8.8537700081e-05 
-1.461753903e-05 1.0175490092e-05 -8.2646684777e-05 -0.00014102358904 4.9909225131e-05 -0.010439865887 -0.010343081976 -0.0086670326758 -4.3464931802e-06 
-0.00021790526122 -0.0088976269949 -0.0084810205754 -0.0084109542967 -0.0044201397196 -0.0022854046405 -2.5427252489e-05 -0.010280699922 -0.012333327072 
-1.2961813979e-05 -1.0296158741e-06 2.8320702183e-06 1.2700477354e-05 -1.5121113465e-05 5.8482801774e-06 -9.1045786078e-06 -1.1245949386e-05 -0.00027328310627 
7.5738984662e-05 -6.6034223212e-05 -7.7720653727e-05 0.00033774735231 0.00012518623112 -0.00020057686246 -7.9431692807e-05 4.713334439e-05 4.5751663758e-05 
-0.010480582481 -0.0091819441254 -0.010445320992 -0.0089246829411 -0.0087161314012 -0.0083194730385 -0.00012414224736 0.00015653265714 2.2105914148e-05 
-0.0088282399088 4.3705550332e-05 -4.7211577576e-05 -1.3368748289e-05 -7.7710147149e-06 -8.6999112984e-05 -0.004267846703 4.90496362e-05 -0.00017125189233 
-0.003235071154 -0.0048285158459 -1.8375026406e-05 -0.0070369194889 -0.0054711583718 -0.0071423063474 0.00030898845463 -0.00011438655307 -0.00016471464116 
-0.0023285729886 -0.0020377845087 -0.001698112898 -0.0013796045461 -0.0020534148792 -0.003358811068 -0.0031614607973 -0.003676084948 -0.003544020722 
-0.0039772157471 -0.0037504444184 -0.0037544807474 -0.0042892424559 -0.0036068040416 -0.0037222324652 -0.0043462591727 -0.0031941282848 -0.0034649213075 
-0.004142516194 -0.0023708226535 -0.0028285879877 -0.0035283332759 -0.0011921598531 -0.0018767035969 -0.0024668871871 1.4064383423e-05 -0.00050553903552 
-0.001023348771 4.1149263418e-05 -5.0775487571e-06 -1.0459113648e-05 2.581044039e-05 1.0281802855e-07 -4.6987679568e-05 -1.525118355e-05 1.7784014252e-06 
-2.8141034416e-05 -1.4799436436e-05 2.7013297481e-05 1.3808181996e-05 -1.2213909414e-05 5.4380109938e-06 4.3763005837e-05 -6.5228145149e-06 -2.4284024684e-05 
-3.625375989e-06 -1.6643622e-06 7.0445814849e-06 4.2079770993e-05 -0.00013440143287 -0.00011548833533 0.000198557106 -0.010332096046 -0.011023785003 
-0.0090843674471 -0.0078762469829 8.2529329707e-05 -0.0001005117739 4.1001491222e-05 -0.0013839630315 -0.0038340033987 5.0790914782e-05 9.7013526967e-05 
-5.9704831485e-05 -0.00011970338216 5.7611125907e-05 -0.00017384526474 -0.00020858748429 0.00019652183196 -0.00025917390802 -0.00011895547145 0.00030659293112 
-7.8567478447e-05 -0.00017147812859 0.00022879898861 -7.2639310978e-05 -0.00026547974674 0.00028741146663 -0.0065397616434 -0.005732064923 -0.0037755611671 
-0.0077814172745 -0.0077162688374 -2.9968189409e-06 0.00023690005532 3.7118103759e-05 1.1732689608e-05 -4.7714579505e-05 -6.355871233e-05 -0.00026575935019 
-0.0028857988235 -0.0026412876419 -0.0034595030546 2.1354332617e-05 2.4782564296e-05 -0.0087527035055 -0.0083913576002 -0.0090129321888 -0.0089896413811 
0.00031316682509 -0.0028562239383 0.00010735387533 -0.0034661457017 -0.0059188774951 -0.00014489424637 -8.9892154365e-05 -7.2452158293e-05 -9.7104676806e-05 
0.00020176110021 -0.0019946927953 -0.0027939793566 -1.0131166877e-05 0.00010380228454 -2.8301561558e-05 -0.01110324749 7.1127359828e-05 -7.1258828695e-05 
-0.0047603674358 -0.0054478960634 2.9113886133e-05 3.2745275037e-05 -2.7080925466e-05 -0.0013351517989 -0.0010385666023 -0.00062478154647 1.6119111611e-05 
0.00012495119812 -8.3060764912e-06 1.2636087926e-05 -0.0095807381213 -4.7173128984e-05 1.4843128852e-05 -5.3914552915e-06 -0.00759791552 -0.0078880356304 
-0.0078919174114 -0.0078501375234 -1.4557715283e-05 -0.006891783257 -0.0057333613064 -0.0077646567741 -0.0072283091208 -0.0077883773394 -0.00015598547861 
0.00011940822219 -7.1308345926e-05 4.4621381221e-05 -0.0077071543616 -0.0070217648279 -0.0082882777469 0.00015383572999 -5.9413742687e-05 -3.2540707039e-05 
5.6967778079e-05 -2.5496059667e-05 -2.9190480081e-05 1.121735845e-05 -0.0040384581999 -0.0029888970111 -0.0036714618235 6.5051818507e-06 2.4004248667e-05 
-0.004983470652 -0.0048511198935 -0.0045892234998 -0.0043472111576 -0.0053934078891 -0.0048498107243 -0.0050443272642 -0.0025394343568 -0.0033610177253 
8.743006833e-05 1.4668992989e-06 3.813367505e-05 1.0055115202e-06 -5.1428741159e-05 -7.9966863015e-06 -6.3830373782e-07 2.1689601639e-05 -7.2466429816e-05 
4.2778660138e-05 0.00013666114768 -2.9424931501e-05 1.2291001578e-05 3.1797803259e-05 1.6986150651e-05 -0.00013556504252 2.1803764966e-05 0.00011330384416 
-7.3008989656e-05 -6.8567061183e-05 -0.00017663168897 -4.2235702362e-05 -1.6906938524e-06 -0.0048846035718 -0.004200390577 -1.5419690185e-05 -0.00018779512925 
-1.6904028323e-05 6.8919870337e-05 -4.771813257e-05 -1.3379902443e-05 0.00011684161661 -0.00013623854419 -0.0016906402277 -6.7663583969e-06 -2.4683416206e-05 
-0.003414212787 -0.0039680944386 -0.0036081135733 -0.0046655069668 -0.00015355903678 -0.00017548389029 0.00023893412006 -4.5300488806e-05 -0.0049059603501 
-0.0049233767145 -0.0056370385372 -0.0057257555733 -0.0021875277192 -0.0017562214789 -3.6218839531e-05 -4.720583586e-05 6.1469698126e-05 0.0001526308402 
-8.5785113629e-05 3.3487170874e-05 -0.0018885635357 -0.0083959391735 -0.0080243099638 -0.0085568102578 -0.0067181693034 -0.0060409479378 -6.942156819e-05 
5.6877503425e-05 -0.0047405958376 -0.0066167111279 -0.0013393467436 -4.9277951433e-05 -0.0038247535485 -0.0043150724181 -0.00044725071167 -0.001475422619 
-1.3851580023e-05 -5.8150901724e-06 2.8026496387e-05 2.2150257913e-05 0.00016676138391 0.00027956282496 -0.0065727066712 -0.006697316721 -0.0083211135318 
-0.0082982942163 -0.0082426252855 -0.0080812435182 -2.7640414352e-07 -0.00012638208908 6.35803746e-05 7.3007423302e-05 -2.4686326746e-06 3.6482162615e-06 
-0.00017627181085 0.00016369464742 -0.0037066603262 -0.0031536771886 -0.0027638949125 -0.0061229775358 -0.0061173939228 -0.0058752076232 -0.0053088993192 
-0.00027808638135 5.6766892986e-05 -0.00013089323049 -0.0025414762057 -3.1164339119e-05 -0.0023464015916 0.00010061600102 -6.1216757986e-05 -3.137781751e-05 
4.7304468582e-05 -0.0073093504915 -0.0064938843075 -0.0062174078566 -0.0075633537436 -8.6256117699e-05 1.0673898887e-06 -0.00015609406388 3.2759722182e-05 
2.2855003025e-05 -0.0052146587435 -0.0047517886791 -0.0041435817935 -0.00059317959367 5.8219364513e-05 -4.2001745496e-05 -0.0011398040204 -0.00012237606536 
-0.00010379786565 6.9459085e-05 -0.0072134206432 -0.0073127161881 -0.0014860415591 -0.0025682553055 -0.004296229353 -0.0037163262433 -0.0049803240758 
-7.7716843387e-05 -5.3968626331e-05 -3.2452536463e-05 -0.0053314634908 -0.0022926361164 -0.003557802154 -0.0045207251848 -0.0026557412646 -0.0030007650005 
-0.00228987313 -0.0035608674439 -0.00012502572279 -7.8217481523e-06 -3.5300859195e-06 -0.00010811733107 -0.0011448565224 7.7394267193e-05 -0.0021484889327 
-0.0016082238541 -0.093990154393 -0.00013457150784 -0.0012012051261 -0.0042720099427 -0.0056139462649 -0.0062541154457 -0.0064277588193 6.442827988e-05 
-0.00011923253925 -3.7975369209e-05 7.7579071808e-05 -1.0729007659e-05 -0.0039666686906 -0.0048288410397 1.7367821844e-05 1.6305524892e-05 -0.00010377028332 
-0.0030372508218 -2.1309571578e-06 -0.0062466197339 -0.0058557401352 -0.0061136577841 -0.0070082517526 -3.2852263916e-05 2.630035306e-05 -0.0066263960101 
-0.0071722827114 -0.0023222151951 -0.005758316655 -0.0075134480541 2.5356351593e-05 -6.301257506e-06 -0.0074099359425 7.2783876627e-05 -0.0051631560075 
-0.00074318430931 -1.9844356066e-05 0.04793382605 -0.040085294895 9.9288116841e-06 2.2414325316e-05 1.9921936362e-05 1.4341996349e-05 5.7161069233e-06 
-3.2485028454e-06 -6.5281353064e-06 -3.4049252298e-05 -7.9803703277e-05 -0.00012575998975 7.1240621685e-05 1.1310955326e-05 -0.00043559655707 -0.00064012248187 
-0.0018875613888 -0.00082256920982 -0.00048039636034 -0.00066858011167 -0.0012283883466 -0.00051466766147 -0.0013352010223 -0.002916128552 -0.0021928712057 
-0.001644423033 -0.0023425099064 -0.00017737426312 0.0001614366555 -0.00012223770079 0.00010383642777 -3.8141538663e-05 -0.00027243218055 -4.7560192862e-05 
-0.00018000815311 -0.00010073966808 6.1658184168e-05 -1.4401380674e-05 0.00031877384178 -6.9225733263e-05 -0.00058527064626 -3.3171835801e-05 -4.0447689632e-05 
8.1237956871e-05 -2.3098343981e-05 -2.798390162e-06 -8.7184754167e-05 -0.00020192245064 -0.00028026840422 0.044150148628 -7.4654613667e-06 -6.3251105722e-07 
-0.059611546231 -0.002230223093 -0.0038872641143 -0.004486515053 -0.0017772666013 -0.001231483814 -0.0010184857498 -0.00062622101935 -0.00067002636323 
-0.00037215092822 -0.00028291412301 -0.00021194802223 -0.00018923174806 -0.00013120543604 -0.00011662018081 -7.5702527953e-05 -8.7180907773e-05 -1.0024720312e-05 
-8.7761555977e-06 -2.2106861223e-05 -2.396222452e-05 -1.6643329765e-05 -1.0996358907e-05 -9.8079141074e-06 6.7877837314e-06 1.3930089622e-05 6.9091324474e-07 
2.3732022924e-05 3.130113213e-06 3.0358679033e-06 1.2202548243e-05 -9.3446083947e-07 2.6559029843e-05 3.6635333381e-05 6.0645565301e-06 1.4894903239e-05 
1.2866653446e-05 9.3614726623e-06 2.2263158932e-05 6.2408026368e-06 4.263838575e-05 2.4916060092e-05 -3.2366261791e-06 2.8910124039e-05 5.8756715907e-06 
3.0427512579e-06 1.0356986591e-05 -4.54580996e-06 -6.7610372548e-06 -1.4294579197e-05 -1.4922772046e-05 -2.0373586078e-05 -2.5894140547e-05 -1.5608618589e-05 
-7.5059543797e-06 -3.3918699935e-05 -2.4141148815e-05 -1.3550538938e-05 -1.4738866282e-05 -2.917484854e-06 -4.2551810092e-07 1.0531027357e-06 3.6857897617e-06 
1.8929644295e-06 1.1832277261e-05 -1.2132405328e-06 2.006284614e-06 6.4524827847e-06 1.1625573792e-05 -1.6113261151e-05 -1.9448765356e-05 -1.8646843736e-05 
-0.00023505931583 -3.173566392e-05 -3.8856281468e-06 1.8139881717e-06 1.2606428214e-06 -8.1642108013e-07 -5.5674299624e-06 -1.5595463761e-06 -9.2586891759e-06 
6.4365694473e-06 2.0972558491e-06 8.6078220185e-06 -3.6178830519e-06 -0.00013608065232 -0.00028730770387 -0.0005400070456 -0.0007696750357 -0.0011140768496 
-0.0018107412849 -0.0023817636123 -0.0028640129795 -0.0035648340917 -0.00415257471 -0.0049215573136 -0.0056051719561 -0.0063770029071 -0.0079563978372 
-0.0089029460991 -0.009625058307 -0.010514708693 -0.011214708741 -0.012023507558 -0.012483328342 -0.013025305374 -0.013388011758 -0.013245102253 
-0.013097905354 -0.012660203862 -0.012124403751 -0.01129960406 -0.010362603996 -0.0093363695641 -0.007344591655 -0.0060416220831 -0.0050195899262 
-0.0037916797563 -0.0028621402983 -0.0018409401418 -0.001202307702 -0.00049695163189 -9.2084534371e-05 4.2283777382e-05 4.0654777792e-06 -0.0014458812893 
-0.0071227163242 -0.013207302621 -0.0083705025981 -0.028398519596 -0.015415776339 -0.030312016815 -0.007045758655 -0.011430628206 -0.0067575594053 
-0.0086166520145 -0.00054574078613 -0.01495648836 -0.0026614378995 -0.015272348334 -0.0096388665266 -0.0088762188916 -0.0036538117149 -0.0090392987091 
-0.0062070501134 -0.01559857738 -0.021012314157 -0.016292963563 -0.034226519931 -0.0068470379048 -0.034979007016 -0.013622926421 -0.030241034035 
-0.014783773797 -0.0089695567304 -0.0054994973363 -0.011029848212 -0.0043680010267 -0.021169132066 0.0032130723673 -0.017473420944 0.0035689246094 
-0.016371882968 -0.0051678661706 -0.0075315908872 -0.0027680603828 -0.017154447543 0.00059990138716 -0.012701595062 -0.0071207740952 0.002029809219 
-0.042049679609 -0.023485081624 -0.045891663085 -0.061544803448 0.023570943351 0.0086951944127 -0.030298811089 -0.022005959345 -0.011505456207 
-0.0075180593737 -0.0093048254482 -0.0017723473856 -0.0098718798615 -0.0010266293364 -0.0090549081801 -0.0046493936745 -0.0077742203968 -0.0015487642164 
0.0057938905633 -0.0048810725404 -0.0056570919936 -0.0033760873147 -0.0067256981122 -0.011747108153 -0.0095444995858 -0.015005911828 -0.02366612092 
-0.024003018079 -0.020426925684 -0.015092664741 -0.01726742835 7.5876016747e-06 -1.2248306103e-05 5.4625493092e-06 5.9686142917e-07 -0.023308106709 
-0.019447085651 -0.016815166206 -0.012491009329 -0.014437093734 -0.065681695537 -0.017677912244 -0.014534735782 -0.014489486338 -7.2643548965e-05 
6.9747370403e-05 3.5128035355e-05 0.0038872134527 -0.019093910279 -0.040133203668 -0.045798724878 -0.045749118968 -0.030141889384 -0.027180522508 
-0.029200863221 -0.081765999381 -0.00064610198527 -0.0025366304141 -0.00047662753297 -0.001722931182 -0.02185948899 -0.024705692567 -0.0058372770349 
-0.0007403479579 0.03071065075 -0.027634896571 0.003232556447 -0.050834234903 -0.018584385813 -1.9237855083e-05 -1.8448168469e-05 2.6421140409e-05 
4.2231661035e-05 -0.0014925075422 -0.00095766294305 -0.0021587833062 -0.024161395951 -0.022313286648 -0.019552331893 -0.019119627487 -0.01768693614 
-0.011302810426 -0.01282917088 -0.010963432915 -0.0037052241197 -0.0030715433419 -0.003100853494 -0.0021069122974 -0.0027592393465 -0.0026564542579 
-0.0034283875692 9.6587925117e-06 3.0469554342e-05 -1.3017382905e-05 -5.8859023369e-05 2.3482334583e-05 -2.473063578e-05 -0.0034424107468 -0.0032947697031 
-0.0028392424026 -0.0026170669101 -3.5447709351e-05 1.7889233856e-05 1.4517205898e-05 -0.001148652074 -0.0011588825048 -0.001544260046 -0.0015347720293 
-7.0599517088e-05 0.00010517202311 1.4887996475e-05 -4.3220587957e-05 8.2632897649e-05 -0.0019602053953 -0.0019302999291 -0.0015222294321 -0.00071538419391 
-0.0015466342648 -0.0011381566523 -0.0093458533033 -0.010988866522 -0.010157230093 0.0039804977675 -0.0056335983387 -0.0036959390987 -0.0022080390839 
-0.004315944209 -0.0055350375025 -0.0048756857337 -0.0083093445578 -0.0094620366579 -0.0089732498505 -0.010170598929 -0.0066745523542 -0.012170573086 
-0.021398011988 -0.017985634635 -0.035284864104 0.0090582876422 -0.011855706708 -0.01033700058 -0.010320456361 2.3952262601e-05 -2.669948789e-06 
8.3083163794e-07 -0.0036058555348 -0.0040088225514 -0.0032864663126 -0.0036992432144 -4.8286751353e-05 -3.1952154533e-05 -4.1036233243e-05 -2.4676054387e-05 
-0.0045979600523 -0.0065862536676 -0.006621002187 -0.0074326606426 -0.0073879927625 0.00011737641421 0.00056549445445 -0.00026386910547 -0.018049249002 
4.4198883046e-05 2.8258533294e-05 -3.6206926813e-05 -0.0055397297491 -0.0072668967072 -0.006543736167 -0.012606874778 -0.0018669685796 -0.0016829223311 
-0.0013600914584 2.7727242973e-06 -5.6637426791e-05 -0.00012689289757 -0.0012144188299 -0.00047829846213 -0.00030730372194 -4.4584103864e-07 -0.00029432299267 
-0.00041706268704 -0.00032799461981 -0.009841349229 -0.010056490464 -0.008910771246 -0.009137941637 -0.0080702155663 -0.0092866140826 8.6780988362e-05 
0.00032984916555 -0.0002377678688 -1.3736361387e-06 -1.3728794611e-06 5.1135413559e-06 -2.3865346762e-06 -0.0044580921862 -0.0044602246718 -0.0038964622246 
-0.0039158499253 -0.0051844959262 -0.004610659336 -0.0057008854567 -0.004973089854 -5.3946927704e-05 -0.0038466627563 -0.0034431063302 -0.0044135405539 
-1.4624448587e-05 -3.852622353e-06 -5.2635581652e-05 -0.0041604195392 -0.0063012238323 -0.005701600187 0.001077015836 0.00018442439189 -0.0011242127399 
-0.0020341202031 -0.0057081643897 -0.0055654959113 -0.0068955131231 0.027271339673 0.0205379866 -0.012808045258 -0.0035164436107 -1.1330103422e-05 
2.3567539968e-06 9.630737451e-08 -0.00028992172644 -0.00047310692503 -0.00063049099149 -0.00081638156178 -4.4459708725e-05 0.00020118041384 -0.00015465190943 
-0.00011188223921 1.1609656145e-05 -1.5876319087e-05 -2.9438202718e-05 5.8531380276e-06 -0.027079048242 -2.3731616027e-05 4.2474283342e-06 -2.6227002498e-05 
-2.2938924291e-05 -0.0028238170701 -0.0037234995423 -0.0025216107131 -0.003363187809 -0.0015025053741 -0.00022326251543 0.019316768868 0.021616734906 
-6.6189645206e-05 -0.00046207690895 -0.00048661985473 -0.00071196793987 -0.00073251517605 -7.318334166e-05 -0.00011835683319 -0.012223054973 0.00012025210048 
-0.0011003382979 1.1871369221e-05 -0.0053263122879 -0.0056685677779 -0.0048846977951 4.784676228e-05 0.00010312079571 0.00020862068886 -0.0029508599197 
-0.0023837873897 -0.0020292574301 -0.058996510995 -0.089556307622 -0.02901266476 5.1704155556e-06 4.5370282533e-06 -3.1139947431e-06 -0.0027352203846 
-0.0032423425339 -0.0027680974175 0.010577782018 0.0053320619325 -0.011226216878 0.0032011771076 -0.0099017704635 -9.3252668144e-05 -0.00023311431484 
-0.00021536784182 -0.0049818710536 -0.0042015990207 -0.0047789982149 -2.4733955501e-05 -0.0042442044236 -0.0054689600074 -0.0052462660435 -0.0044584120804 
-0.0031521501231 -0.0037972893273 -0.0031343101023 -0.0040272144046 -0.0014636560063 -0.0099782876156 -4.0905952993e-06 1.3564238175e-05 -1.9836450871e-05 
-0.00043931983099 -0.00034668218143 -0.00070045831477 -0.00052229316188 -0.00015927274901 -8.3425196289e-05 -0.00019843263221 7.4712481567e-05 -6.5468921141e-05 
5.5834016094e-07 -0.0020096898537 -0.0047617544098 -0.0021028823886 0.00071310540156 0.0006821813815 -3.6808945003e-05 -7.6470487182e-06 5.1872530526e-05 
-3.2612981973e-05 -3.7515750775e-05 4.1669196801e-06 6.1233014866e-05 -5.387393555e-05 -0.00010207293496 0.00015897544459 0.01970855937 -0.025043402589 
-0.00046452981421 -0.00074487901225 -9.6056264349e-05 -0.00027299134025 0.0002751629986 0.00033881772643 -0.002171320989 -0.0021320229343 -0.0017589931715 
-0.0007293283864 -0.0017266441387 -0.0017357858439 -0.0021214347923 -8.2674383556e-05 0.00026767306839 -8.0483107658e-05 -0.0042251464683 -0.0036506837383 
-0.0085734625764 -0.010629824036 -0.0081600222407 0.02343523812 -4.4322268228e-05 3.6154287508e-06 1.7456442875e-05 -2.1003611656e-07 5.1072354825e-06 
-2.7666329819e-06 -0.00086317490897 -0.0015727624949 -0.0087518231568 -0.008668969898 -0.0091017504606 0.014155579891 0.0002538971246 0.01134404193 
-0.034153546517 1.2734363763e-05 -6.0480962996e-05 2.4680834829e-05 -0.00017098624525 -0.00018941559648 -0.00027796812415 -0.0019261816211 -0.0014636888012 
-0.0015174877989 0.0013389867383 -0.002276393885 0.00035842954949 -0.0018434985041 -0.0023372585888 -0.00024119188989 9.3640418532e-05 0.00018221375455 
-0.0075883313215 -0.012054644427 -0.010518448639 -0.0027733774109 -0.0022145570312 -0.0012476989896 0.029370304632 -0.0077645790866 0.011780394531 
-0.020427246045 -0.0057398334902 -0.0044946507346 3.4007313048e-05 -1.357651137e-05 3.2109060261e-05 0.00019798232215 -5.7448415393e-05 -0.00011100521336 
-0.0017598813673 0.00039645824858 0.00029488960286 0.00097955999375 -1.6075618067e-05 -8.1699347147e-06 -3.352330951e-05 -7.095131741e-06 -0.0017502691381 
-0.0034150215674 -0.0026808131657 -0.0021107679886 -0.0016177580583 -0.0003930800137 -0.00025460086346 -0.00026404857558 -8.2796188348e-05 -0.00077126651284 
-0.00010580962398 -0.00035400294852 -0.00033799168704 -0.00052750588604 -0.0086944424236 -0.0088253315987 -0.0085537502274 -7.7877448794e-05 -4.7658262316e-05 
-7.9565933418e-05 -4.512712616e-05 -3.8420455405e-05 -0.00010074514304 -0.0030463229295 -0.003455718642 -0.0027649266552 0.00015335551505 0.00014223960983 
0.00022874347222 -0.00018644119034 -0.00322520785 -0.0036813622403 -0.0079030145674 0.027991288907 -1.4795557132e-05 1.8462576153e-05 6.8705415469e-05 
0.00011541963218 1.3994394083e-05 1.9104207468e-05 -0.0004866046035 -4.6851505998e-07 -3.2640395693e-06 1.2096016659e-06 4.3358850778e-05 1.0848442284e-05 
-0.00015158362136 -1.2073784659e-05 1.6555894122e-06 -0.012565258979 -0.0020903697964 0.011319693749 -0.0072165589614 0.0038585147382 -0.010495957113 
-0.0021689604496 -0.001663516274 -0.0059752347694 -0.0052285437738 -0.0057309753872 -0.0050658318115 -0.016843991286 -0.0040498165841 -0.011943067095 
-0.016628016195 0.00049775707183 -0.022833717834 -0.017046927529 -0.019930185539 -0.013327887466 3.3346771522e-06 -1.5267999522e-06 -0.00032106546158 
-0.00021906835803 1.3559664393e-06 -8.7817070928e-07 -6.2462523105e-06 0.00082325657931 0.0020410458282 -0.003641600651 3.448487759e-06 4.7343588152e-06 
1.4375763139e-06 -1.1847430018e-06 -0.0076408595655 -0.0080958605998 -0.0091509053814 8.8901252299e-06 -1.1629842241e-05 -4.014362569e-06 -0.0042787293453 
-3.1148528577e-06 -4.1494616557e-06 -0.0002624194117 -4.0579033585e-07 -0.013008704273 -0.013659973823 -0.0039110399141 -0.0099161447532 -0.0040273279231 
-0.0027501839453 -0.0031487593791 -0.0024103913869 -0.002803889869 -0.017163659239 -0.019225626683 -0.023605858974 -0.002203137425 -0.0025830823434 
-0.0026852013894 -0.0055505692398 -0.0059879253397 -0.0050565760236 3.2397474519e-05 -2.4375434622e-05 -1.0668374768e-05 1.810913705e-05 -0.037140611232 
-0.027190441502 -0.038186081693 -0.033088407092 -0.031383941668 -0.026606006849 4.2589354666e-05 -7.4210899511e-05 3.1002450358e-05 -0.011667572757 
-0.0080275163356 0.0079612915996 2.4825637585e-06 1.0630298946e-06 -8.2463722737e-06 8.257188802e-07 -1.3080772232e-06 -1.1731551204e-05 -0.0050353824705 
-0.0075840298132 -0.0037025137217 -0.0052395124349 0.0038877771227 -0.00029022443924 -8.7752928564e-05 -0.0047736676367 0.000334988667 -0.0095708816682 
-0.0074313904136 0.0022733952777 0.00612716685 -2.7793310206e-05 0.0071762410191 -0.0017547368679 -7.2508292211e-05 -6.3278050728e-05 0.00012202694832 
3.67834462e-06 -2.4182014853e-05 1.7556507836e-06 -0.0029927216003 -0.0039183720486 -0.0084184364157 -0.0009441081066 -0.0029941835361 -0.003603984993 
-0.0073423200522 -0.0041968701911 -0.0065038991822 -0.0072357296696 -0.0046022028793 -0.0041575850375 -0.0037953800385 4.5423846945e-05 0.0010161761154 
-2.7463869692e-06 -4.4294896496e-06 -1.1772954934e-07 -0.0001058023222 -0.00020839758743 -9.1134357783e-06 -0.004953450351 -0.0058635730308 -0.0051248408066 
-0.0011635720165 -0.0013043320016 -0.00084073459702 -0.011705486177 -0.014458794342 -0.0040028386182 -0.020220057055 2.5280363298e-07 5.9634881479e-05 
4.7600606084e-05 -4.0660585524e-05 -1.7190067063e-07 1.3531197487e-05 -0.001296712266 -0.0013621676466 -0.0010184838234 9.8208406643e-05 -7.5498354561e-05 
-1.5592923733e-05 5.786922893e-06 2.9699467733e-06 -0.00014186154163 7.6915330296e-05 -0.0022495370583 -0.0020479833851 -0.00010161161537 -0.00023125679195 
-0.00023594353452 -0.00041293571929 -0.00026080274312 -0.00082120350275 -0.00052041630924 -0.00082816513474 -0.00053627183148 -1.8468661231e-06 -1.5141167302e-06 
4.3821571717e-06 -0.0072022698352 -0.0066766849457 3.2674036499e-05 -0.00052958946369 -2.878015715e-05 -0.0075739901342 -0.007858859539 -0.0087322330923 
-0.0075488661419 -0.0083605197521 -0.0074677814754 -0.0003417889442 -0.00027094544234 -0.00047981173097 -0.0003653552772 -0.011069440588 -0.0099164891343 
0.0053668047982 0.0027586608471 3.5498878826e-05 -0.00093591383168 -0.0018789765937 -0.00097214135658 -0.00023704701058 -0.00029615539368 -0.00014717232882 
-0.0001789669224 -0.0079892922275 -0.006982054686 -0.0087536025607 2.0338837127e-06 -1.7341035303e-06 1.7691963407e-05 0.033677938399 -5.2724943395e-05 
2.1003134069e-07 4.9088967226e-06 -4.3021675225e-06 2.2504282648e-06 -5.2405015687e-05 -0.011058531541 -0.0092950578362 -0.0043407763707 -0.0059370563598 
0.0012309839249 0.00017878802639 -0.00025990929915 -9.7267167019e-05 1.4650405841e-05 -0.0009085042319 -0.00099899918706 -0.0020567554451 0.00010683701454 
4.7323188601e-05 2.9839114378e-05 -0.0035630361578 -0.0023016033003 -0.016627787606 -1.9635980231e-06 -1.0914366506e-06 -3.2719833493e-06 -0.0041794257418 
-0.0033529202452 -0.003767882936 -0.0029876852159 -0.00061574949052 -0.00017266655908 -0.00064774012417 -0.00020875746964 -0.0017528878741 -7.7218605484e-05 
1.4793126657e-05 3.6535827988e-06 -2.0085340616e-05 -0.0033366907598 -0.0051473157336 -0.0055490930967 -0.0051286334741 -0.0052538104143 -0.00073017636322 
-0.0012670980659 -0.0027573776441 -0.0031919121649 -1.4967137283e-05 0.00014728701478 4.0486160159e-05 -0.0012781303298 -0.00047098911408 -0.00080253933881 
-0.0011033681457 -0.0011120029312 -0.00078352230748 -0.00081384399041 -4.3451872034e-05 -0.012124330752 -0.011156948189 0.00098599998126 0.0015765264673 
-0.0030179713536 -0.00083116772439 -0.00081281548677 6.7765185377e-06 -2.1207485879e-05 -8.8909874878e-05 3.304396548e-05 -5.8552271987e-05 4.5538351563e-05 
-2.4246893726e-05 2.7628191908e-05 4.3775891894e-05 -0.0015772395669 -0.00080130541219 -0.0010146807453 -0.0030167555274 -0.00025478992874 -0.0040198946543 
-0.0040692266353 -0.015230911975 -0.012730860524 -0.013571134011 -0.013761020437 5.7619728346e-06 -2.346616444e-05 -2.9992361838e-06 8.2074246153e-05 
-0.0056383274592 -0.0042516879747 -0.0050378210586 0.0077079084874 0.0015849329476 -0.011212547005 5.0440680363e-06 -1.2501331562e-05 5.6783895997e-06 
-0.00038784660315 -0.00060157800722 -8.0849051626e-05 -0.00012205140253 0.00036023802854 0.00027633227558 -0.03743011694 -0.026090561898 -0.022701144795 
-0.018247295563 -0.016486038982 -0.002251638295 -0.0033973723373 -0.0026149471447 -0.003730706982 -0.0048008452004 -0.0028185091139 -0.0064945256172 
-0.0061685191187 -0.0057479170252 -0.0011313201042 -0.00098501997587 -0.001276642512 -0.0013707474478 -0.0011467721299 -0.0015073453191 -0.0033124824787 
-0.0039492193681 -0.013001969212 -0.0076343350394 -0.002360250724 -0.002048478571 -0.0036382270897 0.00023177936449 9.8957680845e-05 -5.7514923016e-05 
-0.038984758474 -0.035841966755 -0.042754397144 -0.0032407531009 -0.004358740111 -0.0018500949819 -0.0039023214681 -0.0066569693019 -0.0067526625992 
-0.010291920194 -0.0074735830713 0.00021179699196 2.1304476613e-07 6.3248769576e-06 -1.1369051518e-05 -0.0007151615033 -0.00062151915177 -0.00021307144376 
-0.00019952983382 -0.00017140854146 -0.017243107986 -0.021315510484 -0.028967634615 -0.0063555512108 -0.0051044387702 -0.0070006694489 -0.0083944484819 
-0.0082533384948 -0.0080311354138 -0.0010422873894 -0.0064048303214 -0.0073423376619 -0.0061717391001 -0.0071717788823 0.0076593021092 -0.00073188142092 
-0.0073342048636 -0.029926961729 0.031218767374 -0.0012571538516 -1.1665757378e-05 5.7088125895e-06 1.1877317393e-05 -0.0076950571454 -0.014565857233 
-0.0070998292843 -0.01641816378 -0.014643737137 -0.014012872475 -0.012557758315 -0.0060825551394 -0.0057620067709 -0.0054209739239 -0.0040002952512 
-0.0038771628098 -0.0045675251156 -0.0071383358625 -0.0062314804427 -0.0067057696529 -0.015774428993 -0.018392367603 -0.015802500604 -0.00055204391454 
-0.00049043012131 -0.00039063184715 -0.00033921327339 -0.004617494488 -0.0041909736242 -0.0033981575721 -0.0053078693271 0.00070367786839 -0.00038697018033 
0.0003160931734 -6.7773086415e-05 -2.9514075215e-05 -0.00043631021106 -0.00042270557121 0.00040571454623 -0.0026226162497 0.009169602725 -5.1064819933e-05 
1.4951588786e-05 6.7413260737e-05 3.1874601846e-05 0.00036471206063 -0.0001580956939 -0.019422321181 -3.3174092258e-05 -9.1474853557e-05 -5.5211013058e-05 
-6.2259954311e-05 -5.1911359008e-05 -0.00027923055834 -0.00030600379756 -0.00046166451218 3.060852642e-05 9.7642309475e-06 -2.856055804e-05 -7.4921376262e-05 
-9.8815294092e-05 -0.000120677607 -0.0069652345281 -0.00033753656768 -0.00023366285013 -0.00036063189016 2.6830733456e-05 5.2158909359e-05 -0.0029340272832 
-0.002847506647 -0.0023977319239 -0.015626282035 -0.016466514451 -0.018307354789 -0.00034931750826 0.0012135278664 0.00079953240559 -4.7184809872e-05 
-1.737734428e-05 1.7537245365e-05 1.8762897847e-05 -0.00012853928441 -0.00026796797606 -0.0087571596251 -0.0084086328008 -0.0080919295651 -0.0079064008778 
-8.5436142019e-05 1.6344066632e-05 -9.6965322102e-05 6.5700020509e-05 -0.0010900455828 -0.00099461353605 6.5515221388e-06 6.4392892197e-05 -0.00046043027475 
0.022672185708 7.8082057842e-05 3.9521818741e-06 0.00054369936061 4.6524537984e-05 -2.6204069992e-05 -1.517948653e-05 -2.6520195004e-05 -8.5495149867e-05 
-7.5543327055e-06 1.7004501816e-07 -0.0055463825427 -0.0067834524999 -0.0062495501899 -0.0075816010142 -6.154720698e-05 2.9996924632e-05 -8.2215060901e-05 
-1.4111786049e-05 -0.00012770183169 5.3773845341e-05 -8.3939336842e-06 1.2022457945e-06 -0.00068936101285 -2.0317313818e-05 0.00016702232661 -0.00018633929635 
-0.00086516728778 -0.00091452435173 -3.7740211304e-05 5.3051403135e-05 0.00011525159029 -3.483588366e-05 -0.016976447328 -3.3810691392e-05 9.8761872009e-05 
-4.5825746658e-06 -0.003730768226 -0.0043541922427 -0.0038874574654 -0.0044914684448 0.000459768067 -0.00026255818886 -0.00026465190797 0.00097299872804 
0.00029027174298 -0.0024295051929 -0.0029605041057 -6.0627837705e-05 -0.0016474855566 0.00010278512055 3.9638895706e-06 -0.0042444624526 -0.01331055672 
-0.0046356558551 -0.0028325938019 2.1464116685e-05 -0.00030820035361 1.431300078e-05 -0.0029673140832 5.3564203161e-05 -5.0266140962e-05 -3.6092195114e-05 
6.0218068817e-05 -2.4946046821e-05 -0.0032396487125 -0.0041596820225 -0.003016633779 -0.0038818285225 0.018241653596 -0.0049436855251 -0.006674182902 
-0.0043949454364 0.013641142823 0.00081188066119 -0.011305229079 -0.010368561241 -0.011627534673 -0.0089077433788 -0.0067926396211 -0.0089984730835 
0.013643963082 -0.0028069657693 0.0089100641072 -0.011710027208 -0.019658041822 0.010703989473 -0.0089726169432 -0.010560771988 -0.0093973494747 
-0.011010769462 -8.3453400083e-05 -0.0014381736405 -0.0012339901006 -0.00095257654217 -0.00054042297757 -0.001512511648 -0.0022606055467 -0.00014961998183 
-0.0018636558977 -0.0037400134871 -0.0006849607421 -0.0010074708248 -0.00080326162314 -0.0034065320629 -0.0037441826551 -0.0029495399361 -0.0015285554111 
-0.0013738114981 -0.001195417049 0.00018017991154 -0.00053925160163 -0.0017564143497 -0.0013078734914 -0.0011163549303 0.043828909338 0.02259489209 
-0.015498632589 -0.00094687317498 -0.0011412261765 -0.0068494313112 -0.0058271281483 5.5214238937e-06 -1.2772552458e-05 -0.0065693583709 -0.0064079885705 
-0.0072628317998 -0.0069852764115 -0.012860090616 -0.0011653028639 -0.007822078474 -0.0079875380779 -0.0073757110895 -0.0060536753087 -0.0053725816514 
-0.0042696739753 -0.0048920859744 -0.0027863887455 2.4731661579e-05 1.8502320722e-05 -3.2354570289e-05 0.00015762783644 -0.008407033939 -0.0077956143743 
-0.0089311711012 -0.0026393296744 -0.002301370297 4.2130927971e-05 1.3382613589e-05 -1.8256380009e-05 -0.00030882974153 -0.0018111212635 -5.0335632138e-07 
-0.00016773154213 0.00016638952165 -0.0023077866069 -0.0020486164286 -2.5898135817e-05 -2.9156949626e-05 -8.0170303705e-05 -0.04769060706 -0.029854264779 
-0.015400535886 -0.01886680893 -0.023650985458 -0.018749406539 -0.004128606605 -0.0030158684466 -0.0037174940144 -0.00088355525884 -0.00071708314545 
-0.00059593311402 0.00022498386314 -0.0053036783702 -0.0044548523122 -0.0027792717917 -0.00057049487163 -0.00082346795505 -0.0010858078207 -0.0014143730399 
-7.7573317239e-06 -0.0018603092621 -0.00012835591862 -0.00012330510121 -0.0059281464683 -0.0060938307732 -0.006866151504 -0.0053561993713 -0.0053141337377 
0.00014054586608 5.7085672203e-05 7.9731775001e-06 1.4989956577e-06 1.9373412747e-05 -5.6054521604e-06 -3.6343920355e-05 -2.2080482122e-05 1.1440803139e-06 
1.0724129012e-05 -0.0001159683676 -0.00027857477555 -9.5144149576e-05 -3.906371218e-05 4.9511725265e-05 1.4259652503e-05 3.8016939034e-05 6.7842837486e-05 
-0.00023734159517 -0.00054781348235 0.00018638064565 9.0812478668e-06 1.0675314221e-06 -2.5432316918e-06 3.9371737902e-06 4.5010291825e-06 -4.9869365762e-05 
-1.5578028234e-06 1.2742738156e-05 -0.00043108164585 -1.5145520368e-06 -2.8891127114e-05 6.9666432302e-05 -9.0937033538e-07 -1.8790141977e-06 4.1066317116e-06 
-0.0043062644092 -0.021886548608 -0.023816799287 -0.021284975393 2.0185631594e-06 5.0427683222e-06 -1.8867353546e-05 -3.9819876878e-05 6.302964786e-07 
6.6764705771e-05 -1.0776504669e-05 -3.250324117e-05 -1.1722960668e-05 8.4748021129e-06 2.6335150207e-06 -0.0053503752399 -0.0042821428665 -0.0026898258189 
-0.002255233363 -0.0032181726741 -0.0044763803088 -0.0035728229441 -4.9863344485e-05 4.4521101392e-06 -0.0099104797672 -0.0083028989982 -0.0058808658268 
-0.0068722913955 -5.4537836278e-05 6.0973143705e-05 -1.8146630867e-05 -0.0083219025704 -0.0096881313747 -0.0075307603883 -0.0082674417363 -6.8664679884e-05 
-6.6617598232e-05 -0.00012620714801 -0.00010423401157 -0.0090830490277 -0.0082401440979 -0.0089037987367 -7.3763966174e-06 -2.8911459938e-05 -0.0090527540205 
-0.0078005286096 -0.0077116951383 -0.005369550665 -0.0061664705861 -0.00055046295939 -4.7249993549e-05 7.6952241159e-05 -0.0018974845363 -0.0014863821081 
-0.00052980029427 -0.0016424646374 -0.00098577920495 -0.0019926851515 -7.3531931571e-05 2.4818434096e-05 -8.9031268326e-05 0.00017051049159 -0.0023943144197 
-0.0024369202772 -9.0746314231e-07 9.3873423848e-06 2.813857677e-05 -8.679641386e-06 7.8200015326e-05 -6.8429190342e-05 -4.6070085024e-05 4.2626673798e-05 
-1.6641473002e-05 -5.6629829792e-06 0.00025102059326 0.0001467026326 0.028432098613 -0.010932672965 -0.0023296416526 -8.5476835344e-05 -0.023613681387 
-0.018927928183 -3.1882398483e-07 -1.1815920727e-05 -1.7407535367e-06 1.1469529032e-05 -0.00020975542724 -0.00065770160272 -0.0005188045281 -0.00060065529159 
-0.00046801313847 -0.0032955468263 -2.3819346694e-06 -1.3112369619e-06 -8.7733052869e-06 3.089283994e-06 8.4954284591e-07 4.1709532585e-06 1.5759600493e-06 
-0.00064641566764 -0.00017339671789 -0.00034909051133 -0.029310880805 -0.027201096896 -0.037398568805 -0.0002999079495 2.4600001122e-06 -0.002096487022 
-1.5576329581e-05 -1.3353768346e-05 -2.339240715e-05 -0.0038467609018 -0.005123312585 -2.456552696e-05 -7.1420323282e-05 -0.0086920679635 -0.0087870494126 
-0.0087745556892 -0.011823998203 -0.010182117328 -0.010876623847 0.0084409220575 -0.0046895046112 -0.0046150453244 -0.0048364336516 -0.027763721379 
-0.026765267438 -0.030048173554 -0.003339815436 -4.6109112174e-05 4.8625759343e-05 -3.8115792707e-05 -2.4849665436e-05 2.9012362404e-05 -7.0357870182e-05 
3.6709693463e-06 3.0808161893e-06 5.4565050964e-05 1.0672579315e-05 1.0040662578e-06 -7.7928140392e-06 -1.8040964971e-05 -0.012373635238 -0.010322322643 
-0.012171806424 -0.010051674039 -0.0085183425391 -0.0084694234745 -0.010420162938 -0.003587124268 -0.0086230736288 -0.00042327348423 -0.00054555787062 
-0.0037822184319 -0.0085113718104 -0.011732674729 -0.012433105537 -0.013608850366 -0.011263731968 -0.011557226237 -7.7875871266e-07 5.1619647422e-07 
7.9394041736e-06 -0.0088875477259 -0.0085277135783 3.9035375947e-06 -2.4781975945e-08 -0.0019888374592 -1.5666608662e-05 -0.00068764200443 -0.0028834996892 
-0.0029577579624 -0.0058885284826 -2.5581446304e-05 4.1474443124e-05 -1.7720883902e-05 -1.668102347e-05 -4.7726565037e-06 2.2144384243e-05 -1.7838522957e-05 
-1.7151786612e-05 -3.0699923695e-05 -0.0086185338687 -0.0051627006775 -0.005295320268 -0.0059483814105 -0.03365774888 -0.027634513 -0.033799480125 
0.00017241742613 -0.0044129522349 -0.0045743064954 -0.003910271587 -2.9579870772e-05 -6.1077924963e-05 4.5500084066e-05 -0.0037098951777 -0.0098053266518 
-0.00010471197262 -5.1370267328e-05 -4.9622979881e-06 3.8937175796e-05 0.00024049078292 9.9966681402e-06 -3.4538219271e-05 2.8349712863e-05 -0.00020687751851 
0.00013924031779 3.8872791339e-05 -1.389204438e-05 -3.5202655107e-05 -7.6235027329e-05 9.8825469696e-05 5.8247397193e-08 -5.0572002434e-05 0.00011482936124 
-0.008177347171 -0.0074278974441 -0.0074661021212 -8.852341142e-06 -4.1691167286e-05 -7.7024059983e-05 -0.0033915239124 -0.0032102602737 -0.0026345500027 
-0.00071059695754 -0.00092873735685 -0.00041111676949 1.9568921056e-05 6.3119149061e-05 -3.0531158605e-05 -3.1775384092e-06 0.00017101989385 0.0026656295304 
-0.0071386467403 -0.006577180823 -0.0078124075294 -0.0021640606841 -0.0024495928615 -0.00051105071125 -3.9642089676e-06 1.0131224237e-05 1.1649393253e-05 
2.0068861432e-05 -2.2782672394e-05 2.1217322012e-05 -6.2800217168e-05 1.898646327e-05 -1.8530951477e-05 -0.0023015904533 -2.1163812975e-06 -4.7607647262e-05 
-0.0028490610824 -0.0024656464539 -0.0022084656099 -0.0046708670822 -0.0066537827856 -0.003476753979 -6.2789798158e-05 -1.1936943675e-06 -0.0092054700229 
-0.0028562905968 -0.0075635611055 -0.0045403340935 2.3414441212e-05 7.5310706242e-05 -0.0084189399846 -0.0067065292075 -0.006711168537 -0.00291695937 
-0.0084568888666 -0.017857354349 -0.015246873667 -0.014436118269 -3.2463134991e-05 -0.0088944267449 -5.1108472837e-05 -3.1032869344e-05 -0.000170722556 
8.591929224e-05 9.8035345729e-05 -0.00012840060541 -0.011799190435 0.00014913360065 -8.1878453255e-05 -0.0043720200202 -0.0036342903728 1.4177074253e-05 
1.215224878e-05 2.3592810227e-05 -8.6490829762e-05 -6.0546882115e-05 -5.0731615861e-05 5.9811226642e-05 -0.012663508241 9.5128748289e-05 -0.00014641884706 
-0.00038111953371 3.8355336549e-05 -4.4340312914e-06 -5.583316069e-05 -3.8516238353e-05 1.376068661e-06 4.8065972157e-05 -3.5480247137e-05 -3.0385294185e-06 
-8.5891678046e-06 -0.010416672995 -0.008010377986 -0.01099238804 3.3741264594e-06 -1.1030347791e-05 -3.4087418077e-05 -0.0045062830207 -5.4915852122e-05 
5.5531028314e-05 -0.003242247995 -5.2841797937e-06 1.0845135863e-05 -8.6010764861e-06 -0.00034521413324 -0.00044760220162 -3.7312267758e-05 1.888774413e-05 
-0.0075951291467 -0.015470485816 -0.013187389239 -5.9485497178e-05 -0.0015350844878 -0.0015581049864 -0.0010629081434 -0.0025222498751 -0.0019918500324 
-0.0019686872593 -0.0031068984698 -0.0061557557098 -0.0068002227472 -0.00097000224949 -0.0020672956903 6.2222781287e-06 1.239250831e-05 -0.01115752521 
-0.010155282776 -0.00054434563041 -0.00068795614409 2.7563142768e-05 5.0811570109e-06 -0.00011824149387 -0.0049216929597 -0.0044265846765 -0.0048865835357 
-0.00013423019949 -0.00011065216896 -0.00030552639426 -0.00014090960406 -0.011893203472 -0.011750319613 -2.9324792966e-05 -1.5532580593e-05 -1.4277180715e-05 
-9.9654259019e-05 -1.1499746842e-05 -0.00011728797604 2.1294953306e-06 -1.9690374711e-06 -3.863380411e-06 7.3405554672e-06 -5.8353358904e-05 1.4760813121e-06 
-0.0083162428489 -0.0097731398285 8.7354255813e-05 -5.1347086442e-05 -0.0024626862117 0.0022990339847 -0.00049666240369 -0.016489418867 -0.012776694531 
-0.010892303442 -0.0001751481027 -0.0053251171008 -0.0043780427838 -1.24480945e-05 1.2807251219e-06 -4.2797827032e-05 0.0003261186399 0.00012028733809 
5.5484059533e-05 -3.846593365e-05 -1.5130845553e-05 -4.456364784e-05 -0.0073803817652 -0.0069601105095 -0.0063130115346 4.6422860482e-06 -0.0054877534643 
-0.0089836251215 -3.3161168701e-05 -2.6145090645e-05 7.3412669532e-05 -4.9877530588e-05 0.00036838053243 -0.01960139681 -0.013939435101 0.037289044676 
5.0546878994e-05 -9.5342605188e-05 0.00029395666766 -6.3548783727e-05 -0.00049032142476 -0.00030559150145 -0.00027387794481 -9.5143659482e-05 -3.9359760277e-05 
-0.00053012153895 3.7461227735e-06 3.5530764167e-06 -4.2142428877e-05 0.00023906068385 -0.0035825433389 -0.0024364771179 -0.0029348905877 8.7812339904e-05 
-0.00022219862666 -3.6811854986e-05 -0.0019685404909 -0.0018569275282 -0.0015975527842 -1.621116268e-05 -4.8566054148e-05 -1.9566652415e-05 -4.4189573411e-05 
-7.1954135084e-05 -0.00010318247541 -0.00013917296779 -6.4993982187e-05 -7.7748868513e-05 -4.7142264409e-05 -0.00011500878341 -0.00022418042569 -7.6126293766e-06 
-3.321000498e-05 -0.00041314029034 -0.0003672264205 -0.00017240263352 -0.00017818636866 -0.0008666180656 -2.1740514119e-05 -1.8537963272e-06 4.4696618363e-06 
0.0074137592191 0.0039620913037 -0.00064358030017 -0.00068036860037 -2.8549538953e-05 0.00023821155643 0.00010483790103 -8.6072301248e-05 -0.0033237128592 
-1.1951359372e-05 -0.0036941790081 -0.0022610149232 -0.0021882152858 -0.001829329747 -0.00075906219407 0.010068986756 0.0086925786067 3.3362206535e-05 
-0.013759066977 -0.0046673308282 0.00059151597182 -0.003841610389 -5.1729973164e-05 -0.00010934694006 -8.706812071e-05 0.00018700212891 -8.8727162696e-05 
0.016150640214 0.0018613418121 -0.0023998350314 -0.00051779511495 -0.00071428053603 -0.0007835421678 -0.00012435282721 -0.00073080493095 -1.7374524945e-05 
-4.8488519355e-05 -1.4983394771e-05 -0.0073392660873 -4.2763777816e-07 0.0013308276642 -0.020421524511 -0.00035145550248 -7.0620304853e-05 -0.0001311957166 
0.00065862441677 0.00037036540991 -0.023719140304 -0.028679973485 -0.00012267681947 3.8206619313e-06 1.2918212661e-05 -5.5910248303e-05 -2.0076303854e-06 
-0.0010338985865 -0.00086258491058 -0.0010354270663 9.2216464089e-06 -0.0016186096401 -0.0012424940685 -0.0012667762758 -0.0041603698755 -0.0031073104636 
-0.0026131658833 -7.115727758e-06 5.2865564153e-05 -3.0619762287e-05 -0.011367563823 -4.7640714077e-06 -7.0004520762e-05 0.0084224266849 1.6068513863e-05 
-0.0081136863241 -0.010364748114 -3.2404974104e-06 -2.7505963803e-06 -0.0079691713473 -2.7256752876e-05 1.6136011433e-05 3.9645222143e-05 -1.6142387427e-05 
-0.001257122137 -0.0015725325561 -0.0012878795439 -0.0015407259594 -0.0022220472953 -0.0044405526453 -0.0038988157762 -0.0014708709551 -0.039336974541 
-0.057245409253 -0.033649948157 -0.0010616904693 -0.00013020700436 -0.00030885795052 -0.00033153657063 0.001529529378 -3.532160389e-05 6.7410670929e-05 
-4.0839371938e-05 -5.3553349598e-05 -0.00021234061808 -0.00015134355734 3.3372118279e-07 -6.3624459017e-07 -0.0049964575123 -0.0047182075544 6.8882156471e-06 
-0.030121708286 -0.023873418658 -0.024371766389 -2.1872170912e-05 -5.5847826129e-05 -4.1357386114e-05 -0.005156144119 0.0001160123191 -0.0058193635311 
-0.0022747893051 0.0014440348274 -0.017888116372 -0.0091291382677 -5.6539478855e-05 6.3738828583e-05 4.2883276316e-05 -6.1495600664e-05 -0.038618379539 
-0.04320035743 -0.039621579975 -0.045456021875 -0.048164227699 -1.7091335065e-05 -0.00049341737061 -0.0045574022319 4.5644999246e-05 1.7239341397e-05 
-0.05501273619 -0.063843091405 -0.00022367628605 -6.8984044338e-06 8.1447164288e-05 -0.0036901708194 -1.6867519876e-05 3.3824837532e-05 -1.8763549245e-08 
-0.038796447728 -0.0046328354976 -0.0082148495272 -0.0081803826309 -0.0093180636651 -0.0073287171525 -0.0048801338493 -0.0036664665371 0.0015137352751 
-0.00010803056548 0.00020520890334 3.0924261882e-06 0.0007896193482 -0.0016596037379 -0.0085528162581 1.8147860197e-05 -1.2885578134e-06 -2.7227024607e-05 
-4.0200223009e-05 -0.0047433622744 -0.0052419235257 -0.0073542552204 -0.0024772068345 -0.0088819772123 0.002862494002 -0.00013013263645 0.017886568311 
0.0087070367187 -0.0060409587739 -0.049053471566 -0.045207265265 -0.028890974434 -0.00029374374672 -0.010789201125 0.0039765959996 -0.00018201023755 
-0.035038429055 -0.015595612174 -0.014396006041 -0.017897664047 7.9630266754e-06 -5.4935973886e-06 5.3293683285e-06 -8.6864954282e-06 -0.00012342752965 
-0.0011127179838 -0.0012906924576 -0.0016094633686 -0.00020884620009 -0.00021912493926 -0.01316473776 -0.014412763694 -0.012608187289 -0.00013802760713 
0.00046690722044 0.0030819284814 -0.00010426607028 -5.6230281651e-05 5.2216897551e-06 -0.00050217177665 2.8688782916e-06 -9.3056936242e-06 -0.0013682190091 
-0.0014632324517 -4.2399454012e-06 -0.0044482809372 -0.0040298210013 -0.0067274142846 -0.00013544056374 0.0003282896009 -3.9690866661e-05 -8.501946566e-05 
2.6071316859e-05 -4.4750210598e-05 -7.8592127997e-05 -0.00016810746411 -0.0057944376508 -0.0055292936149 -0.0051468444124 1.8903606475e-05 -2.1043367122e-05 
8.2560485758e-06 1.3535247175e-05 -0.00071917177476 -0.00068228968865 -0.00054364645236 -0.00077394876541 -0.0010287156662 -0.00034545620835 -0.00052508386365 
-0.0058964966517 -9.9503439365e-05 -0.003594097568 -0.0031949430692 -0.0037737569259 -3.8797246366e-05 -0.0023897446798 -5.5723710523e-05 0.03021006753 
-0.00038521034928 -4.6117870584e-05 -6.918748928e-05 -0.0034317406566 -0.0034708832929 -0.0040476514819 1.9311533006e-05 0.0011611413219 3.6977856502e-06 
-0.0026498274635 -0.01214539154 -0.0091295948485 7.7244428409e-05 0.00050565096235 -1.2156079971e-05 8.6231449823e-06 0.00011456971767 6.580538704e-06 
-6.6914252526e-07 7.6067731594e-05 0.00097927569547 -0.00076706984681 -1.7447201159e-05 -5.0184378429e-06 -0.005772121725 -4.0579884972e-05 3.9526383262e-05 
-0.00012346641697 0.0013245411381 0.00018808645596 -0.00043017334818 3.7756122292e-05 -7.8443820763e-06 -0.0036433274134 -0.0044143906759 -0.00055942128608 
-1.1439067e-06 1.297189685e-05 0.0046278820865 -2.9433130615e-05 2.8743427816e-06 -2.6743684638e-05 -0.00021958919505 -0.0059696244037 5.8836222684e-05 
-0.00011703423386 4.6052893651e-05 -7.9183462786e-05 -0.0084417228872 -0.0081791136375 5.6400390587e-05 -0.00022782522715 -0.00018059555822 -0.0044779357152 
-0.0025787366808 -0.00085004705857 -0.0061129182377 -0.0054953573561 -0.0078024904067 -0.0049801625985 -0.0049815295541 -0.0054006178634 -0.004699985113 
-0.00042130259724 -0.0010535036206 -0.0017821431719 -0.0013015697758 -3.5022495601e-05 -1.3745556341e-06 -0.0070128223261 -0.00070939906026 -0.0042396056401 
-0.0033148792626 -0.0097814967339 -0.015443777162 -0.014075065283 0.0013991459445 0.0014254456284 0.00012249124685 -0.00028896420604 -0.00029050313438 
-0.00016141716152 -5.4426586175e-05 4.2247207954e-05 -5.6460484829e-05 -0.0039416637155 -0.0034426473085 -0.003652003302 -0.0018185965556 -0.0017104471438 
-0.0074931183491 -0.0048132216129 -0.0033978111033 -0.0042152029814 2.6124796199e-05 -0.0073737441185 -0.0081249339739 -0.005517815539 7.4898192336e-05 
2.3441063443e-05 1.1132038308e-06 -2.6400452412e-05 8.4641287925e-05 4.004470306e-06 -1.7843657597e-05 6.0509716609e-06 4.0424273854e-07 2.453438867e-05 
0.00026766037838 -0.00059493853951 0.00040766337488 -0.00020501281564 -1.397823418e-05 5.2869891617e-05 -0.0098004871635 0.003312287394 -0.00013751101742 
-8.2118614669e-05 -0.0016032835522 -0.0076962833381 -0.0094197903397 -0.0074623037646 -0.00018308086768 5.4448139985e-05 2.0645728566e-05 -2.3462309433e-06 
-3.8103022916e-06 0.011117475117 0.007133436387 -0.0014997360797 0.00053438648409 5.958120737e-06 -0.0025755636865 0.00014495285971 9.5997741495e-05 
-0.0047921766615 -7.2357220535e-05 0.00011522952285 -3.9937048206e-05 -7.0972151843e-05 -1.5304458708e-06 -7.8913659394e-06 5.8588163595e-06 0.00011792488267 
9.3945561277e-05 0.00011902507519 7.188920174e-05 -1.0911727051e-05 -2.1174604256e-05 3.3321960226e-05 0.00010969878176 -0.0035444767258 -0.00041306911512 
-0.00040303390886 -0.00067980162575 -0.00087525417392 -0.00079453489347 -0.011969972621 2.5632975587e-05 5.0644452059e-06 -0.00078954753569 -0.00085055871762 
-0.0010744487367 -0.0010878806925 -0.0040915175704 -0.0051064321071 -0.0019569347753 -0.001567363442 -6.5988469911e-06 6.5594470436e-05 -6.0014033342e-05 
-7.7871697298e-06 -0.0003834765161 -0.00029981682486 -0.00042172525828 3.3685546906e-06 -0.0078448199922 -0.0084394334562 -0.0014310934171 -0.0011397318161 
-4.8198366983e-05 0.0058185402634 -4.3692803846e-05 3.7582065016e-07 -6.5129513154e-06 -0.0032145448322 -0.026915542017 -0.0010018544002 0.00048622696833 
-3.3650527801e-05 3.9933471386e-05 -1.6634043893e-05 6.9746461598e-06 7.1681505428e-06 -0.0020401743939 -6.8437316568e-05 -0.00090684355023 -0.0055760160898 
8.1450366314e-05 -0.00049993474609 3.1382297638e-07 -0.038629010671 -0.058299400539 -0.0022348557866 -0.0028211698604 -0.0020652466507 -0.00012156012385 
1.8693756481e-06 -0.004647483354 2.0395903738e-06 -4.1654960853e-06 -0.0076198701978 -0.0083196903704 -0.0088984528497 -1.9239926156e-06 3.5449030066e-06 
-0.00010346959736 8.5656967504e-05 -7.5962930921e-05 -3.1239288499e-05 -5.190217576e-05 0.0001028234709 7.0681944137e-05 2.1400196133e-05 -0.0048365655873 
3.3501039804e-05 -6.1254371404e-05 -0.0080375083302 -0.002033844311 -0.014448571599 -0.0054208014024 -0.023276724265 -0.018433097691 -0.02252198084 
-0.00079087315846 -0.00023033295985 -3.4843512223e-05 -0.0047990437972 -2.3603137246e-05 -0.0046379276697 -6.1679062602e-05 -0.0109986326 -0.0030919735873 
-0.0090967285281 -0.00093950573066 5.447992174e-05 1.7858673059e-05 -8.4482600722e-06 1.0490468689e-06 7.471254317e-08 -0.0018024921715 -0.0015128040007 
-0.0092329423249 -0.0055105217934 -0.007483546147 -0.00628021068 -0.0084339676833 -0.0075712049816 1.5290273127e-05 2.4291291061e-05 -1.2330774393e-05 
-0.00031216780723 -0.0064503041162 -0.0064046033887 5.1212281658e-05 7.230881037e-06 -0.00027561089874 -0.0020380479029 -0.00075103845429 -0.0015717558988 
-0.001282116824 -0.0011792526002 2.1694974433e-06 1.3024570472e-05 1.552128979e-05 -0.0016709756443 -0.0010100556042 -0.0034814391141 -0.0026660928866 
-0.00074226177949 -8.2856965131e-06 9.7268067332e-07 -3.0527131268e-07 0.00065897140014 -0.0015523343086 -0.0074286172772 -0.00083889034893 -1.5105245786e-06 
-5.5977198848e-06 -0.054003123303 -0.00046208645786 0.00035982723644 4.0732182093e-05 3.2859622088e-06 -5.0279198612e-06 0.0013962232551 -0.043804154326 
-0.048188899418 -0.039635239992 -0.045794823455 2.5435164523e-06 -9.9810913488e-05 -0.0035424848214 -0.0049395894641 -0.00036757525583 -0.0063246435101 
-0.0055439434752 3.7910258647e-06 2.9095374269e-06 -0.00033908992452 -0.00052326163924 -0.00034592834036 -0.0071986522581 -0.0057999820717 -0.0049335453296 
-0.0096305532141 -0.011859067064 -0.038967624172 -0.00048070300522 -0.00054711994507 0.0037813965223 0.0071663554187 -0.00048708437377 -2.2965716392e-05 
-1.7712165718e-06 -0.00070518417951 -0.0085484274413 -0.0099568697819 0.00084037655766 0.0018274480458 -0.0042918812012 -0.016719250421 -0.016925686725 
-0.0041594683523 -0.00469149298 -0.0040363577147 -0.0040672112166 -0.0061188475292 -0.0063628477145 -0.0044278928357 -0.0067009502253 -0.0070557491359 
-4.4718121769e-05 -9.970644084e-06 -0.0045595446317 -0.005211836728 0.0058848134295 0.0021809872675 0.00095841126378 -0.0042582956338 -0.0068396019473 
-0.00088830283775 0.00010835978268 3.2010722598e-05 -0.0006391433292 0.00018482669592 3.8358869478e-06 -0.0021020465559 -0.0023042562358 -0.0050287380097 
-0.0042239223225 -0.00023173852253 -0.0024498746528 -1.4632633726e-05 1.1148586992e-05 -1.6612768161e-05 -6.9324950905e-05 -4.6690762643e-05 -0.00049503567192 
-7.9210869738e-06 1.6809630489e-05 -7.4723953453e-06 5.2852134449e-05 -1.0898300959e-05 2.4458424408e-05 8.6582636983e-07 3.2741821263e-06 -0.0028549038845 
-0.0030419951715 -8.6340617521e-06 9.1332271753e-06 3.3789437519e-06 -1.5164530283e-06 -5.7819129787e-05 9.1042639483e-05 -6.0037379416e-05 -0.00019773646755 
-0.00043838021904 -0.00046759778255 -2.6934685034e-05 -0.0025810617188 -0.011542537835 -0.00049084612653 -0.0002035133125 -3.4440472481e-05 -0.0074085415705 
-0.00052196085791 -1.8481514256e-06 0.00022024542291 0.00027583969751 -0.0025982666574 -0.0014066819526 9.1484114768e-05 -0.0014143432985 -0.0017783003484 
-0.0014702598048 -0.00033148276386 -0.0017071056019 -6.2681733419e-05 -4.6373023653e-05 -5.8788467058e-06 -2.2743335332e-06 -1.199800416e-06 6.7561629557e-07 
2.8063253124e-06 -0.00022591609474 3.4955835466e-05 3.5471199828e-05 -2.7488634503e-05 -0.049470061443 -0.033497448686 -0.01294752336 -0.013301525055 
-0.0024133007979 -0.0018888906717 -0.00012352113635 0.0092245411204 -0.015867695676 0.00020716368142 0.00023910743476 -0.015403883652 -0.012658262992 
0.00022618332675 -0.00010233557983 0.001112346452 -0.020150393613 0.00026342419985 -0.0017989140606 -0.00074650046255 -0.002059098383 -0.0052744889302 
-0.0073387370468 -0.003817346029 -0.0071438443536 -4.1027610326e-05 2.5510751315e-05 -5.4349917431e-05 -0.0045949152582 -0.0031827078176 -0.0026538050865 
-0.0061663072105 -0.0018178900975 -0.0016669687248 -0.0023397537607 -0.0051190094767 -0.002093482249 9.8532310464e-07 0.0032933556597 -0.00063489096795 
-0.00079272757239 -4.7329309408e-05 -0.0011592143114 -0.00010283413088 0.00010364780192 6.4939527325e-06 0.0082753671498 0.011647003984 -0.0004445976993 
-1.8178637673e-06 -3.9576149437e-05 -0.015933477137 0.033657957664 -2.6681290867e-05 -0.0010389619972 -7.4321717197e-05 -0.0050408912895 2.9745549822e-05 
-0.0003219713625 0.00021747786027 -5.3537035394e-05 -0.0031919737484 -0.028688447573 -0.0073050836712 -0.006622461325 -0.015088471854 2.1954437129e-06 
3.4578237787e-06 0.00025186439197 -0.011710871799 -0.012080715374 -0.0070709255787 -0.0067038772944 -0.00010969172423 -0.0016688939912 1.99697468e-07 
1.1041818274e-06 8.0150972978e-07 -0.00055124465638 7.4803691995e-05 5.1818417235e-05 0.00016988044308 -5.484933361e-05 1.1189432393e-07 7.2759918783e-07 
-0.0012486639269 -0.00083849855055 4.108975772e-05 2.8744575546e-06 1.1228981312e-05 -0.00051578230655 5.1416670533e-06 7.1488441081e-06 3.5320559659e-06 
-6.1221498038e-06 4.1233726474e-05 7.0835441409e-06 -9.0244241263e-05 1.609230747e-06 -0.0045186578041 -0.0046007881127 -0.0050891187552 -0.0046192849398 
6.0929050574e-06 -0.0023751262866 -0.0033194618029 -0.0083975969192 -0.0074170973309 6.6471444304e-06 7.1626512216e-06 -0.00039620158535 4.2276895473e-05 
5.6268157531e-05 2.9921316078e-06 -3.3244365559e-05 -0.00054607197059 -0.0019476758285 0.00034526838018 -3.6282978221e-05 3.0461588482e-05 7.4739335291e-06 
-9.0425888498e-06 9.763883693e-06 -0.033926906563 -0.027865098888 -0.025997682956 -0.021377537144 -0.016180008154 -0.020932690692 4.0857658344e-05 
-0.00075499807733 -0.0041875576101 -2.9288006208e-05 -0.006004228055 7.5031981285e-05 -0.00054865959452 -0.006252383928 -4.907482143e-07 -0.0078166623132 
-5.7922651445e-06 -2.2860657362e-05 -0.00030149350353 -5.2577305505e-05 0.0001303112755 -2.7420508898e-05 0.00010669448228 -8.8514058287e-05 -0.0050398316748 
0.002064867006 0.00073893161946 -0.00010287922722 4.7580021022e-05 -0.0022299815153 6.6096472102e-05 -1.9173200997e-05 6.3796983435e-07 -7.7386519141e-05 
-1.6052222941e-05 -6.7393677328e-07 -0.00019595550525 -2.403545945e-08 -0.0041154002246 -5.3205296345e-05 -0.00166742805 -0.010257797196 -0.0010101650585 
-0.00077619182334 -0.0024271671082 -0.0027134770672 9.5554843687e-06 -8.6690173156e-06 -5.1426149051e-05 -0.00012969711925 -0.0014020450536 -0.0044057732931 
4.1956608178e-05 -0.0026800704391 -1.4281509015e-06 -1.5164212431e-05 -0.012760788589 -2.6445117704e-05 -2.8938017084e-05 -1.3772050538e-05 6.9750021967e-06 
-0.0026417097985 -0.0023077365084 -0.0018638653588 -0.010367081653 -1.0011626226e-05 -2.825908464e-05 1.9353049691e-05 3.8965732203e-05 2.8798200186e-06 
-0.0002087076002 0.0007279354373 -0.00011388811107 -1.1632097693e-05 -1.4553757341e-05 -0.0021411401888 -0.0029497636008 -7.2704886941e-05 -0.00010366387669 
7.3357270043e-07 5.0068600853e-06 -0.001197355475 -0.0012871265701 -0.00093837529604 -5.7105067448e-05 3.3047625787e-06 8.4559759181e-06 -2.3013271681e-05 
-1.2868154372e-05 -5.7376198124e-05 3.6576175636e-06 -8.6164096958e-06 -6.7241305279e-07 -0.033810139641 -0.027781812921 -0.033722036518 -0.0081418044134 
-0.002269414537 0.026891222824 1.6703551437e-06 -9.8405690007e-06 -0.0006038027056 -2.5874057457e-05 0.00019017355386 -0.0033897319749 -0.00011033257435 
-0.0016595868466 4.3971175488e-05 -0.010804720135 -0.01470212786 2.1096331964e-06 -4.2497211789e-06 -0.00010777763116 -0.00017589054757 -0.0057030692223 
-0.0086544499331 -0.01459368982 -0.002652364707 -0.037152028542 -0.0012631826152 -0.00073779316318 -0.0062070499692 -0.0065818937913 -0.0069106869815 
-0.00038620583018 -0.0081668297885 4.6716151704e-05 -1.8469804039e-05 4.9635286917e-05 -2.343669976e-05 -3.9412426753e-05 -0.0076323723845 -0.0003262956452 
-2.4282139125e-06 -1.7846514453e-05 1.8758248719e-05 -0.00018339218397 -4.839460543e-06 -7.1580380519e-05 -0.0020917546424 -0.0029829057603 -0.046201246155 
-0.00029428261419 -0.00036023847823 -0.0013591171507 -0.000982443191 -4.2669605073e-05 2.8255624563e-07 -0.023404492915 -0.0057831480877 -0.0045647139413 
2.1407164526e-05 -0.0025255130495 -0.0019523694563 -0.0059254640941 -0.0053000745387 -0.0056985582962 -9.3102175078e-06 -0.00012554142543 8.0834435445e-05 
7.1228536915e-05 -1.5544092676e-05 -3.1104425752e-05 -0.020671789342 0.0021731314657 -0.0012460843745 -0.0010187747248 -0.00027558330747 -0.00014749393568 
-2.8290113029e-06 -0.00022088697612 0.00017221292587 -0.0086199975467 0.0089529689157 -0.011588352219 -1.7727035909e-05 -4.1514462555e-05 -0.0039900895752 
-3.645047723e-06 -5.2867793913e-06 -0.0091260892328 -0.010084500871 -0.0089072095856 -0.010164295508 -0.0020957205442 -1.5151028761e-05 2.7181980305e-05 
-0.0013880684236 -0.0050594498332 -4.5971607444e-05 -0.0031841393755 3.651309183e-06 -0.0065837969404 -0.00067694085412 -0.013389087467 -3.9876875061e-05 
0.0059018656187 -0.00063741585687 -0.001914383308 -0.0034570643887 -0.0028803279274 -0.0053828182692 -3.2262533521e-05 -3.3251720653e-05 0.0069531989932 
-2.2503026972e-06 0.0011887340696 0.0031711623627 -0.0065948355287 -0.00013932888437 -0.0064621201135 -0.008873036656 7.2686976621e-06 -0.0073589509829 
0.013179102288 5.5934800092e-06 -0.0020458208109 0.00032084161356 4.1089587776e-06 -3.9123051933e-06 1.9969450553e-06 -0.0026762176172 2.1321997156e-06 
-6.4001695572e-06 -0.0047859982441 -4.7914660028e-05 1.2832189845e-05 1.7809795106e-05 -0.03452681336 -0.033720546871 1.4746071066e-05 -4.3499435358e-05 
-0.01192131454 -1.8235009077e-05 1.0560183146e-05 -0.000284724969 3.0001853416e-06 -1.978485382e-06 -1.8419129963e-05 9.8002250142e-05 -0.00055454523636 
-0.00039022418228 -0.012376012177 -0.0094998580699 -0.0084951312159 -0.028894745054 -0.012865101817 -0.014039581002 2.4674618496e-05 -3.3238728479e-05 
2.497520433e-05 -0.0090545557346 -6.3447949739e-05 -0.0033154871853 -0.0034547408213 6.9451572045e-05 1.6675625712e-06 -6.1731286763e-06 -0.00024604973822 
9.5742299036e-06 0.00057322398013 -0.005106789841 -0.0057578561176 -0.0053289378683 0.0003161911062 -0.0058821333318 -0.0018992962169 -0.0072110999201 
0.00037693596177 -0.0053859916655 7.8618499022e-05 -0.0082749809515 6.3020707861e-05 -0.0065329059556 3.0362260932e-05 -0.0025044838879 -0.00671326254 
-0.011002672273 4.8293926822e-06 5.9590078754e-06 -3.571016277e-06 -0.0049312516068 1.1002698542e-05 -2.9874547424e-05 -0.0064074637184 3.9390098139e-06 
-6.9054702987e-05 -5.1898568304e-06 -2.2155618696e-05 0.00064872633621 -0.0071201926713 0.00067055001073 -0.0025488681985 -0.0027026085561 -0.025169346373 
-1.6753491431e-05 -2.2696834377e-05 1.4390410922e-05 1.2771472046e-05 -4.779816153e-05 -0.0011487850765 0.00091590406636 -0.0085436833911 0.0016150614333 
-0.00017138959953 0.0022137514608 -2.6389936808e-05 -1.9427095213e-05 5.8944269379e-05 -0.0039932866036 0.010446976421 8.5974008575e-05 -0.0043592266004 
-6.7851457357e-05 -0.0003981983657 -0.0017308955992 -0.00038408529949 -0.0059441145595 -0.0021771512905 -0.00015724104826 -0.0085757208592 -0.0011650330174 
9.5483104799e-05 -0.0021808880219 -0.0034613043921 -0.0015444485178 -0.0018015573238 0.00056568317901 -0.001522446206 -0.032124161313 -0.017040874841 
-0.0020982654172 -0.00012293650588 -3.8330983909e-05 1.3127786945e-05 -4.1507325652e-05 -0.00074520231714 -0.00089598916024 6.2553509414e-06 1.1480195883e-05 
-1.4202120923e-05 -2.7300867509e-05 -0.0053623260134 -0.00042537673102 1.4351512591e-06 -7.0191005632e-06 -1.0763647935e-05 -0.0012196405434 -0.0010807330462 
-1.1253894861e-05 -0.0044584884632 -0.0031222751929 0.015938412892 2.6783726881e-06 -0.017042969734 -0.01509982031 -0.0069424324393 -0.035846692955 
7.323795708e-05 6.391855903e-05 -0.0015240852599 -2.2715871878e-05 6.2812919219e-05 0.0012629548229 1.8249015369e-06 -0.012673574866 -0.011200963013 
-0.02569397521 -0.0018655530814 6.4621333578e-05 0.00019041111684 -6.0572381589e-05 0.00088673007361 0.00075753857825 4.4507867733e-05 -2.7890457817e-05 
-0.021590553122 -0.00022804121947 3.8463809528e-06 -3.7191118542e-05 -0.0070721951553 -0.0039838049262 1.0687687076e-05 -0.00079530161666 -0.0042659937853 
-0.0046576111402 -0.001324784275 -0.00077343006738 -8.3522305563e-06 -2.6843177334e-05 5.5787938447e-06 5.628508464e-06 -0.00086062523007 -0.00081818065463 
-1.9568372531e-07 -0.014138268263 -6.3596414935e-06 -0.0019662487602 -0.0012787014986 -0.00044916208471 -5.9393609144e-06 -0.0039552789464 -0.00010088578805 
-0.0027904303922 -5.060617722e-05 0.0018814425346 -1.5380269576e-06 1.1509440893e-06 -0.00011263196125 -0.045946351416 -0.0046274752826 -0.004698777953 
-0.0046191708282 -0.0046823091673 -0.035844148983 -0.0034915111088 5.5275383925e-06 -0.00023159977859 -5.6251906482e-05 -0.0058313587992 -8.0442694674e-05 
2.2990715913e-07 7.6897809816e-06 -0.039512987915 -4.6096553688e-05 0.013564089453 -7.9612336075e-05 -0.0074852150505 -0.00049838834049 -0.0037558446142 
-0.0012908001942 -0.00095474425298 -0.0018695750643 -5.5851896192e-05 -0.001450565635 0.00016219065867 -0.01258925607 -2.3161332587e-05 -0.037023792935 
-0.042874815015 -0.0023723879648 0.00013128645675 0.00038180372999 -0.0012802965815 -0.0021256289335 -1.4344296173e-06 -0.010223378482 -0.00020890229455 
-9.7851330161e-05 0.011213843948 -0.0074833990615 -1.3548381052e-05 -0.0051649669295 -2.7252436888e-05 -0.00046740835149 -0.00013671009488 0.0096900468051 
-1.8314625292e-05 -0.0077501938336 -3.4158561853e-05 -2.1508626663e-06 -0.02092785446 -0.0011041289258 -0.00033171135146 -0.00494679022 
von%20Mises%20Stress 1 9350 double
0.60154238775 0.50470397163 0.51810253703 0.60821715636 0.33337125656 0.33335006381 0.33333306467 0.33333326845 0.54253795741 
0.52222821185 0.26983985255 0.29443698245 0.65405443959 0.7394169454 0.46210615979 0.49523998157 0.28999814817 0.23881405825 
0.21753824087 0.19339457168 0.18190321898 0.17517929178 0.17706394292 0.17689335383 0.16154495385 0.15942738648 0.1567720988 
0.15739683413 0.15741516502 0.15771636252 0.1605897887 0.17258574599 0.18836738034 0.18121645192 0.19108273233 0.20970036818 
0.23688924027 0.33036664202 0.30726992032 0.2383369345 0.20736801306 0.19469337797 0.18951446404 0.18510268785 0.18096891123 
0.17870649726 0.16821662381 0.16510593777 0.16450249275 0.16360051989 0.16117740776 0.16473330265 0.16349632419 0.16554463865 
0.1653452587 0.16535224752 0.17305349098 0.17336484946 0.18635181914 0.19196127902 0.19933531962 0.22286464289 0.23401783609 
0.26521939287 0.33329892087 0.33331605754 0.33339713186 0.33355721333 0.33378943651 0.33408768569 0.3344846975 0.33501599312 
0.33561272506 0.33625571878 0.33697809514 0.33782836759 0.33853093532 0.33923336161 0.33980955294 0.3400656882 0.34016738229 
0.33985461214 0.33931576559 0.33847643113 0.33753694573 0.33648282129 0.33548758783 0.33458051169 0.3338385968 0.33343510249 
0.3332737048 0.6264753008 0.34305094615 0.3222356232 0.30993107021 0.3030876414 0.30024563846 0.29973985731 0.3007493068 
0.3023794219 0.30477360363 0.30736574395 0.31000936468 0.31280312269 0.31559671601 0.31833140417 0.32094114689 0.32366349923 
0.32599105699 0.32818331483 0.33026811595 0.33209407505 0.33358887523 0.33495912408 0.33592785236 0.33661715162 0.33704198051 
0.33714451036 0.33686758012 0.33644032313 0.3357991341 0.33506164343 0.3342069691 0.33347960473 0.3328468229 0.33232945325 
0.33199434002 0.33187490033 0.33189713143 0.33207230185 0.33233414531 0.33263504687 0.33296138183 0.33322030656 0.33338182295 
0.33336434595 0.33349950745 0.33270402464 0.33047555697 0.32700469141 0.32325112399 0.32192914854 0.32575709859 0.33010115008 
0.32876318937 0.31947921327 0.3042675444 0.28745106037 0.27797446375 0.28459329178 0.29831172437 0.30745744815 0.30963287879 
0.30641050418 0.30226678461 0.30066255726 0.3056036036 0.31658569698 0.34085765666 0.42813954974 0.53844046013 0.67899468187 
0.58711118171 0.72896422854 0.69947786396 0.6586683132 0.55481497923 0.55280403388 0.49502955581 0.41557928209 0.32239451444 
0.38569804254 0.57873398641 0.61925702203 0.64326716182 0.53307890999 0.53606709367 0.58463889341 0.47703669781 0.499190071 
0.55761486961 0.56506759964 0.33330291926 0.33331822244 0.33343642761 0.33368908037 0.33405927415 0.33459879767 0.33530002954 
0.33609424824 0.33692137424 0.3379017027 0.33881588292 0.33962376302 0.34006086094 0.34005534132 0.33962383244 0.33874221471 
0.33761541244 0.33630124127 0.3350690368 0.33408014298 0.33348106084 0.33323597962 0.4313995107 0.35046738937 0.31734336778 
0.30565307403 0.30101371804 0.30031863335 0.30159768969 0.30392817161 0.30739117708 0.31056178875 0.31398503811 0.31746848812 
0.3208730381 0.32413268265 0.32708935265 0.32971387989 0.3321642361 0.33411666724 0.33554781296 0.33649642649 0.3370280091 
0.33708304551 0.33672418582 0.33598544239 0.33501335267 0.33401268643 0.33316682331 0.33245921352 0.33201819502 0.33190151303 
0.33206284043 0.33240823961 0.33281279404 0.33315768399 0.33336118828 0.33338113885 0.33339552148 0.33311031345 0.33153163417 
0.32873766834 0.32528446691 0.32241290302 0.32260756422 0.32733703873 0.33046816195 0.32666213759 0.31616357168 0.30155874409 
0.28690451017 0.27710242158 0.28609433719 0.30173505379 0.30921899341 0.30883899633 0.30473022133 0.30108846696 0.30041301074 
0.30313114561 0.31592798143 0.34345169342 0.573154501 0.79065859126 0.6810827693 0.74924654513 0.67262621323 0.55694893716 
0.52939975169 0.56853435346 0.41896917363 0.42091260664 0.3836286892 0.25808342809 0.39342096864 0.45705977629 0.50268942161 
0.5980527368 0.65163701613 0.64395116786 0.50055611963 0.59948997881 0.64244164578 0.53112257939 0.48919564284 0.3333221799 
0.33338857129 0.33351668529 0.33368012176 0.33391109536 0.33421016192 0.33458324101 0.33502355458 0.3355531735 0.33612940686 
0.3367400893 0.33735456271 0.33793913575 0.33846385608 0.33879712668 0.33897193022 0.33890207576 0.3385918117 0.33805027864 
0.33736786542 0.33654567807 0.33572093204 0.334935872 0.33424593803 0.33370418458 0.33323635506 0.45400531375 0.36223264073 
0.34011268732 0.32571720433 0.3182375831 0.31423968359 0.31244307744 0.31226269911 0.31228577247 0.313247413 0.31492105591 
0.31653934469 0.31832463675 0.32024754443 0.32213314798 0.3240629841 0.32598171965 0.32772793965 0.32943823722 0.33092679458 
0.33222796937 0.33337070289 0.33425034439 0.33491949608 0.33538332429 0.33556442661 0.33556986967 0.33530596153 0.33496146468 
0.33446823392 0.33392642852 0.33334471914 0.33284488001 0.33241803879 0.3321343764 0.33194027756 0.33192954791 0.33201326108 
0.33219322383 0.33242545704 0.33269492446 0.33295140193 0.3331394787 0.3332734382 0.33124618064 0.32909439064 0.32613454461 
0.32305337546 0.32125426696 0.32114554058 0.31908268939 0.31329789964 0.30400999229 0.29704788929 0.29183569729 0.29645881026 
0.30879222089 0.31515973893 0.31789151171 0.31787414504 0.31742810327 0.31865982501 0.32405047914 0.33765327349 0.35662774103 
0.40123039036 0.38197925043 0.39693694615 0.35169222851 0.32699807029 0.31698226092 0.31127917812 0.31286093932 0.33470015361 
0.30837574896 0.3003573729 0.29907195874 0.29841669199 0.30776534652 0.3014772632 0.30215712954 0.29895786733 0.3017108245 
0.31272485669 0.33944692382 0.31856939516 0.32061726618 0.32731425575 0.34009824775 0.38584616835 0.42924115716 0.4676607968 
0.34631932058 0.33115281917 0.30485596472 0.29269457824 0.2889201847 0.28751786835 0.28750971605 0.28821091298 0.28508667889 
0.29374452285 0.27355627411 0.38404098119 0.30180693413 0.23474921722 0.2397385177 0.26875019182 0.29776977089 0.32346244049 
0.34758015214 0.36594427508 0.37133233667 0.38518922885 0.39183942912 0.39263015443 0.33256278019 0.33812573906 0.36476598274 
0.29047686922 0.29439641757 0.29159506604 0.39006391881 0.33336248436 0.33344978608 0.33357897132 0.33375418008 0.33399565335 
0.33432498914 0.33475482799 0.33522286806 0.33579411723 0.33640831919 0.3370251424 0.33760211205 0.33810757125 0.33843558426 
0.33855541429 0.338402046 0.33794710887 0.33733788062 0.33658457285 0.33571088989 0.33492821208 0.33422222094 0.33362252277 
0.33119906898 0.35331549821 0.34140335551 0.33255113741 0.32717542227 0.323249555 0.32124489347 0.32031866094 0.3200615331 
0.3203947675 0.32095055081 0.32190987875 0.32300999681 0.3242167872 0.3255185231 0.32687289632 0.32816213998 0.32939258758 
0.33054985396 0.33156984251 0.33247340133 0.33326594579 0.33383088612 0.33426307201 0.33449586179 0.3345392312 0.3344105439 
0.33415509991 0.3337703104 0.33336743406 0.33294751835 0.33252588543 0.33216086756 0.33188933041 0.33171191374 0.33167505039 
0.33177316674 0.33193598031 0.33219234021 0.33246753789 0.33275559149 0.33301606552 0.33324239206 0.3630220882 0.36933991913 
0.32853541406 0.32498842414 0.31959080929 0.31671836125 0.3158701253 0.31083037689 0.30139303385 0.32339211927 0.32973632912 
0.32970034071 0.32833239756 0.32750051693 0.32803570298 0.33041066289 0.33396931011 0.33684621139 0.31959279906 0.39016126469 
0.33593305065 0.31983509326 0.30719003889 0.29983951313 0.29409547022 0.28831336585 0.28479931465 0.28331165507 0.28174905376 
0.28045303339 0.279650405 0.27986073761 0.27905760606 0.28179576241 0.28392870279 0.28602788307 0.28964280123 0.29506604036 
0.30152675285 0.31125780794 0.3246441493 0.34624391853 0.34613900023 0.3212600046 0.30462682865 0.29945301813 0.29455417826 
0.29083564547 0.29287729503 0.28981355122 0.29063716206 0.28903965798 0.3650676354 0.32248405677 0.28202357674 0.36042803924 
0.33267685855 0.33806876556 0.38118069411 0.3188299581 0.30841862216 0.29756392554 0.27888006011 0.30546981393 0.35035708009 
0.36455206933 0.34128020692 0.37026538706 0.33286279889 0.30028337682 0.36507307528 0.30698119943 0.33317782223 0.33321875137 
0.33331135894 0.33345680492 0.33373214345 0.33420286856 0.33476923935 0.33542335142 0.33617710104 0.33693672037 0.33767261566 
0.33834815136 0.33871625546 0.33874513373 0.33843098486 0.33776896984 0.33684835187 0.33577180023 0.33475996274 0.33399795268 
0.32868189077 0.33313562292 0.33792167158 0.33387927256 0.33078957195 0.32833906025 0.32689482239 0.32602197962 0.3257065408 
0.32568398088 0.32584383294 0.32629185009 0.32685708203 0.32758079453 0.32835324638 0.32922261945 0.33005050648 0.33084557981 
0.33158477951 0.33219650565 0.33276850833 0.3332650044 0.33360273386 0.33380095572 0.33384072022 0.33373958075 0.33351215664 
0.33317073485 0.33273836311 0.33233629712 0.33193129795 0.33156564454 0.33130082649 0.33116737957 0.3311425193 0.33126751801 
0.33150113853 0.3318143982 0.33217488292 0.33254795445 0.33286132267 0.33121245484 0.31467788595 0.32352642977 0.3476236519 
0.3491143178 0.34546416889 0.33376989634 0.3326861224 0.33136703931 0.32935134566 0.3064616097 0.30980333328 0.31656553104 
0.35217598425 0.33236167524 0.31913059658 0.31278413904 0.30532157621 0.29778818597 0.29409230125 0.29236802753 0.29116109082 
0.28953024065 0.28855309623 0.28790246517 0.28833530456 0.2897000899 0.2916934478 0.29422431283 0.29684249184 0.30173347538 
0.30867704097 0.31806374451 0.3288627759 0.33835591771 0.34181551693 0.31323213154 0.30489719374 0.31160306532 0.30131415291 
0.34267778897 0.3435321053 0.31544344817 0.3154202476 0.34953738673 0.36862216577 0.30310332032 0.33586479421 0.3524658748 
0.33549502802 0.32580117609 0.33303704322 0.36293414775 0.300717961 0.31195585264 0.31955796121 0.33114675274 0.35372675049 
0.30699618165 0.35520580563 0.31385552579 0.33309938003 0.33259741127 0.33250987021 0.33257672556 0.33287906335 0.33343718208 
0.33428153035 0.33515561413 0.33619048647 0.33719838729 0.33842340598 0.33927711614 0.33961833964 0.33952370225 0.33891444744 
0.33763226956 0.33599905888 0.33464479994 0.33303328371 0.33197322928 0.35494127362 0.33430748968 0.33275430363 0.33166043969 
0.33086891975 0.33024619966 0.32989522336 0.32967313653 0.32963466932 0.3296608054 0.32985551657 0.3301356807 0.33048426004 
0.33083588983 0.33119802903 0.33163921384 0.33205205332 0.33243393925 0.33277330768 0.33308716603 0.33332829109 0.33345943607 
0.33344915414 0.33330769947 0.333026595 0.33261433581 0.3320999206 0.33160645952 0.33113107105 0.33073656472 0.33049841395 
0.33032282539 0.33024407455 0.33044060037 0.33080799376 0.33124264115 0.33178221138 0.33232198003 0.32839993486 0.35261620926 
0.33438425826 0.31522090064 0.32872632931 0.3253809196 0.3300382583 0.32476367524 0.34053418285 0.33796964158 0.31813114594 
0.30885656034 0.30410591483 0.30368455926 0.30158072021 0.29927189555 0.29775783603 0.29748706059 0.29761965132 0.29807095735 
0.29959563659 0.3022999697 0.30526050457 0.30917982123 0.31438667679 0.32155685072 0.33140687771 0.31417027434 0.31868284395 
0.32257583712 0.33269687774 0.31743096175 0.33949554624 0.33280178612 0.3414093648 0.3435881273 0.31466474178 0.35337106648 
0.33429824302 0.35468735606 0.3201558096 0.34259193474 0.33036827446 0.34694092748 0.34626047185 0.33382369951 0.33840246159 
0.33134341532 0.33125417305 0.33169568883 0.33274247451 0.33402509568 0.3354531563 0.3384941127 0.33993644229 0.34097117096 
0.34094574947 0.34107591286 0.33651788016 0.3534374039 0.32452593335 0.33016573553 0.33106313928 0.33173042614 0.33198534699 
0.33221435186 0.33234506922 0.33243247656 0.33248518895 0.33255562824 0.33255632853 0.33254650497 0.33261756671 0.33275896939 
0.3328751117 0.33298682945 0.33309819489 0.33322275576 0.33333264428 0.33337985258 0.33331679814 0.33310522232 0.33275021612 
0.33222916581 0.33152964831 0.3308264167 0.33025369527 0.32971000495 0.32934641438 0.3293880374 0.32900948161 0.32922031854 
0.32981535435 0.33047698938 0.33123236732 0.33202306343 0.33618691756 0.32959221403 0.34761045501 0.33096134945 0.32285371092 
0.32932226878 0.32240050371 0.34304869252 0.34017738455 0.31442215509 0.31246424112 0.31031473842 0.30677568169 0.30719328711 
0.30773079835 0.30846391556 0.3072225819 0.31054518045 0.31290279984 0.31596027204 0.31950612862 0.32430328617 0.32752257811 
0.33164444541 0.3344842149 0.32433659243 0.33815270009 0.31811223622 0.33574044284 0.33947728907 0.32267027772 0.33078411682 
0.32285018886 0.3481734493 0.34354108887 0.32551228485 0.34147843677 0.31857993947 0.31601689834 0.34720025744 0.32945637063 
0.33261018891 0.34261751202 0.32402219106 0.34428768959 0.32960320865 0.33158044985 0.33272344468 0.33353318982 0.33408240009 
0.33434016269 0.33445418562 0.33453530607 0.33434579236 0.33387061006 0.33403713895 0.33390682008 0.33371363609 0.33358048586 
0.33349378728 0.3334631906 0.33340541958 0.33327423443 0.33302707517 0.33261693784 0.33196817356 0.33096385492 0.32991169301 
0.3290785995 0.32868061714 0.32779304974 0.32790411725 0.32725619281 0.32854344426 0.32944226211 0.33054679971 0.32701695513 
0.34022163447 0.32746726239 0.31743997635 0.31592067963 0.31863483154 0.31787300069 0.31975666616 0.32177606916 0.32404820912 
0.32489163314 0.33592706133 0.33350912249 0.33054821852 0.3433039269 0.33120524804 0.32916807606 0.32977291564 0.32836280296 
0.34320445004 0.3206012504 0.33704835248 0.34097522701 0.32335879678 0.3250178725 0.32945952411 0.32807141157 0.32956044267 
0.32879543481 0.32163173303 0.32802689808 0.33104693865 0.33301441751 0.33429076711 0.33515487391 0.3355695973 0.33578283327 
0.33574669722 0.3352238451 0.33485424945 0.33437963543 0.33398673302 0.33374677702 0.33352511851 0.33329009765 0.33305671674 
0.33287474748 0.3324121299 0.33186563254 0.33065027792 0.32850664384 0.32760400028 0.32624152397 0.32559139434 0.32776393032 
0.33820092736 0.33883121944 0.32744516614 0.33781231819 0.33341970166 0.33183051751 0.32681783833 0.3254323578 0.32944447911 
0.3264006313 0.33258038427 0.33662511067 0.33189326681 0.33432464431 0.33194816537 0.33636889329 0.33558451012 0.33480198887 
0.33303274088 0.33111587286 0.33056250271 0.3359018471 0.33734967524 0.33098940709 0.33070798099 0.33316506165 0.33461159987 
0.33578375328 0.3362717464 0.3366022129 0.33417595788 0.33356380102 0.3324199901 0.33630702038 0.33474143781 0.33372229526 
0.33469068583 0.33657902635 0.33329604999 0.33340929234 0.3335822183 0.33381040333 0.33415176786 0.33461622973 0.33521494236 
0.33585178821 0.33660305175 0.33735894446 0.33804412885 0.33859162665 0.33879149943 0.33862600396 0.33813663632 0.33735363907 
0.33637319668 0.33534992869 0.334434557 0.33370164403 0.33330471495 0.39073909938 0.35937735851 0.33383671144 0.32128843353 
0.31538768736 0.31324551783 0.31308937381 0.31435014708 0.31604696164 0.31770961368 0.3198767227 0.32226770668 0.3245978065 
0.32670889981 0.3289217813 0.33077404552 0.33236147736 0.33366433187 0.33460602358 0.33521657687 0.33544217361 0.33533251558 
0.33493883861 0.33437937059 0.3337253353 0.3330529812 0.33250942683 0.33211874026 0.33195419603 0.33199258726 0.33219601633 
0.33250375551 0.33283314089 0.33310386255 0.3327884231 0.33187522331 0.33045231872 0.32813664452 0.32538791105 0.31991292917 
0.31971471048 0.31674136935 0.31088961159 0.30279457274 0.29383515863 0.29940564681 0.31345207746 0.31785152909 0.3182419998 
0.31769531226 0.31712933471 0.31834551141 0.32273745557 0.33523799824 0.35688643356 0.38472283018 0.43395352215 0.34535595719 
0.34592678566 0.33168681859 0.32313656975 0.31239847402 0.28053308462 0.30462600125 0.3051226321 0.30387276776 0.30091608815 
0.30276153167 0.30459692898 0.31025225692 0.30850435516 0.28306411795 0.31666693056 0.32391174937 0.34237270001 0.34094473474 
0.56152399322 0.3707980195 0.32954771434 0.30638259853 0.29388428636 0.28708513705 0.28547657579 0.28520148892 0.28539306235 
0.28520590073 0.28243707811 0.27641692244 0.43544444615 0.28739906941 0.23300057751 0.24277894914 0.27205889215 0.29960355629 
0.32473960759 0.34251914884 0.35905001434 0.38190702136 0.38932913868 0.39340300343 0.37767785187 0.32268182666 0.29172401789 
0.35940473288 0.37603809269 0.38268069055 0.29049793805 0.2898157958 0.28235877171 0.33336974858 0.33320257381 0.33353058806 
0.33375866832 0.33412482143 0.33469287205 0.3353733888 0.33619022461 0.33705050003 0.33788569781 0.33845428212 0.33858620313 
0.33829309265 0.33750355286 0.33652062162 0.33537671713 0.33423284579 0.33316844309 0.33245589715 0.30842098874 0.33534666893 
0.34640602107 0.35599851935 0.32803608321 0.32344749449 0.32186177732 0.32167321896 0.32169239127 0.32242913148 0.32355824134 
0.32476677475 0.32603723236 0.32753837736 0.32902001202 0.33044304315 0.33160954107 0.33264532669 0.33345672362 0.33401391991 
0.33432103735 0.3343191267 0.33408108357 0.3336895923 0.33312433025 0.332554352 0.33211841488 0.33177376719 0.33162682922 
0.33168905583 0.33187969059 0.33218416117 0.33256297163 0.33290783269 0.33080480652 0.31709493777 0.32746194015 0.3147606111 
0.31537598778 0.30060350218 0.33339963933 0.33271187179 0.32810485508 0.3276400984 0.32827881929 0.3298849269 0.33501040064 
0.34086215864 0.34255426324 0.32335866809 0.38881877889 0.32004101802 0.30780036332 0.29795368296 0.29125800623 0.28702550213 
0.28461333182 0.28342392891 0.2820859059 0.28218076455 0.28376630323 0.28584440386 0.28768358218 0.29137343067 0.29656747985 
0.30329889716 0.31379055478 0.33181679513 0.39881693247 0.27924963034 0.31954839715 0.31105572931 0.30159548127 0.30030723006 
0.29678998528 0.29234680578 0.32247697859 0.29653791295 0.29182764409 0.27950091885 0.35261351404 0.33952002343 0.36275497403 
0.36047316996 0.33342467255 0.33014136817 0.32525907047 0.34081923665 0.30741033708 0.3611396389 0.33356070044 0.36424935357 
0.32636600537 0.30644663769 0.30257401985 0.35169893858 0.36351040029 0.29162456464 0.29125690363 0.31534891587 0.31329766232 
0.33326157036 0.33281882416 0.33392035577 0.33491316775 0.33608609783 0.33745264248 0.33859801248 0.33928994472 0.3392395361 
0.3385187988 0.33713994161 0.33553750272 0.33422668234 0.3325857694 0.31500667424 0.33307819603 0.37388250194 0.33376262598 
0.33939874829 0.32745456613 0.32702158942 0.32699796965 0.32727840415 0.32779442925 0.32848149074 0.32920717455 0.33004870703 
0.33088810432 0.33166275026 0.3323647 0.33294968978 0.33339622969 0.33365355495 0.33368778201 0.33349005345 0.33309603819 
0.33253045677 0.33195190491 0.33144102894 0.33107396387 0.33094869956 0.33105959727 0.33134206758 0.33171958749 0.33217834526 
0.32910609391 0.32821947591 0.33069404997 0.33292443132 0.34183128625 0.33369783778 0.33535856394 0.33169993371 0.33099689922 
0.32398600691 0.30231818378 0.29810022258 0.2943498879 0.2918955613 0.29087489131 0.2908278925 0.29167993677 0.29334378135 
0.29577734497 0.29893276814 0.30387337749 0.30997992292 0.31730040575 0.30219957632 0.33770208661 0.31051836438 0.31032957794 
0.3497924449 0.35179499809 0.33232433257 0.359337344 0.35057888471 0.33693842218 0.30914346337 0.31624871298 0.33048443155 
0.32667507064 0.30664163469 0.30167732338 0.33665084991 0.33288351855 0.33220247077 0.3133092999 0.33402750218 0.33266042091 
0.36142562012 0.3037022399 0.35228567477 0.34399679877 0.32594369043 0.34825524676 0.33212138692 0.33670100798 0.33882378237 
0.34045727887 0.34116344915 0.34030265069 0.33902158642 0.33608325884 0.33355194456 0.31353676379 0.34381361899 0.33076179763 
0.33081934653 0.33094716801 0.33125670796 0.33145453328 0.33168789252 0.33196457538 0.33229236224 0.33266322545 0.3329739949 
0.33322567685 0.33337708538 0.33334834359 0.33311534764 0.33265736962 0.33203223704 0.3312738742 0.33063901455 0.33013049678 
0.32991051783 0.33007571289 0.33048825613 0.33104784973 0.33164191493 0.32243461165 0.33697420978 0.3180081968 0.32090414394 
0.32648105267 0.30195705287 0.3057587268 0.30937025921 0.30045763473 0.30072275361 0.30099507469 0.30238366395 0.30470824987 
0.30751461632 0.31107718564 0.31606193662 0.32234824595 0.33468368258 0.33307355987 0.35744217961 0.34081068653 0.33106420083 
0.33075409089 0.35657336783 0.34964703288 0.32880971002 0.31711376761 0.32976882585 0.32404694279 0.32066591071 0.33308267606 
0.34163199094 0.31285393499 0.35553451556 0.33227383971 0.34025078948 0.33167839193 0.3144941891 0.33169505652 0.33184277047 
0.34410024197 0.32811678081 0.34438345969 0.33121432236 0.31256516885 0.33491097188 0.33076253868 0.33223575817 0.31361314813 
0.33860033497 0.34370523903 0.31287535395 0.34521985992 0.33251965385 0.3502004257 0.333827562 0.33371049808 0.33334504133 
0.33325531855 0.33331571108 0.33334863022 0.33337993208 0.33336695949 0.33326209616 0.3329830722 0.3324447273 0.33168014607 
0.33068210872 0.32974028523 0.32893739507 0.32858165395 0.32872160803 0.3293391234 0.33016387599 0.33101420665 0.33887292435 
0.33363772336 0.31181822014 0.31982601471 0.3109324175 0.33920009152 0.30925235293 0.3185917696 0.34213298834 0.3110637296 
0.31180173095 0.31355356601 0.3156938315 0.31827285249 0.32210606949 0.3261451884 0.33505024542 0.33171340975 0.34145726958 
0.34410174331 0.34585592204 0.32668434318 0.32365971119 0.31744729634 0.33053331181 0.32569932589 0.33297046132 0.3390017026 
0.3361830621 0.33335307852 0.33395087199 0.33012141003 0.33091620768 0.34792435873 0.32391726651 0.32070779182 0.35176536729 
0.32999006686 0.33057528177 0.32746062341 0.32888158511 0.33225715744 0.33051183268 0.32179067359 0.31933949834 0.33174974177 
0.34219728177 0.32297137163 0.33408668581 0.33422239503 0.33359097232 0.33340170248 0.33320005175 0.33286223414 0.33228963011 
0.33138127585 0.33010615714 0.32881737176 0.3276063137 0.32678670277 0.3268783582 0.32789406197 0.32923703732 0.32022153875 
0.3193034295 0.31927977684 0.33411364953 0.31939406822 0.34082972606 0.33897762592 0.32203846808 0.32368194023 0.32496990651 
0.32679702898 0.32894713398 0.32612901378 0.32793917419 0.33144670088 0.32767185763 0.33380982434 0.33555042015 0.32185062223 
0.32127993824 0.33339878837 0.33545663449 0.33517007446 0.33479824714 0.33487978117 0.32754335805 0.32706494231 0.32948401265 
0.3296483498 0.33685172917 0.3291214427 0.32828242812 0.3353369205 0.33825372288 0.32378267807 0.33271300385 0.33312099616 
0.33170217472 0.32920449755 0.3264640347 0.32398141638 0.32445635409 0.3261878892 0.32826938907 0.33431749535 0.33051099216 
0.3310859159 0.32529219796 0.33357300732 0.33099838618 0.33252882253 0.33499895724 0.3244083004 0.32850559601 0.32789857106 
0.33600483255 0.33256302783 0.33108233623 0.32762124084 0.33588415898 0.33042563443 0.3261406057 0.33808551266 0.3364517498 
0.33423786621 0.33135804631 0.33446376703 0.33116451501 0.33229508677 0.33588642047 0.33640494824 0.33300772991 0.33678816474 
0.33401468523 0.3345408893 0.33476072979 0.3356340264 0.33685146273 0.33065967919 0.37496700941 0.28507571433 0.50013100771 
0.5101294459 0.39146537508 0.26464504894 0.23534286218 0.21628922951 0.20426802223 0.19374942994 0.18937083859 0.18186707303 
0.1807981266 0.17734328744 0.17514707514 0.17147005314 0.17166550559 0.17251749446 0.17476066757 0.18041945023 0.18619109549 
0.1917294851 0.20355188791 0.21855155668 0.22832270388 0.27158786766 0.46496353624 0.45767557846 0.27371138403 0.22059666793 
0.20855513679 0.2039417418 0.1996488654 0.19584081359 0.18759611667 0.17100946394 0.17591261353 0.1767487875 0.1775252626 
0.17496440011 0.16951523724 0.1690777727 0.17550474418 0.17689801269 0.17545124771 0.1753770377 0.17081078992 0.18981913777 
0.20069451303 0.20745156004 0.22496546922 0.22542364198 0.2428502678 0.39102039556 0.33331449844 0.33330470743 0.33334282608 
0.33346241707 0.33366031429 0.33392309692 0.33427561271 0.33474391956 0.33529844325 0.33592067066 0.336605496 0.33740658255 
0.3381967515 0.33890789495 0.33953416441 0.33996979768 0.34016490269 0.34003196418 0.33964240664 0.33893550633 0.33802547497 
0.33700910845 0.33596353238 0.33500303589 0.33419395743 0.33359302449 0.33336501106 0.33325287461 0.5662561783 0.37033856773 
0.33332269082 0.31425447211 0.30546761367 0.30124416943 0.29981124164 0.30008186115 0.30140758541 0.30343909261 0.30601401952 
0.30866320879 0.3114433296 0.31420258847 0.31696120085 0.31963571927 0.32231749164 0.32486387655 0.3271250689 0.32925628228 
0.33120414426 0.33287810137 0.3343369582 0.33550065061 0.33632366613 0.33687584675 0.33713152615 0.33703136332 0.33669136217 
0.33615326127 0.33544512927 0.33462982204 0.33382537599 0.33313983437 0.33258079352 0.33213606098 0.33191289828 0.33185463943 
0.33196188121 0.33219294695 0.33248200146 0.33280273366 0.33310657441 0.33331273107 0.33338534242 0.33335603464 0.33346604729 
0.33323337668 0.33171534643 0.32880743629 0.32499333777 0.322173988 0.32364521676 0.32827997271 0.33049014655 0.3251536207 
0.3121065066 0.29568469957 0.28132652112 0.27910132451 0.29166014093 0.3038864092 0.30939850816 0.30832236168 0.30409800391 
0.30065723595 0.30075823832 0.31010741542 0.32446391176 0.37326276526 0.53074881055 0.69089887829 0.62413957108 0.67408671005 
0.68182930792 0.67632851446 0.80386535712 0.76229935305 0.58086264107 0.64621041246 0.47996800092 0.43303647505 0.38161249309 
0.29037389045 0.46544742461 0.61640480307 0.61136271101 0.67584878566 0.70856074326 0.60146547962 0.60506265526 0.59583089791 
0.49255370928 0.49070515413 0.54717680931 0.58277563481 0.60800992164 0.33330400442 0.33330908314 0.33336175148 0.33354434992 
0.33386019931 0.33430979158 0.33493128183 0.33568165202 0.33648923228 0.33741320908 0.33836828535 0.33925519555 0.33989061257 
0.34013749485 0.33988617779 0.33923398086 0.33821920794 0.33696053433 0.3356708903 0.33453857099 0.33374017414 0.33332950137 
0.33327478584 0.53587743918 0.37684606712 0.3261808551 0.30985629796 0.30242664858 0.30017440087 0.30072762828 0.30260326846 
0.30555809654 0.3089634511 0.3122601692 0.31573268918 0.31918840978 0.32253822245 0.32566861279 0.32844717921 0.33100435535 
0.33320891631 0.3348966421 0.33608828859 0.33683905905 0.337109056 0.33697568097 0.33639544351 0.33551996759 0.33450549347 
0.33357184205 0.33277639961 0.33220085741 0.33192451144 0.33194900884 0.33221890037 0.33261222581 0.33299705646 0.33328803016 
0.33338126388 0.33336712524 0.33343385562 0.33334174272 0.33243996632 0.33020216484 0.32698825403 0.32356223742 0.32217119634 
0.32466369593 0.32969529145 0.32977316944 0.32193221831 0.30893312515 0.29363242016 0.28040161515 0.28027753221 0.29413418746 
0.30653425024 0.309621168 0.30689857345 0.30245791665 0.29980384358 0.30110215053 0.30667858909 0.32678614725 0.37279960128 
0.5702148176 0.78847460778 0.82871982318 0.83514519808 0.68533369436 0.83751999861 0.65990774555 0.6289145861 0.59393357336 
0.5465163155 0.39712492169 0.41977381741 0.39121804968 0.32356830843 0.48344985372 0.56955911759 0.49965524507 0.55825585012 
0.58974126052 0.72371365062 0.71675311229 0.59120917586 0.4884410755 0.64407083056 0.61801766388 0.53705607548 0.53021160577 
0.33335532695 0.33333260508 0.49932595313 0.53436325831 0.27513892408 0.69513500137 0.36239655872 0.37803906948 0.25055457208 
0.22043434489 0.19369752657 0.17770749597 0.16527461569 0.17574781293 0.15927578978 0.15990722141 0.15186770618 0.1490187394 
0.14710274683 0.13983517296 0.14701397156 0.1161945569 0.11642418476 0.13403559472 0.1230963244 0.12755609525 0.1249927843 
0.12316051061 0.12625222902 0.11890830743 0.13133429502 0.13329861554 0.12171588605 0.12815228063 0.12605262187 0.12637177054 
0.13033819393 0.12499936224 0.13616804138 0.11940368911 0.13172023783 0.15494996703 0.14575648485 0.15410890786 0.15424617658 
0.15780568407 0.16459895351 0.16018331024 0.172811487 0.20266243951 0.25897610384 0.12778523788 0.11462193249 0.12059302147 
0.18661026273 0.33332873516 0.33331901082 0.33332339292 0.33336195399 0.33339941152 0.33335126202 0.33346496256 0.33354068413 
0.33344830728 0.33362940774 0.33373866797 0.33359948281 0.33386188068 0.33400734135 0.33379115669 0.3341571331 0.33435593918 
0.33404831101 0.33454932774 0.33480264686 0.33439255857 0.33503449736 0.33531896333 0.33480478229 0.33559673313 0.33591240904 
0.33528311342 0.33620176453 0.33655570731 0.33582951102 0.33686026678 0.33727941653 0.33642435336 0.33758184669 0.33792598998 
0.33706008393 0.33823064085 0.33856394949 0.33765137735 0.33883384247 0.33910176215 0.3382085936 0.33927169614 0.33940785063 
0.33864215307 0.33948808748 0.33952215252 0.33892584289 0.33948191868 0.33935012302 0.3389450033 0.33919551721 0.33893127688 
0.33875681317 0.33865273218 0.33823397101 0.33833545373 0.33789848102 0.33744000858 0.33772931662 0.33703341216 0.33650858535 
0.33698028231 0.33610432748 0.33561590877 0.33611767758 0.33521112154 0.33477420909 0.33532369142 0.33442734063 0.33407356973 
0.33458308638 0.33381177275 0.33360398033 0.33396634809 0.33337385044 0.33329889895 0.33348272434 0.33332879505 0.71826439628 
0.33328451634 0.43001703387 0.49134686896 0.38220469846 0.3558584887 0.34317892332 0.38503322407 0.33211145157 0.32555885472 
0.34885087648 0.31854603335 0.31468880308 0.33191024118 0.31105006167 0.30933746688 0.32144735852 0.30740852568 0.30703410881 
0.31591842738 0.30626146073 0.30666836136 0.31304115638 0.30662903799 0.30736335761 0.31215886269 0.30739015892 0.30850892083 
0.31210577676 0.30906074709 0.31029431314 0.3126952059 0.31120066917 0.31244295303 0.31404737498 0.31331169377 0.31466009676 
0.31569989197 0.31557684973 0.31693476065 0.31742329492 0.31792635112 0.31926107 0.31927616416 0.32022741594 0.32151014914 
0.32119379238 0.32250964706 0.32383731311 0.32310174447 0.32480838145 0.3259515774 0.32503786804 0.32684746496 0.3279249638 
0.32687527071 0.32879127285 0.3298169527 0.32860184667 0.33058909064 0.33148594033 0.33022019803 0.33214479134 0.33287479132 
0.33159698649 0.33346303252 0.33413723922 0.3328284614 0.33457957902 0.33505539271 0.33385206567 0.33539636302 0.33573005824 
0.33462773843 0.33596979176 0.33618640272 0.33518033002 0.33627309525 0.33633461569 0.33550215679 0.33631781422 0.3361925451 
0.33559703866 0.33606088416 0.33585633741 0.33546195012 0.33568114177 0.33537170473 0.3351552241 0.3351248853 0.33476526999 
0.33472688082 0.33448729429 0.33406940326 0.33419950779 0.33377770827 0.33342332413 0.33363124634 0.33316912058 0.33286004994 
0.33308310539 0.33264595243 0.33239848027 0.33261995368 0.33224072852 0.33208365091 0.33225965033 0.33197967393 0.33192508827 
0.33202063978 0.33191674999 0.33192727903 0.33191940614 0.33196728257 0.3320512756 0.33195461328 0.33213878224 0.33226644082 
0.33209319829 0.33238357961 0.33253064787 0.33230453178 0.33266407817 0.33282327121 0.3325588377 0.33295060895 0.33307776052 
0.33282771795 0.33317209641 0.33325148342 0.3330548301 0.33332229103 0.33332145033 0.33321110555 0.33189497725 0.33080872093 
0.32973043461 0.32806124607 0.3302106243 0.32658219792 0.32477214615 0.32764681707 0.32335737752 0.32262595754 0.32449800153 
0.32192814781 0.32355096326 0.32209934149 0.32354748559 0.32540746769 0.32120907324 0.32434897589 0.32352925529 0.32043401228 
0.32046456792 0.31607416881 0.31661171045 0.31113277123 0.30401842403 0.30890467078 0.30036168335 0.2925070298 0.30025785938 
0.28999954759 0.28541830743 0.29411982398 0.28764892716 0.29131949985 0.29282782757 0.29682442993 0.30333174187 0.30292185203 
0.30650622225 0.31082041553 0.31243351074 0.31245169064 0.31347627603 0.31695390054 0.31354812105 0.31214198236 0.3180184822 
0.31185748324 0.3100900567 0.31751342357 0.31061627972 0.3101596181 0.31756126377 0.31278118667 0.31550024652 0.32022800356 
0.32225451533 0.32894898148 0.3291652874 0.33832729195 0.35021834638 0.34509595141 0.37261368917 0.40946234591 0.37450527488 
0.39027758657 0.37525555125 0.31957992436 0.31785831429 0.30626798005 0.36943862113 0.29262617534 0.28154794923 0.38207527808 
0.27545093971 0.2673739277 0.32150712214 0.26561090864 0.2594607622 0.30846042844 0.25950213344 0.25448360168 0.30009379786 
0.25190946612 0.25047580225 0.29369708408 0.25926025401 0.25635940675 0.32712104268 0.24894341586 0.24462981954 0.32579357457 
0.2449285093 0.24316377787 0.28650134174 0.24393273051 0.24327975189 0.28545690175 0.241817133 0.2421812628 0.28469345577 
0.24254782718 0.24702623064 0.2840183409 0.24540887427 0.2431789098 0.31693952084 0.24195440375 0.24451346704 0.28517315126 
0.24410686305 0.2466103825 0.28353192789 0.24485306447 0.2477313511 0.2860333075 0.24824800771 0.25446684529 0.28929018803 
0.26135869512 0.26187068329 0.32964654946 0.25159285687 0.25667796906 0.33263266857 0.25683747341 0.26410219464 0.30104332282 
0.26476582783 0.27452752869 0.30674318196 0.27148988524 0.28160357987 0.31408779529 0.30024671787 0.30663480857 0.36687927314 
0.32971063998 0.3415922696 0.40270360367 0.51128623422 0.45439698974 0.34958939706 0.3924059056 0.30614004813 0.32708357312 
0.34242466384 0.28320217354 0.28918543329 0.31677669922 0.27634533461 0.27701671776 0.2967775458 0.27415878501 0.2727536711 
0.28908270625 0.27319036979 0.27135666882 0.28636618629 0.27445895614 0.27053459674 0.28467057522 0.27487825519 0.27356261943 
0.2858048637 0.27780693227 0.27145904135 0.28662949425 0.27649963603 0.27919186166 0.28341201327 0.25718369635 0.26569580078 
0.28638434481 0.25304232098 0.40684286313 0.32146919652 0.26780278031 0.20074680563 0.17644135814 0.20452201336 0.2539517974 
0.21044743772 0.2334972256 0.25302890825 0.2717744727 0.25176132012 0.29113101999 0.3027358783 0.31945557108 0.32949517122 
0.30943338421 0.34342529604 0.35311448223 0.33405200044 0.36507866274 0.37707151494 0.3780171919 0.38333887265 0.36739922708 
0.38810120683 0.39071349363 0.37769493048 0.39701130805 0.3977610366 0.40240841487 0.40694625714 0.3952047049 0.33333037428 
0.38877556736 0.33303059083 0.33256564329 0.40605049505 0.35504821306 0.4395887924 0.41752807016 0.40524224743 0.34197482378 
0.27084185723 0.2807475401 0.33474959325 0.27200731051 0.2834459551 0.30011109728 0.3042058344 0.41036784126 0.38673713779 
0.38564999217 0.35677341208 0.23075695205 0.28190901725 0.38507864497 0.33195572308 0.39105735197 0.28905587862 0.45136847232 
0.33338119658 0.33344278148 0.3334917951 0.33356775955 0.3334048911 0.33363816454 0.33374785981 0.33351010635 0.33384082418 
0.33398575594 0.33365600377 0.33410744203 0.33429359019 0.33386598466 0.33446480112 0.33467947706 0.33416168118 0.3348969032 
0.33515810324 0.33453907951 0.33538817306 0.3356814142 0.33497858759 0.33595504194 0.3362708067 0.33549467257 0.33656172614 
0.33688531634 0.33610821151 0.33717290426 0.33748140441 0.3367324444 0.3377419828 0.33802332606 0.33732730273 0.338257312 
0.33844936559 0.33785628972 0.3385985918 0.33869630225 0.33828990572 0.33874023414 0.33870303231 0.33851792539 0.33862857596 
0.33847267446 0.33848737735 0.33824475562 0.33796864659 0.33818755527 0.33768536877 0.33732068301 0.33766141493 0.33697715202 
0.33654901795 0.33698841988 0.33614195779 0.33569969742 0.33614599852 0.3353380126 0.3349279424 0.33530353443 0.33459625166 
0.33423514203 0.33456011656 0.33395214081 0.33365285692 0.33393326691 0.33123327509 0.330115404 0.33329223892 0.35873038503 
0.34766391804 0.34138269773 0.33411744308 0.34665329437 0.32937681925 0.32607659592 0.33646900576 0.32291906347 0.3209771681 
0.32937067007 0.31889454194 0.3180445242 0.3249334131 0.31697939373 0.31690170514 0.32195241058 0.31636223888 0.316416743 
0.32055839418 0.31627779568 0.31675410923 0.32007469092 0.31688127124 0.31769427683 0.32016834988 0.31799792367 0.31874939825 
0.32060462311 0.31924257753 0.32013242928 0.32139064682 0.3206970477 0.32164763125 0.32244411755 0.32224834881 0.32316193354 
0.32360351212 0.32383574479 0.32477691021 0.32484625735 0.32548300349 0.3264175294 0.32620209681 0.32705472252 0.32792211587 
0.32752428602 0.32855098208 0.32939779068 0.328791182 0.32999001913 0.33071100966 0.32997848304 0.33123942074 0.33188238767 
0.33107284905 0.33232639568 0.33289681394 0.33204008939 0.33329392147 0.33373410927 0.33289570762 0.33401688199 0.33435114974 
0.33357006199 0.3345700141 0.33479996241 0.33407338 0.33493168978 0.33501479661 0.33440463521 0.33504045847 0.33503878729 
0.33454308801 0.33497006568 0.33483908602 0.33448894265 0.33471612618 0.3345424285 0.33429752973 0.33436125055 0.33411108429 
0.33397195597 0.33391099896 0.33364510737 0.33357674904 0.33343644685 0.33314619287 0.33315675841 0.33294281415 0.33269159035 
0.33273269433 0.33251113638 0.33229894204 0.3323348684 0.33215895431 0.33202336577 0.33201180412 0.33193057203 0.33183813623 
0.33178547693 0.33182330069 0.33181582489 0.33168397062 0.33186011736 0.33190658214 0.33170919156 0.33197981963 0.33207232541 
0.3318448956 0.33219629513 0.33231287719 0.33205816346 0.3324467236 0.33258434952 0.33232689558 0.3327224187 0.33285279062 
0.33261143213 0.3329820451 0.33307637223 0.3328887364 0.33318519979 0.33325163034 0.33313451933 0.38355042645 0.36203678752 
0.3514005777 0.39238566372 0.36458824029 0.36109614189 0.3288545415 0.32727626862 0.32562669115 0.32388366164 0.32686662291 
0.32135537502 0.3204173794 0.31882021476 0.3190372673 0.31810351496 0.31825335904 0.31754961975 0.31633436933 0.31476267242 
0.31199297259 0.31359927286 0.30749104045 0.30264094767 0.29434702981 0.29113965169 0.30886852285 0.3157059125 0.31907850687 
0.32217317255 0.32258704593 0.32365114563 0.32985350295 0.32323459216 0.32303240778 0.32285069817 0.32251045307 0.32765515 
0.32305571245 0.32354976339 0.32739503374 0.32503849984 0.32759128744 0.32857818448 0.32943374517 0.33603712966 0.33145709557 
0.34443278404 0.33767172393 0.34206714359 0.33494411616 0.36115381071 0.32445787712 0.3381216756 0.38862989063 0.42512420627 
0.3353814192 0.32336938339 0.34758710187 0.31647182192 0.31093721119 0.32782695827 0.3016044871 0.30033303164 0.31384118006 
0.29415239043 0.29337902303 0.30370509318 0.28874924396 0.28979792062 0.29697420242 0.28380262244 0.27795328586 0.29110561163 
0.27658613498 0.27794338824 0.28660880986 0.27866776003 0.2789893133 0.28394803654 0.27769128143 0.27677729243 0.28281674714 
0.27643125074 0.27581490854 0.28137079311 0.27620468801 0.27319792367 0.28044190865 0.27000008638 0.27268676181 0.27924318671 
0.27568008878 0.27392214789 0.28002275362 0.27805664758 0.27567935369 0.28081441603 0.27937540694 0.27736714197 0.28325919027 
0.28211975431 0.27985768266 0.28567987751 0.28161993934 0.28126012274 0.28720322282 0.28432114682 0.2916337563 0.2923140835 
0.2983663305 0.29482238594 0.29888987373 0.30571810399 0.30274825508 0.30670842234 0.31663332057 0.31158731322 0.31778444782 
0.32128171738 0.333865165 0.36019339346 0.33542443529 0.35926376884 0.32203520454 0.32670488723 0.33279492561 0.31827503464 
0.29446564939 0.29877555593 0.29027394902 0.29341177036 0.30216636029 0.28717973516 0.28956686025 0.29683351164 0.28499695405 
0.2875357663 0.29262063479 0.28812859064 0.28776131456 0.29194137461 0.28489339747 0.28607094944 0.29134800985 0.28091345527 
0.28576357294 0.28993380354 0.37187802348 0.27650256587 0.29204544794 0.37358865593 0.37906534028 0.31924345671 0.33395283874 
0.25851782828 0.26032663286 0.36510679364 0.37278608087 0.36295034702 0.33262004479 0.3319484433 0.33995157422 0.34851436709 
0.33059520261 0.28906428266 0.4153802085 0.36720444453 0.38546386809 0.31336368094 0.32244061346 0.32167980664 0.29909483346 
0.30623316385 0.31368604015 0.30636376594 0.29090939893 0.26519729314 0.28891469159 0.25841242523 0.27254641923 0.27828736139 
0.29804052682 0.31332459748 0.31404635147 0.35466708179 0.36030605459 0.34419811451 0.37838449799 0.37273436313 0.36571289485 
0.33329405084 0.33331802226 0.3333003181 0.32994179044 0.33193576654 0.33322938895 0.33298816854 0.3329221335 0.33091063529 
0.34943919173 0.36525934397 0.29671145072 0.37942731627 0.37703536283 0.3578329955 0.29149157112 0.3224052661 0.30621170607 
0.29775747565 0.29411304067 0.32728037407 0.2964231733 0.32885074811 0.35601210406 0.35753067928 0.33352266879 0.28276391085 
0.29325026745 0.29304061413 0.29880108512 0.37086561059 0.37561762588 0.36340036285 0.29597683778 0.32062336652 0.31585375101 
0.30105763063 0.31269516251 0.3554161483 0.33331810679 0.3333756076 0.33340598926 0.33348646801 0.33319269651 0.33353968643 
0.33365533059 0.33325864848 0.3337363842 0.33390020865 0.3333828792 0.33403575156 0.33424745002 0.33359927856 0.33447761815 
0.33472333678 0.33395756359 0.33499580033 0.33529320755 0.33447720404 0.33559634856 0.33592044045 0.33508216696 0.33626516295 
0.33659877644 0.3358117899 0.33694857351 0.33728013691 0.33656876453 0.33761031245 0.3378987361 0.33730268875 0.33820174441 
0.33839173544 0.33801438524 0.3385449328 0.33860999803 0.33855326317 0.33862902521 0.33854330221 0.33874118272 0.33840407996 
0.33816135947 0.33859575547 0.33785363463 0.33750616248 0.33811954195 0.33708954167 0.33667592001 0.3373287666 0.33618969315 
0.33571718419 0.33633764246 0.33524532538 0.33482292468 0.33527661732 0.3344821553 0.33409724604 0.33437044834 0.32859514918 
0.32672123601 0.33319420298 0.33325345859 0.33307098958 0.33977001464 0.33572881378 0.33324715615 0.33079197206 0.33558799144 
0.32906823019 0.3272840247 0.33216529373 0.3259345712 0.32500382513 0.32928009087 0.32415358901 0.32374259603 0.32738771855 
0.32327858341 0.32318688094 0.32629826969 0.32295370917 0.32315735797 0.32578936261 0.3230695405 0.32337421954 0.32560175181 
0.32346169733 0.32391072641 0.32571051295 0.32414589986 0.324685975 0.32603338558 0.32495807185 0.32555420109 0.32655653124 
0.32589993056 0.32654950111 0.32718878405 0.32695134861 0.32761005867 0.32795055356 0.32805831255 0.32868733495 0.32878995594 
0.3291040685 0.32970938587 0.32963837784 0.33012077823 0.3306747252 0.33045341976 0.33106021268 0.33155951888 0.33121079599 
0.33187878139 0.33232253432 0.33189923165 0.33260490225 0.3330054481 0.33250067722 0.33324795246 0.3335263246 0.33303159843 
0.33371141358 0.33390440855 0.33344687448 0.33402014528 0.33413262851 0.33371260172 0.33415615129 0.33418178354 0.33383854343 
0.33412482363 0.33406294549 0.33380928218 0.33395018728 0.33381669483 0.333637131 0.33365848332 0.33345964739 0.33334980875 
0.33325543789 0.33304963448 0.33296036056 0.33285417437 0.33263812728 0.33253942567 0.3324444064 0.33223060078 0.3321308936 
0.33205490993 0.33187224245 0.33174235087 0.33173922532 0.33160519047 0.33142473595 0.33153872846 0.33144475324 0.33122197442 
0.33143787294 0.33141898646 0.33113848276 0.33147651915 0.33152976621 0.33119450044 0.3316397984 0.33172799862 0.331371788 
0.33187496214 0.33200932289 0.33165399337 0.3321824079 0.33232543873 0.33199165301 0.33250436797 0.33265607627 0.3323599064 
0.33280508469 0.33294082919 0.33299563684 0.33270530059 0.33118279492 0.32978461456 0.31524410466 0.31554940324 0.32426837457 
0.32126518762 0.32647642714 0.33558129241 0.33826142534 0.35279834302 0.35511107585 0.34430860266 0.35817518504 0.34917526141 
0.33093793497 0.33093779649 0.33073759248 0.33153565702 0.33291127668 0.331058821 0.33270603181 0.33166864999 0.33170299135 
0.33288147528 0.3300631993 0.29827782831 0.30560345982 0.30405143488 0.29585465402 0.31776364797 0.31951202474 0.36402806395 
0.34447637044 0.3339040757 0.32624036111 0.31907835812 0.313163727 0.32567506745 0.30986550169 0.30611436649 0.31598834233 
0.30250017902 0.29942118584 0.30919760094 0.29594239666 0.29286667953 0.3014318298 0.2910183985 0.28934003417 0.29574923366 
0.28841360392 0.28788453315 0.29314736954 0.28728103436 0.28643929683 0.29178520537 0.28556874244 0.2849903913 0.29040694973 
0.28450557392 0.28435533221 0.28909007358 0.28413252926 0.28417596525 0.28823245762 0.28442796496 0.28432537853 0.28794816281 
0.28522231527 0.28576792918 0.28900913786 0.28659185292 0.28787124605 0.29068370243 0.28899665954 0.29040929118 0.29292325845 
0.29141490313 0.29310205743 0.29553437967 0.29579010185 0.29821183514 0.29917959697 0.30168236243 0.30585646143 0.30503382241 
0.31065461173 0.31467225722 0.31326757478 0.31972257193 0.32651217508 0.32345214002 0.3346294214 0.33420922512 0.33334555995 
0.34765904492 0.34222665807 0.33965248187 0.34347447117 0.3162458414 0.31640073559 0.31525825236 0.33329129832 0.30010153476 
0.30241580235 0.30626001991 0.30818768024 0.30813264748 0.34320937436 0.29086486976 0.29496915725 0.30297512644 0.33647154286 
0.33610237277 0.34008228984 0.34483727263 0.3468122074 0.35171246072 0.31733181874 0.3160569911 0.3147117789 0.31079017258 
0.31858006017 0.31054416822 0.3546919258 0.35735692644 0.34673282897 0.33503066534 0.34665305229 0.37929226842 0.37534722586 
0.36056276689 0.29304771432 0.29084851514 0.30118638554 0.33673569275 0.34284397916 0.33979787667 0.35853398632 0.35877841682 
0.35119247511 0.3321520872 0.3315255164 0.33428716405 0.32426649155 0.33155324198 0.33075924828 0.33933869974 0.33364032299 
0.33332494187 0.33349108046 0.33003752131 0.32048137795 0.37070851288 0.36609275686 0.3640094543 0.31369169585 0.31364892405 
0.33286232242 0.33213948188 0.30591513842 0.30110236844 0.30491141811 0.31102625183 0.30700940044 0.31973953405 0.31109874812 
0.3365033605 0.31562875738 0.31951775383 0.32908325892 0.30600680207 0.33315571901 0.34146077536 0.33130548719 0.33685492749 
0.35282993025 0.35808890337 0.35963188264 0.29658350301 0.29719679606 0.29560786654 0.30022406375 0.30499206462 0.30499099672 
0.33483149911 0.33207673636 0.3330119007 0.35052323381 0.36959355617 0.32141048117 0.30963527268 0.3223402165 0.36190844343 
0.3586585921 0.29609530424 0.29786846978 0.30276233306 0.33208558347 0.33078395398 0.33291497636 0.33295049049 0.33292594418 
0.33298874598 0.33255054618 0.33302602905 0.33315854862 0.33254788286 0.33330418323 0.33355165201 0.33272482815 0.33382202862 
0.33411917651 0.33315249511 0.33451093657 0.33486074764 0.33384295932 0.33527875354 0.3356898526 0.33470869864 0.33614289812 
0.33656769524 0.33567228853 0.33703283362 0.33746949556 0.3367157648 0.33800848808 0.33839680591 0.33779702011 0.33878525708 
0.33899551544 0.33888114314 0.33914394242 0.33915607641 0.33945239024 0.33913037434 0.33895837202 0.33958890717 0.3386734996 
0.33828785881 0.33921695206 0.33771107285 0.33718153594 0.33827727088 0.33644129841 0.33582886027 0.33686472388 0.33522277027 
0.33467805419 0.33533696545 0.33393860592 0.33353634849 0.33380249262 0.33007537958 0.32747596325 0.3331529506 0.36166300677 
0.35085286376 0.3602439453 0.33428176434 0.33344862617 0.33340502584 0.33191426494 0.33131579749 0.33021152157 0.33194515206 
0.32968923248 0.32907633926 0.33107849587 0.32866901663 0.32831677119 0.33038986337 0.32803037422 0.32794335714 0.33001511103 
0.32772843129 0.32776951077 0.32970695152 0.3277402636 0.32777877401 0.32958821099 0.32782985921 0.32801397731 0.32959138617 
0.32812754054 0.32839757737 0.32971558325 0.32851267501 0.3288875522 0.3299728389 0.32904691617 0.32943446132 0.33028021962 
0.32962053559 0.33004112917 0.33064480682 0.33022807964 0.33062400819 0.33101926263 0.33084893008 0.33123918735 0.33141594438 
0.33144441126 0.33180601581 0.33184293089 0.33200941037 0.33230571882 0.33224205673 0.33248446511 0.33276837121 0.33260793761 
0.33292301324 0.33316705172 0.33294124441 0.33328218263 0.33345112702 0.33321606735 0.33352345898 0.33361061101 0.33340356945 
0.33362179262 0.33363087072 0.33346558146 0.33356876938 0.33351238504 0.33339217437 0.33337608575 0.33325866514 0.33317711563 
0.33305611362 0.33287935134 0.33282805331 0.33263755366 0.33241229011 0.33236310587 0.33217756183 0.33196931806 0.33185260462 
0.33174249276 0.33152965977 0.33136703265 0.33134402969 0.33115675589 0.33092738389 0.3310408582 0.33090873486 0.33061011445 
0.33081805812 0.33075872321 0.33039282378 0.33071091955 0.33070177869 0.33027044343 0.33079565061 0.33086503681 0.33033079424 
0.33103860648 0.33116478906 0.33061341345 0.33137027944 0.33153572714 0.33102115129 0.33179437726 0.33198219836 0.33151226598 
0.33224139348 0.33243643445 0.33205354426 0.33409069777 0.34138568379 0.32456774973 0.35995271429 0.35298834116 0.33508460818 
0.33879450432 0.30942715261 0.30818141248 0.3272560107 0.33194807035 0.33156149866 0.32714273047 0.33105531569 0.33155950211 
0.33063299447 0.33198921421 0.32816996321 0.32702811031 0.32726994695 0.34529656184 0.33631859557 0.34667464051 0.33698333394 
0.33589310425 0.33590212298 0.31514813431 0.31162374237 0.30699347415 0.30344168255 0.31333607388 0.3009310192 0.29913585287 
0.30647911088 0.29902116453 0.29805547448 0.30380366846 0.2970217401 0.29626488887 0.30257961419 0.29514501442 0.29433920984 
0.30041488393 0.29361066555 0.29312291767 0.29845668239 0.2929840033 0.29276511354 0.29758475234 0.29281944463 0.29300352366 
0.29751574753 0.29321285248 0.29388389061 0.29780280681 0.29466340165 0.29559507651 0.29877228962 0.2969187266 0.29819812645 
0.30088721731 0.29962665678 0.30112902798 0.30370472382 0.30305822539 0.30552004657 0.30714892542 0.30813824454 0.31147418523 
0.31172219086 0.31521168838 0.31968214454 0.3178984968 0.32458909118 0.32987114851 0.32636915714 0.31189351732 0.31562265439 
0.31286588399 0.30951994782 0.31446496021 0.31101862621 0.3166860137 0.31914189113 0.32392140214 0.32554027899 0.31536780703 
0.33294655079 0.33295623849 0.33264388892 0.32858174972 0.31218304696 0.31615750648 0.31980357791 0.34150257687 0.34437579329 
0.33701124608 0.33297679219 0.33298677624 0.3327479239 0.33283227438 0.34013278228 0.33858085944 0.34630222496 0.34799737704 
0.34159460207 0.30831092477 0.31033707363 0.31566927561 0.31439170671 0.35557462441 0.36021604021 0.35304765996 0.33607549045 
0.33406875154 0.33342443026 0.3308952767 0.32555533752 0.33252598578 0.32118608444 0.33642481242 0.33535896808 0.30783277167 
0.31498081925 0.31384613068 0.33266823737 0.35954760261 0.35909637699 0.35427109607 0.33935172515 0.31638228073 0.31514791558 
0.31943573214 0.33669975903 0.3479094289 0.348067847 0.32374016495 0.32166306297 0.33534639372 0.3303576695 0.34526436216 
0.34290792749 0.34354828979 0.34885704321 0.34890914777 0.35012980714 0.34491017639 0.32245805354 0.31899043859 0.30919950797 
0.31018835967 0.43346854823 0.48745148997 0.31414929946 0.33218427269 0.31470282848 0.32130062698 0.31735142155 0.33256597871 
0.3333785748 0.33247482207 0.33348080783 0.33425852964 0.33579063865 0.33549793941 0.33194335734 0.33195924999 0.33192721832 
0.33207146722 0.33129623575 0.33229006403 0.33258923289 0.33147496759 0.33307759544 0.33353295595 0.33220577277 0.33414264898 
0.33460964968 0.33333803813 0.33521732898 0.33582207944 0.33470061013 0.33635671179 0.48258665324 0.33777126279 0.33852792417 
0.33697197563 0.33917841096 0.33961779822 0.33927537386 0.34009341312 0.3402913045 0.34045552532 0.34026164095 0.34021962855 
0.34099010156 0.34028130254 0.33994816118 0.34108785518 0.33710267523 0.3361821493 0.33495501248 0.3582643352 0.3541267528 
0.35443680211 0.32117370589 0.32343625515 0.3314798533 0.33113116276 0.33145366432 0.3310666996 0.33047318497 0.33137480225 
0.33106038357 0.33124735331 0.33122744759 0.33108780886 0.33173863128 0.33108627144 0.33107951559 0.33204937959 0.33103726956 
0.33107671569 0.3322305959 0.33109837685 0.33108852992 0.33234658412 0.33113994723 0.33120320143 0.33241455034 0.33125041377 
0.33138834308 0.33247426539 0.33135506607 0.33154985107 0.33252605534 0.33154587337 0.33169841508 0.33253300327 0.33175335159 
0.33192220304 0.33255998952 0.33199439628 0.33220794209 0.33267757389 0.33226197639 0.33246503184 0.33281048895 0.33252053387 
0.33271171149 0.33291564337 0.33277329676 0.33293593825 0.33303502588 0.33300094956 0.33315461266 0.33315661899 0.33320803751 
0.33332354751 0.33327667012 0.33335210136 0.33341163075 0.33336019037 0.33338277587 0.33337703268 0.33334636327 0.33327822023 
0.33320130578 0.33321665686 0.33303065744 0.33287914351 0.33293479309 0.33263246756 0.33241420992 0.33249472167 0.33208127209 
0.33180890576 0.3318872211 0.33147189139 0.33121340141 0.33117695738 0.33094536201 0.33069197983 0.33053336001 0.33043381589 
0.33022417817 0.32996741069 0.33005693475 0.32992842685 0.32952491329 0.32995482898 0.32986807947 0.32935263046 0.32966985894 
0.32963606823 0.32917390417 0.32973948842 0.32984434164 0.32911122522 0.33012603873 0.33031932678 0.32950948914 0.33063351055 
0.33086572595 0.33014444342 0.33122538812 0.33150966975 0.33085140684 0.33189449328 0.33217226475 0.33163167805 0.33794338147 
0.3336606492 0.33185522028 0.3314012762 0.32966244967 0.33250330463 0.35061541069 0.34997080475 0.32993448909 0.33247991499 
0.32689140607 0.32675197415 0.31881772651 0.33195177112 0.32952270183 0.32629202139 0.32346388803 0.32583036159 0.34729054521 
0.34225292154 0.34533448573 0.3409554551 0.33915903143 0.33236863257 0.33230028208 0.30931013278 0.30897464856 0.30798630398 
0.30693180177 0.3133107902 0.30585958467 0.30468135598 0.31142933597 0.30299722261 0.30222533594 0.30846978123 0.3024310613 
0.30227291822 0.30693122805 0.30258575914 0.30262520246 0.30738983971 0.30302009678 0.30322542003 0.30808120246 0.30260868489 
0.30339446348 0.3077761369 0.30502327331 0.30639320206 0.30880994446 0.30756424504 0.30902023385 0.31166750225 0.31057929825 
0.31251378557 0.31431803317 0.31438076119 0.31682456323 0.31768902793 0.31942953914 0.32267842391 0.32184588166 0.32566511544 
0.3300751455 0.35057957171 0.32519790011 0.32794243455 0.32920095608 0.32593770412 0.33213921234 0.33207278969 0.33149813006 
0.33448755059 0.33684398825 0.33269808867 0.32159294677 0.31983129828 0.33873346449 0.34079131094 0.33633570152 0.31282095001 
0.31514176088 0.33702766855 0.33497402316 0.33255315362 0.33786423417 0.33502276662 0.33296303574 0.33764377216 0.33518454595 
0.33925553249 0.33849214514 0.33801031847 0.34017734284 0.31998909461 0.32342368483 0.31885213381 0.31952012011 0.31603887224 
0.33346092977 0.33046431292 0.33491645797 0.33952001624 0.32340323664 0.31923454434 0.31875818731 0.35071624467 0.35144999162 
0.34718437449 0.31919224019 0.31840875784 0.34534427812 0.34273651477 0.34160639731 0.32288944113 0.3221770774 0.32495578483 
0.34236716178 0.34390597063 0.33976167386 0.33183163759 0.32695552805 0.31149278689 0.32607798898 0.39234310532 0.32021995017 
0.31625198106 0.3115939113 0.31703272223 0.31447026982 0.33732828966 0.34021657733 0.35058033532 0.35053332723 0.34780860814 
0.33037133268 0.33059645109 0.33266315766 0.33335935187 0.34123977581 0.34182941509 0.34203252862 0.34227109681 0.33910313529 
0.33574360482 0.33334376361 0.32761810637 0.32681106139 0.34255076484 0.34166028459 0.34149221106 0.34399102555 0.33028927504 
0.33072983633 0.33167740622 0.33183291947 0.33052928142 0.33243268466 0.33258436488 0.33208420687 0.33288815108 0.33304794651 
0.33309606565 0.33322633037 0.33332941155 0.33377482236 0.33343048258 0.33345638841 0.33417672815 0.33352319376 0.33353117215 
0.3343679311 0.3335863888 0.33358824411 0.33444870124 0.33346474427 0.33347770926 0.3344093858 0.33325350591 0.33325738879 
0.33408841612 0.33335914086 0.33340469531 0.33396142175 0.33335672223 0.33340804504 0.3339592367 0.3333015817 0.33336274645 
0.33378928341 0.33328883755 0.33335040965 0.33362029551 0.33331103882 0.3333617429 0.33352796915 0.33335207562 0.33339777439 
0.33346745136 0.33337243243 0.33339578226 0.33342499972 0.33332474264 0.33329808684 0.33333514014 0.33317287294 0.33306970817 
0.33314310921 0.33287177509 0.33268114281 0.33282497894 0.33237796027 0.33209692972 0.33229712996 0.33161720218 0.33124760087 
0.33145307008 0.33074238531 0.33037241609 0.33044260207 0.32997143422 0.32966726708 0.32948211525 0.32948907052 0.32920534965 
0.32886196584 0.32876861849 0.3285764417 0.32821525622 0.32863613746 0.3286640898 0.3278487273 0.32845961672 0.51247936205 
0.47464452978 0.328146108 0.32827335146 0.32752084902 0.32886254597 0.3291813607 0.32790852446 0.32961970523 0.32996864357 
0.32900003822 0.33049748056 0.33089292211 0.33000430251 0.33142360785 0.3274073492 0.32546842457 0.32862559415 0.31743976972 
0.34750575342 0.34507629228 0.34186556984 0.34024961714 0.34494340969 0.34292693046 0.32901801801 0.3258733836 0.31376363445 
0.31204269127 0.31222247562 0.56309067546 0.58867552601 0.31160335663 0.31178452453 0.31649051871 0.31321178157 0.31354737192 
0.31717002686 0.31314979886 0.31256421134 0.31820230355 0.31412214772 0.60447331962 0.54216170817 0.31520800322 0.31631249436 
0.31871797724 0.31738641674 0.31877731849 0.32066947623 0.32002296722 0.32166586556 0.3228498194 0.32335136614 0.3441150023 
0.34827034705 0.32161021817 0.32255151527 0.32526779555 0.33523127832 0.33698592414 0.33230545656 0.33388109868 0.3346867831 
0.33110936498 0.33092670482 0.33112036707 0.33169869434 0.33151858841 0.33000747828 0.3375734168 0.34209403617 0.64003499157 
0.56694149578 0.32252924512 0.32952876762 0.33098978211 0.33224768424 0.34047310133 0.32739917433 0.32679995405 0.33057857575 
0.33049271068 0.3301692806 0.32920557639 0.34593533394 0.32643242969 0.32565868736 0.32874974708 0.34454988088 0.34579537438 
0.34239011155 0.31538399279 0.31903509718 0.31646676736 0.33061368311 0.32905247787 0.3386538093 0.33636401874 0.34245574366 
0.34057465537 0.31713443489 0.31990038164 0.32078656044 0.32414529003 0.33867484632 0.32611851841 0.32441694439 0.34998716619 
0.32500842707 0.32133906675 0.3254677317 0.32726892109 0.32836786006 0.33023788632 0.32958820873 0.34395477262 0.32625134571 
0.32870967027 0.32555854536 0.32931929411 0.32508314718 0.3282069115 0.33272306719 0.33408596403 0.34044307866 0.33348508305 
0.32331273053 0.32958962252 0.3271397203 0.32902290963 0.32329668521 0.3222746724 0.32875698631 0.32986938478 0.3284923731 
0.33132893237 0.3319149982 0.32951042875 0.33291074486 0.33335486446 0.33199015088 0.33390588884 0.33426384227 0.33360778054 
0.33466522542 0.33479401656 0.33474489357 0.3349946864 0.33504700962 0.33533108596 0.33517054152 0.33518512955 0.33566283468 
0.33518363794 0.33508186354 0.33575380328 0.33481528419 0.33457135433 0.33544513995 0.33464493994 0.73544228165 0.58561959015 
0.33443771668 0.3343964853 0.33501875603 0.3341524834 0.33407295685 0.33457840286 0.33385748371 0.33381291613 0.33414129458 
0.33366541046 0.33363006949 0.33384519568 0.33354346422 0.33350777631 0.33362077985 0.33340380204 0.33335070239 0.33341367477 
0.33324303615 0.33317843357 0.33313307276 0.33309016894 0.33297926636 0.3329605606 0.33272920028 0.33250422583 0.33263546982 
0.33227108427 0.33192024353 0.33213608958 0.33135592934 0.33080782442 0.33128929539 0.3297797559 0.32917609688 0.32956037462 
0.32876576342 0.32834951311 0.32801103294 0.32769014861 0.32751694522 0.32687880004 0.32701102996 0.68166243549 0.68587147608 
0.32670464224 0.32679424488 0.32584944199 0.32148620058 0.32009765737 0.32515066096 0.32374404493 0.32856504088 0.32753294612 
0.32644219574 0.3288202461 0.33176792924 0.33948376109 0.33916740243 0.31894463814 0.32229742422 0.32862945464 0.33732810866 
0.33843943285 0.33998762292 0.32691040484 0.32521531403 0.32508224383 0.32766860048 0.67953860697 0.58864929692 0.32488173389 
0.32599548416 0.33892002079 0.33737192837 0.32684982908 0.33521955735 0.33152741564 0.34533412997 0.34183898668 0.34298305598 
0.65649443632 0.74802550212 0.32740347574 0.32614676894 0.32644161126 0.32812865143 0.33057120143 0.33017808246 0.32775377977 
0.33810165899 0.32426509517 0.32739871643 0.32333405217 0.3208105377 0.32198852932 0.3242292523 0.32375979463 0.29842516742 
0.32225308241 0.32316543449 0.32656822725 0.33577784491 0.32672050906 0.32602432505 0.33110086794 0.33188419172 0.33522380583 
0.33623915423 0.32357597846 0.34537489318 0.33016182274 0.33072108266 0.33215568788 0.33285177772 0.33385908003 0.33540936866 
0.32740854575 0.32952152677 0.32783767739 0.33342854498 0.33060357185 0.32916473455 0.32401585306 0.32894558252 0.33606528561 
0.33583004675 0.33542279364 0.33525727075 0.33595641852 0.33489387697 0.33460358513 0.33515992113 0.33342331964 0.33330947679 
0.33091796839 0.33149815958 0.33015927587 0.33143942109 0.32950270773 0.3290467048 0.33125413105 0.34105060144 0.34007217999 
0.33868074671 0.33748520394 0.32730007704 0.33675178847 0.3346097787 0.33771875699 0.33755513438 0.32939569046 0.32953478024 
0.33134567258 0.3306936516 0.32874024365 0.33085108318 0.3318900232 0.32856352318 0.32143607368 0.33216749873 0.33281692743 
0.33529773351 0.33306522413 0.33382364211 0.33186913519 0.33444974718 0.3349217558 0.33391737609 0.33545321652 0.33573157206 
0.33518668266 0.33592586552 0.33607068259 0.33599445235 0.33621009598 0.33621978382 0.33649465617 0.33647047672 0.33443917877 
0.33432869585 0.33410826153 0.33381675495 0.3336861581 0.33385765033 0.32868606563 0.32972819684 0.33285272416 0.33274435338 
0.33247670204 0.33237291664 0.33212904984 0.33179282129 0.33326491964 0.33001402142 0.3376001969 0.33670129948 0.33126534104 
0.33638362375 0.33718484227 0.33686615705 0.33372347704 0.33452211015 0.33519792164 0.33479608976 0.3320530053 0.33318279672 
0.33267727475 0.33314189396 0.33419878545 0.33432261678 0.33281952932 0.33592440014 0.33548867159 0.32561165707 0.32474887729 
0.33535524303 0.3363254645 0.33128070453 0.33252811936 0.33335000337 0.3345664765 0.33518478671 0.33615335082 0.33642441176 
0.33660732129 0.33556428998 0.33394651859 0.33361864339 0.33152219356 0.33338208491 0.33683554166 0.33681333606 0.33179556433 
0.33207190404 0.3325014041 0.33697278081 0.33277224737 0.3362143763 0.33333791844 0.33332165739 0.33331744436 0.33342876252 
0.33337113747 0.33334712724 0.33363812385 0.33351559022 0.33348859714 0.33393697717 0.33376270613 0.33368873794 0.3343886259 
0.33412791344 0.33397460253 0.33495985922 0.33462716747 0.33437927867 0.33565209515 0.33527424398 0.33490934696 0.33638535292 
0.33598410031 0.33552879868 0.3372474329 0.33677105493 0.3362211655 0.33806715514 0.33763305755 0.33698875034 0.33880009502 
0.33841484935 0.33771950194 0.33926272754 0.33905648996 0.33832688333 0.33936646463 0.33936885947 0.33870791361 0.33908991214 
0.33929650932 0.33873406482 0.33841637638 0.33883884461 0.33840493286 0.33745999673 0.33800502554 0.33776400747 0.33632838922 
0.33696507411 0.33687959632 0.3352252925 0.33581210989 0.33585441538 0.33429017534 0.33477030044 0.33487290583 0.33363739569 
0.33394279208 0.33406090232 0.33331782893 0.33343466566 0.33348644735 0.33330718116 0.4120018951 0.37706788986 0.40804656487 
0.3398214484 0.35766121128 0.37515841847 0.32036444413 0.32662679918 0.34423992837 0.31138617608 0.31405222751 0.32663793282 
0.30796556177 0.30843442153 0.31772694138 0.30746112079 0.30695040166 0.3140493339 0.30854723834 0.3074695797 0.31296709308 
0.31082957824 0.30922571429 0.31357140463 0.31328450934 0.31176547482 0.31514454341 0.31581232048 0.31419477879 0.3168264624 
0.31862606786 0.31693345555 0.31875718212 0.32151128092 0.31987826984 0.32105793127 0.32432873037 0.32272728862 0.32343962668 
0.32685838423 0.32542971915 0.32566401777 0.32927287087 0.32799169296 0.32785045186 0.33142793836 0.33022137179 0.3298670588 
0.33319452871 0.33223982331 0.33160804457 0.33456416512 0.3338628925 0.33306322829 0.33551531296 0.33504781315 0.33418099282 
0.33608378295 0.33582988618 0.33496272707 0.33623040043 0.33619754139 0.33536660584 0.33600475932 0.33617923338 0.33541588458 
0.33544781008 0.33580591354 0.33517527959 0.33469525009 0.33516016761 0.33467690099 0.33388177905 0.33435878989 0.33405845725 
0.33312549502 0.33353588687 0.33337977482 0.33250825687 0.33284733636 0.33276160303 0.33209249243 0.332305555 0.33229558138 
0.33194747286 0.3320081121 0.33201624976 0.3320398855 0.33196218641 0.33194754671 0.3323058143 0.33214145602 0.3320788607 
0.33265485569 0.33246169112 0.33234269 0.33298650595 0.33281935237 0.33267105801 0.33322359331 0.33311621275 0.33297550399 
0.37822922708 0.33292195074 0.3331131974 0.33167790053 0.33245129176 0.33234357212 0.32958026954 0.3309320861 0.33117422952 
0.32675092943 0.32841272772 0.32928254735 0.32396774498 0.32537479068 0.32673862748 0.32344522777 0.32161809806 0.32449481154 
0.32330116262 0.31992688717 0.32103353599 0.32292792878 0.31874296272 0.31327397955 0.31792275734 0.31404874064 0.3029236058 
0.30899027297 0.3068769478 0.29286419078 0.29830734494 0.29764792469 0.29316798279 0.2884375576 0.3069659052 0.299775417 
0.30680103833 0.31295838285 0.30957079788 0.31623112502 0.31331557331 0.31343608493 0.3182818541 0.31132847987 0.31314519642 
0.31797682073 0.30943599106 0.31095184678 0.31710103352 0.30995396335 0.31002237288 0.31708586742 0.31420592786 0.31245065497 
0.31977759146 0.32757916798 0.32023821179 0.32746908993 0.35524235645 0.33857598254 0.34312535713 0.40704716829 0.36643811956 
0.36719756494 0.45972312958 0.33839272264 0.36300000055 0.29262875041 0.31620681577 0.37210417327 0.27934841146 0.29316100478 
0.33955939898 0.26676381559 0.27480774643 0.32647171047 0.25933205723 0.26593472869 0.31413665896 0.2624335684 0.25872383728 
0.30517712266 0.24710138659 0.25154259681 0.28746810965 0.24785293127 0.25564559771 0.28435307998 0.24523752467 0.24667524486 
0.29274990723 0.24368126908 0.24498708253 0.28964855434 0.24380700358 0.24376138058 0.29084198704 0.24662559595 0.24881040058 
0.28835575931 0.2470277611 0.24658808949 0.2903152057 0.25007781339 0.24750500044 0.29482915884 0.25778719651 0.24868352136 
0.2977185661 0.25452226154 0.24929304914 0.28704439184 0.2640624642 0.26616721246 0.29160781653 0.27146640474 0.26396309088 
0.30754126309 0.28923171806 0.27546213246 0.31967931538 0.31455332415 0.29166585912 0.33374466543 0.4730607046 0.5403297336 
0.40989857341 0.35025730827 0.3227220117 0.30487192138 0.34517963856 0.29086494329 0.28739451141 0.31550402147 0.2784173464 
0.27717595943 0.29878508032 0.2721415065 0.27383276631 0.28867491121 0.27150208402 0.27352952889 0.28486708132 0.27127397578 
0.27451026664 0.2834999206 0.27178731388 0.27495333796 0.28292842312 0.27466863541 0.27583992278 0.28427123259 0.27585595092 
0.27587659291 0.28369071893 0.27351522313 0.25128716572 0.27512229988 0.25286548612 0.33601718717 0.42581676304 0.20700469113 
0.24830770798 0.20354716459 0.17824727492 0.25342192143 0.24051462325 0.21717869413 0.27552501072 0.26107826388 0.25503633913 
0.3057936546 0.29383902466 0.28398173905 0.33336838749 0.32236403998 0.30998105235 0.35407513225 0.34783278063 0.36423922208 
0.36230506962 0.34938973582 0.38424432983 0.37752493476 0.39397098305 0.39292460894 0.38692042078 0.4061121076 0.39953645377 
0.38881455765 0.40360076061 0.40329368119 0.33332446645 0.33327840576 0.33330758207 0.32121509152 0.32281285138 0.32297998203 
0.29486893314 0.28612541741 0.28987600893 0.29342238544 0.48975269847 0.38560236819 0.45435089157 0.41495295498 0.36898889928 
0.4704142418 0.3375091871 0.39305956808 0.40408868541 0.37334984379 0.28693923135 0.26339580938 0.23291690205 0.24430204606 
0.36446849333 0.28574608075 0.26683797633 0.3142187481 0.33148660766 0.37125337862 0.38438542581 0.2895247929 0.34253080364 
0.33321088623 0.3579550179 0.33347629853 0.33339477852 0.33331136581 0.33325165036 0.33315038388 0.33328209803 0.33384828006 
0.33368844882 0.33419144434 0.33397620044 0.33364052404 0.3346806346 0.33438285123 0.33393806395 0.33528575912 0.33496213272 
0.3344024599 0.33599263023 0.33560922084 0.33502494867 0.33677034375 0.33636811094 0.33578577219 0.33754726372 0.3371626279 
0.3366317797 0.33821729358 0.33792012389 0.3374739906 0.33858525549 0.3384601559 0.33817287145 0.33856170063 0.33863820413 
0.33853945146 0.33815660141 0.3384235205 0.33845003707 0.33737494939 0.33780053453 0.33791624426 0.33641127005 0.33693256246 
0.33703201309 0.33535320323 0.33590272552 0.33594421321 0.33432549104 0.33482655627 0.33479359344 0.33343002617 0.33382472064 
0.33367711686 0.33290659281 0.33310924781 0.33280959367 0.30933907415 0.31243224822 0.32892822602 0.33495974715 0.34080935022 
0.3525914719 0.34001884642 0.35569989443 0.37084249211 0.34569790978 0.35065201678 0.32199692864 0.32495599746 0.33142646678 
0.31856105833 0.31971814489 0.32535638634 0.31761915825 0.3176845704 0.32239849519 0.31809807414 0.31746552431 0.32157785584 
0.31892876658 0.31806092788 0.32156587338 0.32010236541 0.31928459042 0.32199382374 0.32171263067 0.3206883752 0.32294371252 
0.32349220385 0.32233848954 0.32413522393 0.32530182972 0.32415697134 0.32538075046 0.32711322802 0.32607000092 0.32678594842 
0.32893645295 0.32786349604 0.32828333145 0.33057078925 0.32967132413 0.32975131446 0.33196811393 0.33118129702 0.33103421227 
0.33313075232 0.33248763928 0.33215414963 0.33400453263 0.33353868454 0.33308423741 0.33458070306 0.33428272196 0.33376939623 
0.33485291479 0.33474633632 0.33419623105 0.33481211847 0.33484396513 0.33433919715 0.3344902905 0.33468776456 0.33422701043 
0.33402432512 0.33430701938 0.33390122482 0.3334209729 0.3337483651 0.33341054875 0.33280687033 0.33313810425 0.33283877037 
0.33232724719 0.33259530082 0.33232950189 0.33196207223 0.33215287007 0.33193244131 0.33179936519 0.33189067407 0.33168579459 
0.33185094036 0.33183083595 0.33163899658 0.33205184978 0.33194045215 0.33176588941 0.33234806804 0.33219434018 0.33202498237 
0.33270060318 0.33253144213 0.33236898851 0.33300392074 0.33286615208 0.33273501486 0.33305866167 0.32943094812 0.33064031533 
0.31864197231 0.32026586943 0.32636216226 0.32783109446 0.329215171 0.31574950328 0.31696582511 0.31177786101 0.31767728803 
0.31729611708 0.31598114361 0.30143164408 0.30571863219 0.30442033284 0.32543177294 0.32362120675 0.32264029715 0.31528225483 
0.3336577816 0.32285216914 0.32331814452 0.32249822815 0.32286741439 0.32757162899 0.32360836775 0.32310106971 0.32747453273 
0.32687819703 0.32478016296 0.32855033646 0.33592665158 0.32931522169 0.33175950259 0.34936797551 0.3385471067 0.33690215053 
0.3621703142 0.34944872763 0.34156879663 0.33331609801 0.32201833568 0.43013875222 0.38674500786 0.31286645567 0.31873495747 
0.36366604786 0.30193992596 0.30269549376 0.31283451503 0.29263013644 0.29382343122 0.30220179886 0.28327171508 0.28421290855 
0.29397460408 0.27914152819 0.28074339916 0.28950352568 0.28073817742 0.2805162907 0.28535529466 0.27858254925 0.27902307412 
0.28369610043 0.27869696625 0.2785168465 0.2823968827 0.27555576371 0.27643731724 0.28194336819 0.27802843991 0.27749249583 
0.28321794168 0.28168565111 0.28207565598 0.28438834927 0.28390537385 0.28468819072 0.28612545816 0.28430726183 0.28367181985 
0.28894752134 0.2887917481 0.28748790492 0.29404409841 0.29711484063 0.29397347834 0.2999769465 0.31049614954 0.30787199295 
0.30837756816 0.33197046451 0.31814598126 0.32178054496 0.34386701458 0.38811194251 0.43471551205 0.38718436385 0.26150740028 
0.25756664121 0.3235889281 0.31504905302 0.30918126828 0.30297962836 0.31530849715 0.29869271233 0.29380812546 0.30610777767 
0.29443692675 0.29235782555 0.30107933393 0.29136622478 0.29005279614 0.29848999016 0.28824505967 0.28654411867 0.34340459011 
0.33102947182 0.26873425361 0.29017800271 0.28620179407 0.29586114899 0.28043805082 0.27538802922 0.26088345392 0.28474810969 
0.36457607075 0.35619515107 0.34870717365 0.34040052598 0.34612748396 0.37399945417 0.37028444332 0.37059922727 0.36637309783 
0.3564822833 0.36174160389 0.33361908512 0.33351548661 0.33339330242 0.33347160538 0.3240600581 0.32415507566 0.32889122897 
0.33441818756 0.32942990908 0.32205026954 0.3199885848 0.31568999007 0.36059647812 0.31673796989 0.30141894344 0.2995129997 
0.36964872363 0.37094861657 0.36235505782 0.34385771068 0.3316173753 0.33147098831 0.34847507629 0.33004706111 0.31514161351 
0.37418830226 0.36681191248 0.36165415989 0.32244828559 0.32423359665 0.33302287352 0.33216562893 0.33260397483 0.3020955255 
0.29637024071 0.32423499904 0.29746119207 0.29645521731 0.3316159786 0.29161333768 0.29207160134 0.29267583181 0.2992562105 
0.32065448694 0.31554593971 0.33156264823 0.36095723116 0.32905777941 0.35240107153 0.38006176939 0.27770523596 0.28632164983 
0.37120507858 0.37772119094 0.35148398923 0.28026075366 0.29130268888 0.28745603991 0.29209308167 0.29596316074 0.28881623818 
0.28828204512 0.28580443444 0.29124824433 0.32508264029 0.33206021997 0.33191425854 0.30242675728 0.32697221247 0.29403436347 
0.2886803058 0.29024119551 0.32151919 0.31753686397 0.3339955746 0.33370450336 0.33328732034 0.33318916272 0.33467189967 
0.3343062384 0.33358117657 0.33556918743 0.33512034242 0.33440343356 0.33659138805 0.33609714082 0.33549833696 0.33769317344 
0.33719163802 0.33677673381 0.33852649539 0.3381957882 0.33802884479 0.33890348491 0.33881708441 0.33896795716 0.33871164854 
0.33888605409 0.33928487314 0.33792806803 0.33839054198 0.3388983722 0.33676069361 0.33733210178 0.33783936754 0.3354024425 
0.33605234392 0.33636650173 0.33421117115 0.33483918272 0.33490713277 0.33286995125 0.33345756838 0.3333888149 0.3147108535 
0.31483592537 0.31485277767 0.31488060852 0.33322492041 0.33314368943 0.33298821026 0.38396601586 0.38355832093 0.33119311821 
0.33468006823 0.34258998007 0.34675573335 0.33605459335 0.32470498535 0.32471950273 0.32444807577 0.3243728466 0.32712491714 
0.32475583003 0.32440389077 0.32695199965 0.32543273166 0.32493310869 0.32707000555 0.32630720603 0.32570490558 0.32748226355 
0.32726547933 0.3266420135 0.32811551758 0.32836920343 0.32763656573 0.32882035278 0.32952228277 0.32880852857 0.32962116655 
0.33064821576 0.32996821056 0.33046806963 0.33160693528 0.33104658764 0.33128415865 0.33248887592 0.3319752043 0.33201951859 
0.33318262949 0.33278536528 0.3326684019 0.33368092052 0.33341889202 0.33319163807 0.33395629133 0.33382904081 0.33354581587 
0.33398496803 0.33398827206 0.33368200245 0.33377546199 0.33389195712 0.33360369434 0.33337945354 0.33358656462 0.33330799287 
0.33282156711 0.33310785539 0.33281644923 0.3322533369 0.33254076771 0.3322436099 0.33178239872 0.33200804877 0.33169407361 
0.33143806271 0.3316015019 0.33124281914 0.33129913236 0.3313703161 0.33099752439 0.33137998943 0.33135074467 0.33099206935 
0.33162390076 0.33151597607 0.33118441805 0.33196262616 0.33180021312 0.3315218252 0.33237683068 0.33218125445 0.33194748208 
0.32215988378 0.32717332682 0.32522983574 0.32590802205 0.32764873227 0.32898501117 0.33075138943 0.33353087022 0.33335645016 
0.33286445674 0.33308888398 0.33611004153 0.3379137199 0.31651285408 0.31401566443 0.33105520045 0.33101458739 0.3315840406 
0.33206405052 0.33419472807 0.33325882911 0.33097893264 0.33557464302 0.33267510545 0.33086926628 0.3322544757 0.33222708067 
0.32762615882 0.33014004697 0.29654853907 0.29962277122 0.31512996234 0.32090738566 0.29250348124 0.29464846042 0.30016566154 
0.28910704504 0.29048720166 0.29616758748 0.28735695402 0.28798566701 0.29310701109 0.28627177017 0.28684671122 0.29133380512 
0.28644227977 0.28624122604 0.29081030796 0.28739315594 0.28692946984 0.29121057506 0.28907028017 0.28816061322 0.29244072935 
0.29132662645 0.29016122151 0.29446442547 0.29490320225 0.29280952288 0.29731831628 0.29997284078 0.29745162953 0.30132078779 
0.30650222495 0.30295634801 0.30680743533 0.31501814404 0.3101153594 0.31358437619 0.2912027602 0.29171432856 0.29712777989 
0.32487344792 0.33301122395 0.33423558282 0.33934224568 0.33618427491 0.30634509562 0.3054821055 0.32882000166 0.30370533996 
0.30846885067 0.31679577889 0.30614783232 0.35561532721 0.35561692211 0.3674906262 0.34533310904 0.33119388201 0.33066597266 
0.3326214158 0.33173377506 0.35633103293 0.37628862216 0.36628777812 0.34200323541 0.3428556828 0.34541023436 0.33640885078 
0.34140251614 0.33789673042 0.33527864554 0.29517910957 0.30304269393 0.30486029048 0.31952064826 0.31196331347 0.32721001622 
0.32946706773 0.33192012769 0.32908393771 0.33288796701 0.325066537 0.32127422801 0.30659567072 0.2997322599 0.31129251392 
0.29647266743 0.29143760805 0.30092672929 0.30358442215 0.34428756026 0.33802264333 0.33170327383 0.33285416296 0.33319969809 
0.33316547406 0.32094939374 0.31417037009 0.32536139269 0.34004220474 0.31109903578 0.3044222323 0.30807701608 0.33220285991 
0.3300160478 0.33278793689 0.33261080323 0.33241726276 0.33286925504 0.3725615481 0.36391096958 0.36331596958 0.36215019388 
0.29882423335 0.30294256596 0.33324695181 0.3093064598 0.3125062387 0.30379492116 0.29682387997 0.30600486554 0.35803097995 
0.35595381142 0.35089329938 0.31684910461 0.33217504061 0.34595606653 0.30445946116 0.33203509284 0.33160992343 0.31299311561 
0.34784970431 0.34045532357 0.35177605019 0.32821162875 0.31964486225 0.3217339283 0.33261166194 0.33552190597 0.33170437483 
0.34791189363 0.29613166499 0.34914411001 0.35521884754 0.35397723696 0.33304249771 0.33269519462 0.33714060653 0.33633563986 
0.33872851649 0.3380566943 0.33774883748 0.33989339483 0.33949159253 0.33965956863 0.34014476104 0.340179119 0.34081897667 
0.33937059059 0.33980050639 0.34080215405 0.33794034375 0.33881256542 0.33976008205 0.33570581179 0.33661617423 0.33752277189 
0.33389651831 0.33460590146 0.33480467138 0.31408883668 0.32152303997 0.30926429922 0.35628275767 0.33718508867 0.33860027933 
0.32901631435 0.32895119533 0.3290629243 0.32913215038 0.33070633708 0.32940454579 0.32918696532 0.3299119962 0.32956215276 
0.33105921944 0.33034522815 0.3299952808 0.33134409269 0.33086982257 0.33048327731 0.33154115034 0.33141799441 0.33102352001 
0.33180683869 0.33196720818 0.33159547681 0.33211951414 0.33250311473 0.33216110415 0.33247801004 0.33295075011 0.33266117393 
0.33281908933 0.33329461961 0.33307457151 0.3331016237 0.33349564912 0.33337916466 0.33331110656 0.33350230811 0.33349117949 
0.33336947332 0.33329065084 0.33338806449 0.33323940092 0.33286261692 0.33306967789 0.33290136969 0.33227306539 0.33256670781 
0.33235050461 0.33160825808 0.33190849176 0.33165137425 0.33104107056 0.33130456141 0.3309493844 0.33061015996 0.33079669197 
0.33037630799 0.33043915903 0.33050025019 0.33000221862 0.33057617254 0.33051915033 0.32997910079 0.33092618288 0.33077369193 
0.33026732152 0.33139762549 0.33118744865 0.33075801338 0.33192227999 0.331680252 0.3313442086 0.33364330398 0.33207953593 
0.33298619596 0.32426613618 0.31941762271 0.33540860472 0.3364202231 0.31040484237 0.31370708318 0.31078525987 0.28456453656 
0.32205346222 0.32566152657 0.31560126329 0.32864304108 0.32900926001 0.32354422536 0.29689042732 0.29806845512 0.29996654399 
0.30183522892 0.30380248814 0.30370794779 0.30577504279 0.30760048583 0.2956039452 0.29614109858 0.30113284145 0.29566827413 
0.29577771215 0.30053261197 0.29625522688 0.29584948578 0.300781345 0.29780217494 0.29699452715 0.301628776 0.30021068206 
0.29894042764 0.30348332476 0.30316712366 0.30158662269 0.30604428705 0.30736268877 0.3049963648 0.30923423819 0.31285691967 
0.30992556024 0.31348184483 0.31962399354 0.316160153 0.31910227734 0.335418562 0.33476731987 0.33568357849 0.33402824461 
0.33348712028 0.33258174139 0.33386250356 0.3646922119 0.35584317553 0.33714356111 0.34886739241 0.32940645591 0.32965783972 
0.33078971563 0.32907088839 0.32893253718 0.33071135247 0.33079378769 0.35808740844 0.36518028793 0.35679938675 0.33093039425 
0.34074651277 0.34762193186 0.34618046598 0.35035210837 0.33252207234 0.32777040612 0.32550916623 0.31660276314 0.31641558745 
0.31227588822 0.31953836159 0.35732845045 0.33331831841 0.3344192769 0.32770412808 0.31941606438 0.32752433853 0.33178810073 
0.3149087306 0.31701581541 0.31929219643 0.33368594613 0.33491988119 0.33279940976 0.34570830368 0.3445314212 0.31320123438 
0.30744602723 0.30836239177 0.35855350786 0.35991347242 0.35400381517 0.3545810648 0.3322203622 0.33195467394 0.33247309655 
0.33837216261 0.33792484873 0.3322971536 0.33226629545 0.30873114884 0.31583968438 0.30817077617 0.33921567046 0.33248689874 
0.33232334309 0.33167807324 0.33189617014 0.34094793376 0.33657181129 0.34628823773 0.33232701644 0.33239051873 0.33175461486 
0.3411375847 0.34323731633 0.34177000578 0.32983164294 0.33053773829 0.33049339241 0.34833640787 0.34674283625 0.34306720328 
0.34863766968 0.33110377137 0.32992829068 0.33083732276 0.33306864853 0.30742548739 0.3112630413 0.3166589255 0.31086079561 
0.33566958345 0.33186514266 0.33934443004 0.34631292276 0.32343590363 0.33239338845 0.33383310177 0.33002930357 0.33140273234 
0.33305606435 0.33164215365 0.33147105159 0.31006613096 0.3081131645 0.31357357929 0.31514738452 0.32594079879 0.33275794624 
0.33884289304 0.33757320032 0.34183423518 0.34243203135 0.30839046497 0.31291952131 0.31305163519 0.34381064399 0.35027416558 
0.3317737514 0.33169523813 0.35352289231 0.35375940723 0.33270611342 0.33257599172 0.33252660938 0.3323959589 0.33373125986 
0.332668267 0.33255833377 0.33278984904 0.33262480265 0.33327097803 0.33299499233 0.33281087762 0.3332859101 0.33316128863 
0.33301197546 0.33332632704 0.33330009441 0.3331846299 0.33335202605 0.33336834742 0.3332985466 0.33336896743 0.33329764535 
0.33331848448 0.33331217175 0.33304119726 0.33316265813 0.33311843247 0.33254262879 0.33278305598 0.33272097808 0.3318369222 
0.33217131883 0.33206256587 0.3309731222 0.33136628648 0.33117365709 0.33018562191 0.33052328244 0.33019733307 0.3295393545 
0.32980506767 0.32932012093 0.32925451939 0.32937090795 0.32874402643 0.32941039839 0.32931878325 0.32862417709 0.3299276854 
0.32970804262 0.32902614638 0.33061896799 0.33031346065 0.32974758427 0.33133839074 0.33102073372 0.33059220744 0.3379898916 
0.33972062465 0.33521429281 0.32671911289 0.33268834044 0.33258512184 0.33371460824 0.33344654401 0.30682478894 0.30872047055 
0.3201618752 0.32294086703 0.31614950338 0.30578170796 0.30569880084 0.3436166107 0.34137289182 0.33712064155 0.340468322 
0.30478028927 0.30554197247 0.3105602899 0.31223409137 0.31398166699 0.31509966359 0.3414148173 0.34326094845 0.34039498068 
0.30594681485 0.30589150531 0.31093862551 0.30702288968 0.30640387413 0.31133061373 0.30908466864 0.30797651411 0.31262096625 
0.31156794433 0.31017210553 0.31458717011 0.31465995222 0.312944498 0.31691858773 0.31895176977 0.31667975821 0.3201548153 
0.32407201216 0.32124514039 0.32404078693 0.35076005219 0.33597650172 0.33479614901 0.33682626304 0.33134799481 0.33140471054 
0.33198702641 0.34102658551 0.34007714086 0.33994941024 0.34254208342 0.34217676008 0.34299655219 0.34373526887 0.34533893646 
0.34796330619 0.32758641577 0.32462746853 0.3228651266 0.32052480396 0.3250079931 0.32831819756 0.34735775751 0.31555076699 
0.32022971298 0.3318336229 0.33134004304 0.31527761729 0.32193121437 0.32321536827 0.34776212247 0.33190008287 0.33269521435 
0.33197910534 0.34165069107 0.34011235811 0.34363086253 0.34421478802 0.3466700829 0.33765710046 0.33878664449 0.33745754124 
0.3335071442 0.33221266942 0.33208797778 0.33173212985 0.33142601459 0.33563855326 0.3363951635 0.33347528828 0.30999098905 
0.33090009509 0.33092603135 0.3311344096 0.3311396357 0.3311251734 0.35167326862 0.34999767019 0.34618117796 0.33207198458 
0.32708226943 0.31937016711 0.32105332198 0.32475968319 0.32075998322 0.31696522978 0.31679719257 0.35099597808 0.3565493063 
0.33106037767 0.33086651112 0.33004537787 0.33025060753 0.33111289783 0.33122509625 0.33080157893 0.33034594377 0.33257102224 
0.3277220717 0.33034557025 0.33065484617 0.32679191589 0.33424329079 0.33349654657 0.33261390644 0.33137257904 0.33359846497 
0.32967674187 0.32853732901 0.33252736959 0.32256038155 0.31934698213 0.31803126225 0.33844843685 0.33305998099 0.32413546904 
0.34840256879 0.31907670014 0.32342053091 0.32303191705 0.31618812146 0.31825288357 0.34146310171 0.33353148651 0.331928005 
0.344911756 0.34699489828 0.31456352204 0.343123619 0.34068771914 0.34506668426 0.3203988414 0.32324714163 0.32570947365 
0.33371526481 0.33368278868 0.33375294386 0.33382466349 0.33415462539 0.3334975374 0.33348368479 0.33339580974 0.33341177049 
0.333461587 0.33324343509 0.33328933574 0.33328375774 0.33292545617 0.33306641548 0.33301126406 0.3323623118 0.33265612348 
0.3325860084 0.33152093721 0.3319274381 0.33181972549 0.33037898921 0.33091026028 0.33074186256 0.32927837325 0.32977429319 
0.329438236 0.32827647159 0.32870010806 0.32815549845 0.32769325757 0.32788867987 0.32718378872 0.32781595791 0.32773505354 
0.32679321962 0.32862374823 0.32828844443 0.32739333223 0.3296995102 0.32926790906 0.32856777381 0.33034797035 0.31556837516 
0.31554706064 0.31505415233 0.31426754998 0.31967301505 0.31548568338 0.31522788233 0.31973949606 0.33654970684 0.33441682585 
0.33232540037 0.33523259855 0.31610964235 0.31624469252 0.32007917791 0.34163308033 0.34320333939 0.33894708657 0.34054000862 
0.31779943102 0.31706173295 0.32055665598 0.31964563725 0.31868456086 0.32279123401 0.32160976171 0.32042050905 0.32421965753 
0.32433994888 0.32266914849 0.32582461095 0.32738459563 0.32571887904 0.32780190844 0.32599884142 0.32341819097 0.32344323222 
0.3272164569 0.32588172979 0.33205231051 0.33158563089 0.33012724811 0.32920574672 0.32951479431 0.33044952932 0.32870892724 
0.33359934494 0.33356972088 0.33368465635 0.33473210528 0.33468656048 0.31780296659 0.31841768494 0.3226878882 0.32165005245 
0.3298881465 0.34310091499 0.31940948181 0.34138989521 0.34414156788 0.33052096645 0.33311689038 0.31936032821 0.32189823855 
0.32025866928 0.34157668936 0.33393287679 0.33329448412 0.33295837568 0.33233231673 0.3536589625 0.31877360377 0.32330157159 
0.33713068409 0.33558234046 0.33447907018 0.33431543487 0.33533909995 0.33445612311 0.33409766752 0.33424184746 0.3299206702 
0.33433073577 0.33690760681 0.33699298201 0.34969695155 0.32902663466 0.32882033465 0.32758246685 0.32731376958 0.32529240679 
0.32454433602 0.34692097363 0.33989646148 0.32758930571 0.32783955255 0.32826689494 0.32872776001 0.3300316065 0.33009667254 
0.3378613396 0.33579054571 0.33435715739 0.32743420154 0.32931329988 0.32658371932 0.32774851573 0.33109753862 0.32379842341 
0.33460809062 0.33539429903 0.33454405284 0.32962554534 0.33846600659 0.33691917504 0.34015581318 0.32160094639 0.3215373939 
0.33297293754 0.33311490155 0.333289829 0.33337014768 0.33287880116 0.33201723774 0.33231435565 0.32961701641 0.33034093333 
0.32704034959 0.32769618795 0.3254129877 0.32587301826 0.32515797435 0.32567396523 0.32566019906 0.32417624596 0.32704712576 
0.3264583035 0.3252755989 0.3287631518 0.32800822649 0.3272521538 0.32922233849 0.32425010463 0.33390867797 0.33366098569 
0.33380801558 0.33476957509 0.32711347655 0.3263969975 0.32908552854 0.32940663805 0.3276911907 0.32919379546 0.34107408695 
0.32789178216 0.33129064224 0.3288734228 0.32809295887 0.32558051634 0.32817529155 0.32304999859 0.32240756412 0.32453029203 
0.32571426724 0.3336149605 0.33370978997 0.33327781175 0.32793512812 0.32744170173 0.33061401248 0.31545215674 0.33272846144 
0.33289885397 0.33256146902 0.33211591992 0.3345354233 0.33462331932 0.32361703395 0.32587411239 0.32606142534 0.32294472399 
0.32400895425 0.32443408675 0.33964094128 0.32596359945 0.32846036793 0.32495534424 0.33044657271 0.33062756903 0.33584681634 
0.33558875794 0.33409335635 0.3342826515 0.33494031459 0.33052588263 0.33125191565 0.33171754512 0.32821026202 0.32891839 
0.32677511514 0.33162801766 0.33532546171 0.33737161397 0.32820350931 0.33145995585 0.32908407386 0.3288739129 0.32393897219 
0.32414167618 0.32700941062 0.32651831497 0.33227485347 0.33858035786 0.33928423964 0.3360151047 0.33624091531 0.33593047523 
0.32523277146 0.32944380164 0.33389228261 0.33405823588 0.33417626135 0.33038699213 0.32982783011 0.33083817912 0.33137647175 
0.33504158139 0.33714553569 0.33815260209 0.3345852822 0.32702671091 0.3283964072 0.33101104021 0.33279343712 0.33282618453 
0.33393092678 0.33014133569 0.33146083525 0.33186442491 0.3295143981 0.3352685024 0.33489638058 0.32180013689 0.32245631367 
0.32383660411 0.332814533 0.33296129055 0.33013968571 0.33537578107 0.33563470317 0.33614891753 0.33539391179 0.32530113342 
0.33166337292 0.33241538473 0.33314948545 0.33160086562 0.33727588636 0.33585780869 0.33333085458 0.33369358421 0.33258943512 
0.33733012071 0.33741606161 0.33659628178 0.33024983707 0.33517663597 0.33463268446 0.33315976022 0.3273048601 0.33440171938 
0.33478622252 0.33377331114 0.32296063203 0.32424195542 0.33290648323 0.33273488272 0.32641422006 0.33458475301 0.33505949484 
0.33532894552 0.46038604228 0.33618574905 0.33599250832 0.33270194581 0.3318297639 0.3320111251 0.33117446332 0.33520630283 
0.3331586596 0.33667396053 0.33642426885 0.32574107514 0.33342563058 0.33211046096 0.33583686328 0.33636227847 0.33545906163 
0.33423176681 0.32512406736 0.33175994643 0.33197615117 0.33151159732 0.33083553385 0.33746640481 0.33684473496 0.33041597647 
0.32883329823 0.33486163772 0.33132097885 0.32932646459 0.33662881897 0.33637279092 0.32849723518 0.33438947364 0.33181372374 
0.33577488734 0.33345441268 0.61372043543 0.47560664706 0.33343738907 0.33337790162 0.33295708587 0.33218246546 0.33103888181 
0.3296424062 0.32788145674 0.3261302611 0.3241596715 0.3227236834 0.3236595032 0.31783713272 0.29387713253 0.28700648852 
0.28111362266 0.27711785638 0.30036645083 0.30008905547 0.30130640615 0.30437301615 0.30794149365 0.31477486055 0.32449477523 
0.34140863598 0.37007295041 0.30278542054 0.29223909099 0.28525656072 0.30508548479 0.30024730152 0.30142574434 0.31043441716 
0.32193493803 0.32224612688 0.32899977499 0.33063778973 0.33017781966 0.32815306318 0.2796383675 0.3265332437 0.30866533801 
0.30975893151 0.30937873539 0.30772501254 0.30552742962 0.30331353667 0.32401932541 0.61167980423 0.33336594897 0.33337571706 
0.47387247083 0.37801818765 0.34740569132 0.33033028511 0.31856474702 0.31257899823 0.30718420675 0.30388662323 0.30163635266 
0.30001468661 0.29992218206 0.30037964267 0.30109269005 0.3018863491 0.30308070704 0.30429126732 0.30601270264 0.30869046867 
0.31027542668 0.31168834756 0.31339144929 0.31478670925 0.31653734653 0.31790345973 0.31959575626 0.32230591806 0.32389490958 
0.32510105995 0.32656096381 0.32765308461 0.32897352094 0.33000960222 0.33125223539 0.33291940088 0.33388193021 0.3345705083 
0.33528539186 0.33576552466 0.33624861184 0.33657917279 0.33686898516 0.33714470966 0.33711720455 0.33701812581 0.33681636709 
0.33590067802 0.33542054874 0.33460344485 0.33410556783 0.33373658755 0.33331408411 0.3329928476 0.3326355924 0.33213560913 
0.33239112343 0.33192541517 0.33187495557 0.33205925014 0.33222954969 0.33252008677 0.33272660478 0.33288940288 0.33306784375 
0.33319713081 0.3333110394 0.33337358397 0.33339437658 0.33660213359 0.33623358324 0.33199991506 0.33188233244 0.33196618822 
0.30055294832 0.30737110209 0.32091159573 0.3321352925 0.3370456058 0.33504123616 0.33236873102 0.33330767155 0.333265715 
0.33325758397 0.33329992278 0.33329679255 0.33334397129 0.33341342673 0.33348718412 0.3336141271 0.33373582311 0.33390865727 
0.33424984541 0.33453293212 0.33479629037 0.33514906416 0.33545153831 0.33583826981 0.33617531902 0.33656900538 0.33737650067 
0.3378627292 0.33822569978 0.33868120449 0.33903843041 0.33945575855 0.33973550954 0.33999637469 0.34018555289 0.34013289549 
0.33998613353 0.33976650829 0.33949076347 0.33906893079 0.33861578514 0.33808099418 0.33705976592 0.33639880332 0.33588416198 
0.33526799549 0.33480979458 0.33429919935 0.33393862556 0.33360842534 0.33343951993 0.33329795641 0.33331420084 0.33406848213 
0.33694975997 0.3400812042 0.33758056135 0.7980741565 0.84907581954 0.9986503755 1.0223092482 1.0631188646 1.0668734982 
1.0835094365 1.063795141 1.0685440394 1.0393261958 1.0294521315 0.99028579874 0.97162442376 0.92160849795 0.90202806834 
0.85834393895 0.83088776735 0.77594725834 0.74076099758 0.68772143631 0.65111988204 0.57625830114 0.57263359539 0.85526461398 
0.93250973554 1.0420974346 0.99984222868 1.0812769564 1.0682728014 1.0819995514 1.0748473127 1.0498682461 1.0612112203 
1.003542463 1.02234707 0.93833156134 0.97139146208 0.86321334778 0.90394249066 0.76724654261 0.82528750104 0.67205385322 
0.73114545779 0.55654495934 0.6536893769 0.57621914256 0.50559468781 0.41602677681 0.56011416917 0.52044026708 0.52465614032 
0.42754699117 0.56988578077 0.47622474726 0.64829217737 0.51185216704 0.60141291735 0.52930755787 0.59845422655 0.53588087177 
0.54234128902 0.59484444957 0.63476823711 0.56072305958 0.57105688966 0.50904649218 0.54955211894 0.49467055753 0.555178819 
0.9373798903 0.971316184 0.99490553998 1.0262119936 0.33192332041 0.3320129509 0.33183417315 0.33194316784 0.9022776285 
0.85613890985 1.0437402784 1.0728541522 1.0827732118 0.75506730252 1.032588895 1.0663715544 1.0647733838 0.30883966233 
0.30365237871 0.30785271369 0.82757363054 1.0033122692 0.66460973797 0.73706017787 0.64018182945 0.82511601045 0.76884251604 
0.50955548962 0.50491588854 0.31483345069 0.31211128967 0.30982045323 0.30760176051 1.0744275275 1.0786812 0.38477114705 
0.43590824444 0.41993728559 0.46405444378 0.41458097492 0.74315972544 0.2745243257 0.32904337288 0.33062084554 0.32759601615 
0.32925725833 0.32195934049 0.31951019405 0.31522785092 0.33902049118 0.33114001674 0.3321793848 0.3231888536 0.32479007351 
0.35460945257 0.35695704507 0.35293714662 0.33516758984 0.33482804806 0.33481597071 0.3305315948 0.33033948748 0.33114112915 
0.3310239021 0.30082810092 0.30644781317 0.30466723828 0.33553187861 0.3359264356 0.33793495148 0.33399843816 0.33413972553 
0.33447711067 0.33468980677 0.33434430074 0.33383839191 0.33475315641 0.33364516508 0.33350326022 0.33355119089 0.33343791041 
0.31261549865 0.31734018401 0.3172154389 0.32143375094 0.3102110221 0.33335712194 0.33327996712 0.33335520439 0.31317718121 
0.31798278306 0.31814361797 0.33826531418 0.33902328466 0.3386104767 0.29140137399 0.29346653525 0.29279058853 0.31060282283 
0.33286757165 0.33125643981 0.33194584894 0.33804257614 0.33838305061 0.33809671806 0.39228468753 0.38953552599 0.42806491319 
0.32227357854 0.3116736342 0.32128578919 0.25034203397 0.33949364458 0.33889976898 0.33882665663 0.32574006279 0.32576540681 
0.32713679025 0.33498340392 0.33521874277 0.33471668581 0.33496214116 0.33302967315 0.32881775976 0.33116833111 0.32765683585 
0.3355423821 0.3389953631 0.33901690359 0.33866619148 0.33867729151 0.33239948823 0.34754533613 0.34155344927 0.2707076075 
0.30700187161 0.30781402071 0.31259090209 0.32031411594 0.31953196057 0.32298310325 0.28421354378 0.33194839204 0.33243673034 
0.33211533751 0.33224524419 0.33229946861 0.33249593308 0.30542381576 0.30141807631 0.29756560608 0.30009437697 0.33327957142 
0.33336347307 0.33338552979 0.33854366115 0.33871441618 0.33835252927 0.33850851506 0.33845402125 0.33862747501 0.29607748024 
0.29240202876 0.29896014327 0.33046110016 0.32991348379 0.33014969816 0.32957951943 0.33551572527 0.33555567548 0.33514730291 
0.33513998339 0.3398538366 0.34018699582 0.33893650611 0.33922844108 0.33217448948 0.33612570153 0.33564097985 0.33611888943 
0.33251484451 0.33237482633 0.33255616369 0.32135918578 0.33161629481 0.33127408713 0.29042585817 0.29201556447 0.28905745362 
0.28733703549 0.33427453686 0.33304396174 0.33342915029 0.3165000522 0.29528852608 0.3547712827 0.33804859112 0.33225168959 
0.3320088157 0.33212373263 0.33399495368 0.33457037874 0.33373892749 0.33433994403 0.33371132936 0.33435781889 0.33547895267 
0.33655581536 0.32095937565 0.32272177118 0.31799455333 0.31982506884 0.303697005 0.3329014302 0.33288936781 0.33278975219 
0.33370788524 0.33483888681 0.33574277725 0.3341374752 0.33511140786 0.29068512808 0.30207560699 0.25758340931 0.26457289602 
0.33567732894 0.33205660343 0.3325661809 0.33190197733 0.33241915566 0.33523571069 0.33478306878 0.29708340141 0.33158186554 
0.32765431921 0.32745788166 0.33666805662 0.33655473126 0.33617162279 0.28617269124 0.29162836864 0.28948876532 0.33442204339 
0.3336229865 0.33327460848 0.35107401004 0.39907356769 0.35448713524 0.33204742993 0.3319605971 0.33199412855 0.3342083188 
0.33459016946 0.33411865834 0.23957293383 0.25146229856 0.29959892445 0.28731329162 0.29120861389 0.33336221007 0.3333968036 
0.33341049147 0.33582750864 0.33538422115 0.33569466028 0.33332303372 0.3354243283 0.33757424624 0.33716945599 0.33733517186 
0.33449980865 0.33508126627 0.33446868611 0.28070603923 0.28133070469 0.29924555333 0.32803110343 0.32904469571 0.32883096332 
0.33325987091 0.33301645425 0.33300796699 0.33269933114 0.33224252218 0.33224459269 0.33156983412 0.32563010391 0.32233645761 
0.32587133649 0.34068349066 0.34253512398 0.34200816208 0.28279107536 0.28440642115 0.33127889967 0.33047691792 0.33144561664 
0.29417004822 0.29460980804 0.28941346069 0.28979663328 0.3281219445 0.32922936922 0.32595792021 0.2557174034 0.292348449 
0.31361543843 0.31809552358 0.29788370944 0.30034164562 0.31042908089 0.31565855872 0.33332466989 0.33355018105 0.33202892229 
0.33530609881 0.33310426276 0.33337899954 0.33369219254 0.3310506919 0.3294906752 0.33210116561 0.3308583431 0.32988423057 
0.34021644478 0.34610748379 0.33807876313 0.32435063989 0.32134725079 0.3216824297 0.32405631811 0.33218713445 0.33217732903 
0.33232267476 0.33355921874 0.33621113684 0.32074628953 0.31958424406 0.31730605623 0.39076646747 0.42413288084 0.49991556283 
0.49433220813 0.32635172589 0.32627101345 0.32372776543 0.33288467456 0.33276226964 0.33296575181 0.33339831556 0.33356102979 
0.33355557951 0.33777164967 0.34370911715 0.35673503621 0.33333507381 0.33322490492 0.33682317692 0.34521248239 0.34049768107 
0.28385465877 0.28888285163 0.2883210034 0.33304206607 0.33310267416 0.30348060145 0.28116953833 0.30026288792 0.2411708558 
0.30836021265 0.2890833649 0.30471097293 0.33117067188 0.33154181016 0.33297983914 0.33275369561 0.33452732367 0.33249883858 
0.33320876456 0.28215547078 0.28505231835 0.28100338773 0.33416271069 0.33446347362 0.3344261474 0.3347458827 0.3327975343 
0.32782459798 0.31828081403 0.33292983043 0.33307618425 0.33425007481 0.3346683938 0.33486098427 0.33534007065 0.33270431611 
0.33445511 0.33382380317 0.33419750882 0.33365629539 0.32212613285 0.32227330539 0.31828127409 0.32723189837 0.32632324625 
0.32635139391 0.31619750897 0.31463214559 0.31539239438 0.33166203686 0.33211200883 0.33220564411 0.29434630386 0.29095802691 
0.29272415892 0.31643340045 0.32033302377 0.31655997093 0.3377542642 0.26907087161 0.30663646452 0.30177991216 0.30358797404 
0.31090920735 0.31031737777 0.31564503662 0.33297453574 0.33068174672 0.33043380433 0.33109193123 0.32271879934 0.32214372106 
0.33086828305 0.33172689485 0.33167039296 0.33406975835 0.33278160269 0.28119920239 0.32060775482 0.33220775255 0.33357129075 
0.33440047716 0.33413954807 0.33164492907 0.33270839692 0.33216231705 0.33305660043 0.29205793973 0.28684525206 0.28675281171 
0.28725863491 0.28355497732 0.31609229335 0.31473486152 0.31805256043 0.31537894129 0.33127799072 0.33168869474 0.33212007319 
0.33209671211 0.33151363691 0.33149947396 0.33096789657 0.28550148719 0.28621157241 0.28415689282 0.33202010248 0.33184271447 
0.33224495515 0.33193881632 0.33736062119 0.33748278456 0.33803435395 0.33193033459 0.33192810952 0.33195152115 0.33554931892 
0.33190636997 0.33112092625 0.33241735876 0.33167766566 0.35967012626 0.36258515501 0.31411559815 0.31479827218 0.31496274792 
0.33375303426 0.33390444403 0.33390669017 0.33401482309 0.28789246667 0.28662944868 0.27516632392 0.33435631106 0.33459751883 
0.33459617834 0.3362928373 0.33662308127 0.33617566231 0.30090772347 0.30209321243 0.30479497798 0.30591475649 0.33001736537 
0.33583503972 0.345035712 0.34305760546 0.34993404108 0.34514080525 0.33104172423 0.32895897414 0.33088235493 0.31783988051 
0.31284572443 0.26653431703 0.33191092648 0.33318674338 0.33310402114 0.32898969072 0.32825799157 0.3287771806 0.31070635271 
0.30574366407 0.30626188788 0.30095022482 0.30465157287 0.32283222316 0.28883437094 0.30154123625 0.2886924746 0.25597189142 
0.28859588183 0.18112003226 0.2018935689 0.31259965079 0.28256998769 0.3509699191 0.32275572798 0.32357522389 0.32618929648 
0.33309373998 0.33399404308 0.33407429267 0.33503433878 0.33556764681 0.31504909699 0.33807200456 0.33639672803 0.33976485806 
0.31523307875 0.31577624519 0.33702929642 0.33718602693 0.33558166282 0.33538550711 0.33507852389 0.2968075271 0.2999588043 
0.33259701014 0.33275156505 0.33256828693 0.35554245692 0.34609453526 0.34299759999 0.33697671634 0.3372016781 0.33610828385 
0.33322151634 0.33291646867 0.33256280619 0.31303965428 0.31342476465 0.29935867471 0.32110090913 0.32083107017 0.32387791619 
0.32365759987 0.32640756728 0.33265020672 0.3334654954 0.33239527885 0.33256307356 0.33228012555 0.33135945208 0.33050588702 
0.32980413468 0.32936360292 0.32933555249 0.31756316376 0.31823106225 0.32769013134 0.34169759792 0.32918614993 0.32914815561 
0.32975740638 0.33050482365 0.33065139723 0.33404863737 0.33431602542 0.33391899967 0.33414759439 0.33064676839 0.33049218581 
0.32999439916 0.33733490251 0.33741256155 0.33375105385 0.333688324 0.33241909212 0.33812027274 0.33835620502 0.33828622726 
0.32770007597 0.32713007097 0.3286741996 0.33412395492 0.33393251021 0.33363751509 0.33342622721 0.33908675515 0.33862150079 
0.27021665217 0.26682575437 0.32974097351 0.30798784363 0.31669863795 0.31208336725 0.33301467241 0.33316983449 0.3329615987 
0.33310925364 0.2868114533 0.29115286087 0.29121426241 0.3303358499 0.33056242602 0.33002011765 0.30256752261 0.31325112725 
0.30960404358 0.31378055991 0.299053126 0.29415155828 0.29410244334 0.35326820113 0.34920294895 0.32408352043 0.33139131882 
0.28129981102 0.28484600258 0.28525578998 0.28479341694 0.28963133648 0.33637340026 0.33595260614 0.3352082068 0.31663056106 
0.31799988155 0.31157251747 0.28155036322 0.2976591931 0.30394816836 0.33076339309 0.3309244145 0.33032529357 0.33826026976 
0.3377688975 0.33690005586 0.33631706014 0.33270786161 0.33222092512 0.33266116591 0.3321510219 0.31444768425 0.33636394749 
0.33582335124 0.33707971967 0.33677600901 0.33319092005 0.33788358383 0.34034542218 0.34106646997 0.34104784365 0.33348176261 
0.33368446559 0.33435424427 0.33481677536 0.3332773527 0.33171856674 0.33460365904 0.33510215688 0.33555553681 0.3350129371 
0.33285714366 0.33312094437 0.33310598206 0.33335360176 0.33774782834 0.35286687828 0.34883868267 0.28254381694 0.28150561324 
0.2781015478 0.33380489604 0.33355090676 0.33672325209 0.336703375 0.33268600818 0.33117658387 0.32994868198 0.29268375043 
0.29645207225 0.29153901814 0.33092846702 0.3350297307 0.33527118461 0.29146369677 0.29679185418 0.29135419687 0.33364348903 
0.33335596584 0.36508867384 0.35848425205 0.36685878986 0.35863223915 0.31332565726 0.31183722928 0.31067211006 0.30897396976 
0.32912379473 0.32900247927 0.32739336856 0.26309571337 0.35203856526 0.35494631457 0.32620659479 0.32647789209 0.32729849174 
0.3299294571 0.33063943082 0.33388127975 0.33769255691 0.33285101515 0.33772565151 0.4037595353 0.40597138722 0.32289182472 
0.3131415491 0.31502204248 0.34323201969 0.34439954248 0.34075743761 0.32381526698 0.32988639335 0.3239401127 0.33046159116 
0.3317287825 0.3313718267 0.33180186728 0.33126192798 0.33196100823 0.33217623679 0.33185545237 0.33236092045 0.33417177513 
0.33330255597 0.29949674375 0.29620018749 0.328146179 0.32337282052 0.32912069139 0.32832520479 0.32663919136 0.33842147731 
0.38108896615 0.36790824701 0.37389878423 0.33643239063 0.33684234315 0.35357804163 0.3568161209 0.36399369207 0.29036391851 
0.29846263708 0.29973160805 0.31255851984 0.33105853334 0.33060183665 0.33103464106 0.33180131807 0.3309676688 0.32681386869 
0.32577829827 0.32511274443 0.36304611254 0.36483443108 0.37437465195 0.36204064731 0.36230276325 0.3713914171 0.32447348306 
0.32440052419 0.32676502601 0.32299267647 0.33869813884 0.33858723369 0.33847834418 0.33842130954 0.26706563258 0.28068823827 
0.25199290769 0.4091764584 0.42251848259 0.40810007108 0.33609490259 0.3363815557 0.3365282265 0.38149009196 0.38387288184 
0.37877936443 0.35716986968 0.35110627054 0.35709581796 0.35189788066 0.33849027384 0.33904360832 0.33872578627 0.33294178527 
0.33273695077 0.33262830805 0.33774803617 0.33762946748 0.33805898745 0.30251590861 0.29980218099 0.2973907541 0.33303120452 
0.33312559259 0.33283363577 0.33294229054 0.33736854519 0.33660992957 0.33600202374 0.33748903759 0.32949326647 0.3362032103 
0.3226479912 0.32529456903 0.32504488726 0.32562563292 0.31881795123 0.32047718029 0.33972779867 0.28390847628 0.30359655071 
0.3079765825 0.30881528311 0.33005360159 0.3272474882 0.33121766872 0.33874250919 0.32582275413 0.32449896647 0.32386774163 
0.33617208922 0.33628684897 0.33196102593 0.33240889591 0.33159186031 0.31824412089 0.32105084903 0.31706919615 0.33293909759 
0.33289034556 0.33230451332 0.36723990617 0.32858862149 0.32834877263 0.3292162019 0.31213603089 0.31109162936 0.33328816533 
0.33315133622 0.33332760006 0.3075202139 0.31094410979 0.30524912733 0.29080492228 0.28626213978 0.28765476046 0.32894732489 
0.32832029764 0.32940872136 0.29151111604 0.28640782746 0.28745159537 0.32403793819 0.32616687155 0.32677527828 0.32869687608 
0.32323709853 0.3336284634 0.33117587725 0.33432036397 0.33177687592 0.33232334726 0.29365397214 0.29243258895 0.28849051721 
0.26294380943 0.33526986255 0.3346718773 0.3225511432 0.32758145458 0.33160731093 0.3312595457 0.32993070709 0.33096919676 
0.33198422855 0.33217529837 0.33752946281 0.33859297092 0.3360511081 0.33719909035 0.33136233647 0.33234006753 0.3315329864 
0.33332612789 0.33325736056 0.32628324465 0.32222855612 0.32561187816 0.31788890623 0.321955044 0.32486184641 0.32881013323 
0.33125717501 0.33162915906 0.33891873436 0.32896785847 0.32962692125 0.33155890029 0.29155500967 0.32837818342 0.32414497517 
0.32503865137 0.33367057975 0.33342739752 0.33354636843 0.33332710214 0.28460066689 0.28821914144 0.28777604833 0.28521916446 
0.2894780086 0.33259376908 0.33251802266 0.31994013164 0.28725751483 0.29519475628 0.29343678545 0.28239433651 0.30296229134 
0.29532002485 0.29102543826 0.32960901102 0.32979323832 0.33054087418 0.27013648195 0.33465086029 0.33527240549 0.33450894692 
0.33597127323 0.34061370694 0.33868877579 0.33938637757 0.33986844234 0.34068687348 0.25311609055 0.28588089286 0.33250864801 
0.32103795926 0.26856090263 0.28257120722 0.35373600922 0.35131062763 0.35525062949 0.3416172681 0.34015748213 0.33988553497 
0.24019005561 0.29417003451 0.24929268116 0.35198727529 0.30571628025 0.23797700211 0.34637795317 0.35016848501 0.34529567002 
0.34937611824 0.33725291612 0.3328415641 0.33263369456 0.33354574583 0.33290547292 0.33369936419 0.34404144205 0.34007671978 
0.34063963693 0.25794799515 0.33304805189 0.33337264693 0.33332318576 0.33500773734 0.33513500991 0.33468319524 0.33402215824 
0.33399221534 0.33385734106 0.30996666804 0.32039429715 0.33349362955 0.33306586903 0.33290842142 0.37509702865 0.34392121221 
0.39024165579 0.33306410916 0.33333468141 0.3318419788 0.33185061886 0.33070271938 0.33054231741 0.33898975354 0.3388183629 
0.33853029322 0.33836642009 0.27021568827 0.33323913998 0.32570690865 0.32497308113 0.327580502 0.33946375787 0.34006127824 
0.34152310821 0.34069446307 0.33409215054 0.33087850746 0.3291080284 0.33045926104 0.331046986 0.33762387516 0.33735644666 
0.33793404874 0.33546555248 0.3349105747 0.32831198271 0.3283764785 0.33642730934 0.33750297245 0.33281359618 0.3309091438 
0.33125450587 0.32995270951 0.333516043 0.33348478364 0.30375477694 0.3090269339 0.32834226136 0.40031222403 0.38665864503 
0.38154615542 0.34383101814 0.3518615877 0.34690460373 0.35138495127 0.348663681 0.35448653877 0.33284799868 0.33330678796 
0.33313363851 0.34332784004 0.33601229662 0.33553770576 0.34221417316 0.33379418683 0.33350908033 0.3337647916 0.33349125758 
0.3323635848 0.33417370993 0.33273400127 0.33260464664 0.3364624974 0.33646093381 0.33688148065 0.33604197077 0.33605926147 
0.32787107121 0.33376916699 0.3301851233 0.32887442501 0.32829830791 0.32800553363 0.32897439812 0.32673428435 0.32654765382 
0.32847884132 0.3308563204 0.33117974628 0.30557530065 0.30204246447 0.30394820762 0.30809261604 0.31002844922 0.29794092511 
0.3154787228 0.32088062943 0.32202772747 0.32730711703 0.32971007051 0.32921980237 0.3293262222 0.32879574889 0.32634312859 
0.32633369174 0.32415208418 0.3343858386 0.30050710216 0.30484452777 0.30631284311 0.33089239739 0.33129859086 0.33107972753 
0.27877825932 0.2931767796 0.3031430307 0.30030091551 0.32759715214 0.3270803857 0.32668697091 0.33015477473 0.33029453129 
0.31661923494 0.311974982 0.3176893412 0.31306686981 0.33157743507 0.33018696502 0.33599082283 0.34150646038 0.33962687171 
0.34088821545 0.33610116477 0.33456390631 0.33484318117 0.31585964137 0.31800837194 0.344093295 0.34304430245 0.33699674278 
0.33734590767 0.32706691705 0.32888742174 0.32668460572 0.34757485034 0.3481545476 0.34523637873 0.34472317152 0.33324733874 
0.33387517138 0.3334527676 0.33406956759 0.31539926828 0.30995700423 0.31204612722 0.33144106971 0.33031799289 0.34810851948 
0.34563881995 0.34379858159 0.33890586724 0.34117782793 0.34817078079 0.33171350428 0.3322151774 0.33315016718 0.33323612119 
0.32761194456 0.32805395182 0.32886368271 0.32928931871 0.33095373013 0.33360790146 0.32758574863 0.33098076183 0.33331347113 
0.33337829877 0.33136174929 0.33150664571 0.33149842593 0.33250920263 0.31675067802 0.32090801225 0.32096830638 0.32860519086 
0.30018552785 0.33157381931 0.29164219579 0.30978353056 0.26202811829 0.2879128889 0.33327760166 0.33012833023 0.31267312946 
0.31208100437 0.32778868654 0.32853345006 0.32822991127 0.32890547695 0.32742912093 0.33004999712 0.32953635525 0.32962717788 
0.32909731521 0.34387725219 0.33213740903 0.33170335614 0.33195761929 0.33154233514 0.32965593347 0.32946168139 0.32999572233 
0.33075508555 0.3302760907 0.33104630955 0.32264830156 0.31883863514 0.32263713068 0.32785218807 0.33064078627 0.33856716155 
0.31520262211 0.31879918584 0.3286422812 0.35001271797 0.35541971584 0.33144521596 0.33339845192 0.31968247599 0.31636344955 
0.31469134711 0.31593575315 0.31611488577 0.31098660015 0.248516471 0.34697261799 0.34891541682 0.35176308516 0.30959490496 
0.30457824662 0.30104691233 0.34648398879 0.31408518624 0.31872281041 0.3133980337 0.31799480727 0.30977328889 0.31327296694 
0.29907362871 0.29491599874 0.29983200811 0.33075336496 0.33110267213 0.33115619433 0.32572839431 0.33464286383 0.33236357232 
0.33180457782 0.32971226896 0.33249117576 0.33076042754 0.33430306907 0.33502956571 0.32893872443 0.31945100799 0.35818751525 
0.34365997178 0.32113887472 0.33941424775 0.32397671119 0.32740721612 0.32558154009 0.32880097838 0.33190332611 0.33169392318 
0.33183857369 0.32324354512 0.31891976712 0.33242079886 0.33246449937 0.33341802002 0.31608850051 0.33790974123 0.33334794322 
0.33337320181 0.34157539193 0.31477814066 0.31989824967 0.31837907794 0.33553214093 0.33533707258 0.33500106089 0.33480539326 
0.33078245943 0.33209421782 0.31406168618 0.33270583011 0.3327983768 0.33215174269 0.35620912227 0.35138705132 0.36123331979 
0.29176550281 0.34150326435 0.33993486112 0.33931535078 0.32292443724 0.32119176583 0.32379590887 0.34207095614 0.32762961993 
0.33415021742 0.30603917961 0.30420145956 0.30059503636 0.31288926845 0.33220510995 0.33205899098 0.3326367095 0.34603727958 
0.35046795308 0.34946044648 0.35346644959 0.33233876716 0.32317164217 0.31828003492 0.3217867319 0.30391422662 0.30907896013 
0.32494894031 0.32736172828 0.32910026551 0.31997014372 0.32326974249 0.32428563582 0.33354984928 0.3327994997 0.33286622093 
0.32935158836 0.33029919329 0.3298982163 0.32366848255 0.31763019534 0.32382251416 0.31927349932 0.32551076345 0.28533453204 
0.33698523703 0.33667354257 0.33731224382 0.3339806666 0.33423600948 0.3159438291 0.32734524606 0.32626128376 0.32738451429 
0.3173915847 0.3354391584 0.33738075973 0.3363819497 0.3305521974 0.32829761652 0.32276933375 0.31942893598 0.31570492407 
0.33444058778 0.33421908036 0.33392739586 0.28457506237 0.28681737282 0.28744369733 0.32445207342 0.32290172339 0.27105748294 
0.28457778047 0.28728430074 0.34578797067 0.30930908223 0.31300653613 0.31832826456 0.32874749491 0.32937310336 0.33438245495 
0.32221375771 0.33633172192 0.33539458375 0.33218335823 0.33410705144 0.31427199335 0.29642784438 0.29762280485 0.3098552829 
0.31028358743 0.31309332509 0.31371915181 0.25891886388 0.32106823636 0.32532934587 0.33705669651 0.33847959259 0.33682318012 
0.31972875412 0.320547766 0.32186266152 0.33643846578 0.3383617604 0.33792758415 0.35917315073 0.32266275218 0.3174384004 
0.32273716182 0.31756754994 0.31886279053 0.31346846943 0.31479897306 0.33563052364 0.33625057268 0.30417323608 0.32974734276 
0.33033449804 0.30455807717 0.30060926674 0.29878750119 0.33325693184 0.33294991502 0.33344832399 0.33341313153 0.29900797316 
0.30345196525 0.33358824479 0.33166212108 0.33111657212 0.33094001117 0.31320577366 0.31776771584 0.31203017612 0.33204301084 
0.32634421743 0.29029007361 0.29565263414 0.33200840389 0.33160432653 0.33082593645 0.33110198327 0.33497199483 0.33467903541 
0.33544184609 0.33869409337 0.33649375765 0.33689181127 0.33198986583 0.33609186158 0.33208146727 0.33199712944 0.33919654302 
0.33877901273 0.33327792845 0.33329920616 0.31002341304 0.31547356651 0.31546080075 0.33244595332 0.33277022876 0.33319144109 
0.3313173517 0.33544781956 0.33495974756 0.33551029803 0.33949942884 0.33945105662 0.33289383921 0.33304573879 0.33289092789 
0.33077600189 0.33188358664 0.33201883655 0.32814396395 0.32768904548 0.32694760209 0.33167383334 0.33074087071 0.33065832316 
0.33772199517 0.33837712763 0.32787082771 0.33683180906 0.36750665274 0.39424589373 0.37432400945 0.37506190169 0.36480071848 
0.369072402 0.33333890889 0.33204274915 0.33234363687 0.31770875768 0.3161484283 0.319088161 0.29896493032 0.3023157713 
0.3058508157 0.32005647622 0.31884177256 0.321258771 0.31377011016 0.3091609156 0.31530755886 0.31524623111 0.3450140038 
0.35465732608 0.32360160894 0.32255874924 0.32086430749 0.31996731572 0.44477458939 0.46459674955 0.40179979717 0.37472364569 
0.32673369082 0.33116819025 0.33130695139 0.33607255223 0.33443047437 0.33497414187 0.33493674864 0.33041223084 0.32738772024 
0.33441154599 0.32837270175 0.32818098366 0.32934172272 0.31613143146 0.34142437632 0.33334804262 0.33331644053 0.30648484597 
0.31370013804 0.31274638379 0.33287873528 0.33282754987 0.33254919818 0.33324986708 0.33312408903 0.33330774257 0.33319688346 
0.33292382792 0.33305911191 0.32504634704 0.32338236551 0.32433039598 0.33152066521 0.33317276802 0.32533228548 0.32712237945 
0.323186047 0.33325087564 0.33310513347 0.325730838 0.32677061813 0.29697862615 0.33404757261 0.33418174407 0.33320072942 
0.27457245392 0.26685325067 0.33102420574 0.33158817298 0.33651659134 0.33627084924 0.33960987346 0.33314995467 0.33299636684 
0.33332851803 0.33245045788 0.33321768417 0.33309681979 0.33303334498 0.33206823993 0.24002411363 0.24738843174 0.29497173508 
0.42309865087 0.32307586507 0.28170797739 0.27955974529 0.33630199323 0.3354602272 0.33415503899 0.3328841574 0.33293590378 
0.41386118052 0.34796279647 0.36457779887 0.33394335278 0.33402462448 0.27954819403 0.30313092135 0.29855510416 0.32209167656 
0.31862759728 0.32141141664 0.39142974287 0.33397464749 0.28551255448 0.35747868774 0.32993156075 0.32862554188 0.32977212942 
0.3148561915 0.32043130381 0.35480931339 0.36059075219 0.32400836821 0.32834113643 0.32482755036 0.32525811037 0.32041097094 
0.33355078558 0.33349865594 0.33380851978 0.31713533274 0.33395294743 0.33378472666 0.33363990003 0.33528933537 0.33466080799 
0.33431893359 0.33501866116 0.3285445533 0.32100385792 0.33920760979 0.33332085643 0.33331237496 0.26853818202 0.32137105411 
0.33849886077 0.33887638316 0.33382730528 0.33353314164 0.3382866985 0.30758555803 0.32130223956 0.32352698407 0.32356744329 
0.33369545361 0.33362184783 0.33303490583 0.33300086968 0.27894521958 0.28379455093 0.2915388979 0.33000300108 0.39196128657 
0.40166556436 0.3904576793 0.3314843594 0.33530907239 0.33486399079 0.33472459148 0.28361742749 0.31993654649 0.32034216345 
0.31476689472 0.31516017939 0.33372933389 0.33435672926 0.33275258371 0.33253591535 0.34067893733 0.34226095257 0.30893290232 
0.27667623003 0.28971099932 0.27175419458 0.32029561524 0.32220695018 0.33467759845 0.33958301496 0.25812012638 0.23371105213 
0.27986433182 0.26049289367 0.37954945528 0.37841020215 0.33006265267 0.29919836053 0.33406939105 0.33558515085 0.36258138827 
0.37032263037 0.36662732548 0.37589855438 0.37436930236 0.33276741654 0.33225250186 0.33906243135 0.33151530344 0.3348255435 
0.34245013721 0.32562613792 0.33087015422 0.33081556893 0.32471025039 0.33511075535 0.33086344072 0.32999221577 0.32972430938 
0.36516116265 0.33563223368 0.33853215521 0.33857547709 0.33867461869 0.33707207755 0.28904966701 0.29079468112 0.33066086925 
0.31407244859 0.32132154521 0.30933475777 0.23465322321 0.29512220975 0.3230353541 0.31782090833 0.31442294322 0.31550996398 
0.30905515263 0.34339437897 0.34450755981 0.34646829669 0.33741987864 0.34882099652 0.35192600714 0.28944705546 0.2594897773 
0.26405759741 0.34264616757 0.38467606323 0.37944768229 0.35665420367 0.32296040715 0.34259198026 0.28432147079 0.34741727812 
0.37162851329 0.34166265953 0.34381664851 0.34892549067 0.3318892017 0.33182026659 0.33195651704 0.33383395638 0.32391233901 
0.33312269423 0.33319063206 0.33360360857 0.33322247597 0.33332467454 0.36446321049 0.34586294615 0.3468480562 0.33850025422 
0.3465969657 0.37834359844 0.33283228609 0.33265983889 0.33063438535 0.33274476797 0.33131068115 0.33078428494 0.3323679743 
0.33328901395 0.3317399027 0.33623241344 0.33563978904 0.33699125641 0.3261811896 0.31946200774 0.31474447736 0.33289710764 
0.33450723738 0.32931703153 0.32763954214 0.32803681686 0.33256275191 0.33274048438 0.33299584884 0.32493565496 0.32702442782 
0.3273305603 0.3252262776 0.33125438079 0.33042914376 0.33002621521 0.33144517157 0.33305367459 0.33214038657 0.33229457739 
0.32578251627 0.3355328496 0.33351505681 0.33341954494 0.33342837923 0.33632303251 0.30193581568 0.33434585186 0.54102301909 
0.27932981645 0.33599408047 0.33513797082 0.33313819906 0.33326683074 0.3330555544 0.32699460041 0.36837814504 0.32564363723 
0.27759209119 0.30659610762 0.30954367713 0.28707726747 0.29058247782 0.31711732485 0.319285596 0.3188643428 0.3316866642 
0.33147507112 0.286839239 0.28303511361 0.33368936307 0.33333297691 0.31851585283 0.33811323927 0.31016632625 0.31420871381 
0.31026674517 0.31951611625 0.32919501614 0.32989234621 0.3081178775 0.32975639919 0.33159972212 0.33147463588 0.32996884889 
0.33580418374 0.33612929061 0.2596913377 0.32801439283 0.32627608739 0.32559980972 0.33268695879 0.33939921929 0.32295404605 
0.32053990942 0.32289397548 0.32418607382 0.32539522316 0.32806680195 0.3083485024 0.33272898372 0.33254741666 0.34400477422 
0.3426280827 0.3643762102 0.3394426198 0.34031540317 0.32706201404 0.34218805365 0.25518617862 0.33991253433 0.33654294571 
0.32838002724 0.33369356173 0.33495103428 0.33479908778 0.32212002349 0.33199383854 0.33049020782 0.33261000663 0.33542595178 
0.33697528329 0.3383683537 0.31288560379 0.37206791541 0.29918857249 0.30444330632 0.30500743219 0.33207368274 0.33263424161 
0.3324350807 0.33234185299 0.33120631264 0.33177657681 0.33367191171 0.33374765161 0.33378952519 0.33358167164 0.3330758626 
0.30562760219 0.29582652055 0.29223008356 0.33357132781 0.32404133096 0.32913266235 0.32760071364 0.3150320809 0.32330353342 
0.32470678287 0.32319080744 0.32068016037 0.31522672267 0.3190127255 0.31346642181 0.33074579789 0.33112320889 0.32503419895 
0.32069865381 0.29376180015 0.28755491251 0.2925525059 0.31555344269 0.31184381211 0.34665993561 0.27077264478 0.29727395317 
0.30421639466 0.31115649839 0.2958571014 0.29610523799 0.34673893778 0.29188447373 0.32833035745 0.32887032578 0.34033718184 
0.34102567207 0.25221067844 0.25315936743 0.30164183145 0.30377214183 0.34117914662 0.34269236806 0.3684226934 0.33129834905 
0.33175872164 0.32743390694 0.3244072021 0.33037150807 0.33019511894 0.3324587667 0.33266581292 0.33233834889 0.3332097271 
0.31355203336 0.30772057986 0.32817581322 0.32904365458 0.32644180149 0.32281584295 0.32449384704 0.33516651794 0.32877716206 
0.32984265839 0.33209876128 0.33215488466 0.33302593223 0.43469617864 0.32854372839 0.32750808692 0.33062236735 0.33142858874 
0.33297747888 0.33227637983 0.33206976855 0.34119682513 0.33308723623 0.33258501255 0.32285577735 0.31947707238 0.33273196209 
0.3330360253 0.33198788697 0.33096838553 0.33285469205 0.32476879608 0.32223013513 0.31820492496 0.3335302367 0.33341979681 
0.30432057798 0.34198336221 0.32592772614 0.33114619127 0.33025399254 0.33419868216 0.29654436584 0.31649040329 0.32138066763 
0.31768307891 0.31254858468 0.30644253347 0.32633149642 0.32513302089 0.3313208159 0.33170541291 0.33274810482 0.33663470195 
0.31163407554 0.31041409111 0.30414204397 0.38627255662 0.39402110209 0.33466618454 0.33431427537 0.3342980607 0.33524358961 
0.33485350034 0.33582268256 0.32293203629 0.32500518778 0.3380092334 0.33765843886 0.33799658817 0.33171163671 0.33202408982 
0.33087577753 0.32673142722 0.32691828025 0.32287648905 0.33279319261 0.30971710722 0.3384875953 0.33715160257 0.3299456704 
0.32236333632 0.33328196344 0.28494386228 0.26863847279 0.27370366782 0.33205858503 0.34710813248 0.34016413163 0.34341183514 
0.33358712812 0.33941305538 0.34043447258 0.3329178955 0.32493530727 0.33325579068 0.32821184078 0.2988638072 0.27938163374 
0.29889712704 0.33373759547 0.28575775605 0.28970405787 0.33111329924 0.33118658202 0.3306921642 0.3340704514 0.33412367948 
0.33860490918 0.31377807414 0.33030470504 0.33044545913 0.33432088663 0.3354278494 0.33693397356 0.33700693704 0.33655067847 
0.33732995071 0.33179959326 0.33155781874 0.3379103036 0.33812056816 0.32889368453 0.3336783471 0.3357113884 0.33528450077 
0.33222790975 0.33184917453 0.33900041688 0.33958881953 0.32830324165 0.33451968446 0.33372592454 0.33383980455 0.33462685902 
0.33101049173 0.33172174295 0.33182342365 0.33167781439 0.29839435255 0.33365124703 0.30908977516 0.33181601517 0.32327325949 
0.32146234027 0.38855253452 0.36311483127 0.27770519383 0.31640489934 0.33153497142 0.3319387561 0.30766537979 0.29027596855 
0.30602245187 0.30480058512 0.31485522919 0.33011960362 0.33509882119 0.31771832282 0.31654448095 0.3344371244 0.3365256495 
0.33612307198 0.33147079129 0.33139809589 0.33348118943 0.33354524511 0.33345689477 0.30124920738 0.29528529693 0.28053695478 
0.29211740244 0.34800032788 0.37906226278 0.33344783209 0.33357576836 0.36397282046 0.38055738571 0.33445552258 0.33214726715 
0.32984433748 0.33362816537 0.33622770897 0.33863373916 0.3267883196 0.28148705419 0.28460529088 0.31958382649 0.32339080567 
0.31623276216 0.33312796896 0.33330150315 0.33323730304 0.33642795611 0.32749830012 0.33334810794 0.33081502066 0.32934331329 
0.30549569896 0.32574830053 0.33286127979 0.33246857951 0.20023060779 0.31398221317 0.31008928886 0.3054346392 0.32473558322 
0.33279564647 0.32703526141 0.31963551573 0.33351652157 0.32511817841 0.32896710169 0.33315626159 0.3331684866 0.28942680031 
0.30091239722 0.3294762706 0.34226567582 0.33036172822 0.32883784727 0.3286947926 0.32887853401 0.32738687153 0.32920320408 
0.29925880685 0.3343504341 0.33377089984 0.33367915073 0.33321211004 0.31029548401 0.32896142991 0.32974439286 0.33341291745 
0.33342570196 0.32897318636 0.32965290227 0.32928751985 0.32913993203 0.33115403729 0.33392182122 0.32209063491 0.33144044278 
0.33168561657 0.33231088488 0.29648506086 0.31802944742 0.28698248215 0.33310260843 0.33309240482 0.33303215711 0.34015226037 
0.33187137422 0.29420566258 0.29636345529 0.29169268369 0.33453940954 0.33242516365 0.33159159225 0.33285850763 0.33286918012 
0.33301423244 0.33297393801 0.33264059879 0.33049273979 0.32954506318 0.33148782315 0.3316074724 0.33176476271 0.33016392199 
0.32955153374 0.3256071112 0.3182260371 0.31697725978 0.33662934779 0.32879156232 0.31312666743 0.36292441449 0.3588740298 
0.33405472894 0.33368101608 0.33327123802 0.25983420777 0.42484364038 0.29384408485 0.30588725621 0.33913284498 0.33735093979 
0.35247506984 0.3599525432 0.35260476566 0.30330594943 0.27714804749 0.23064653891 0.33407802166 0.28242021959 0.29353835919 
0.30122687014 0.29073443577 0.30231692897 0.32423647238 0.32597547742 0.32472321126 0.33302374902 0.33475579539 0.33460105077 
0.33695534114 0.33417785357 0.33395994018 0.33433087604 0.33109223339 0.33303166032 0.32799623894 0.35557041292 0.33391178967 
0.33407775772 0.33014540835 0.333728791 0.34464885846 0.33618379306 0.33020879065 0.2523516656 0.23766662669 0.3327892428 
0.32842872779 0.33022036667 0.34555789051 0.31416546235 0.29431363603 0.33257639055 0.34219955869 0.33581319048 0.30286304595 
0.32981333373 0.32410675247 0.327533707 0.31993353938 0.31403336585 0.3278389818 0.3293244513 0.31915348146 0.33218927245 
0.32856652641 0.34391031326 0.34156130564 0.3393603167 0.33084419735 0.33148334943 0.33397760564 0.31959271612 0.3318308273 
0.33017753883 0.33088552344 0.30766771808 0.30691959945 0.31221951823 0.33116412233 0.33177188006 0.33214497884 0.33148000371 
0.33192457419 0.33095963763 0.32676002645 0.33141884777 0.33148003961 0.33336946283 0.33152312822 0.33138894699 0.33249495493 
0.33294186761 0.30988758622 0.33193298741 0.32519596983 0.3275751625 0.29614773487 0.30247856798 0.28811869161 0.3329454174 
0.33564964085 0.27803072808 0.33472266949 0.30367879611 0.30869534247 0.33301637341 0.33269423383 0.28632222613 0.29069471076 
0.29016159037 0.29002402991 0.29482843805 0.33081813903 0.33341270808 0.34127726082 0.3438777232 0.3388543634 0.33174166943 
0.3316370354 0.33182131297 0.3728283576 0.36348437963 0.3643280786 0.35606060348 0.35069535486 0.40167758711 0.31620876127 
0.33159137468 0.34845443487 0.33314717999 0.33636512476 0.31939121961 0.33340823647 0.32992194579 0.33332971601 0.33755132849 
0.32892853795 0.32801731941 0.32971129437 0.32833445008 0.32749850276 0.32508270165 0.33124017205 0.32977063422 0.33589437177 
0.34363477219 0.35207055047 0.33078582099 0.32795243999 0.33408536316 0.2991749733 0.32016424967 0.31510346415 0.33588901847 
0.3335456616 0.33333600386 0.33453968898 0.32466560477 0.33344353395 0.33077019532 0.33271359897 0.32255517855 0.33358902133 
0.33310316288 0.33322435309 0.33346926617 0.32329810572 0.32298818897 0.32786023628 0.33387944709 0.31258314042 0.31127870963 
0.32620613911 0.33755089663 0.33154430176 0.32762962598 0.30975313999 0.33545956161 0.33507286716 0.33165850025 0.33171558421 
0.33446589654 0.33429469193 0.334073033 0.33674557009 0.33507549058 0.33481040818 0.33587286328 0.33554486156 0.3100841354 
0.36336865901 0.35593610584 0.34340739708 0.30901543023 0.31206789958 0.33489447349 0.33370090525 0.33427684273 0.33354131924 
0.33319398479 0.33300140422 0.33325203491 0.33339374702 0.33361551502 0.33372075904 0.33229065048 0.33245279101 0.33111096991 
0.30035672987 0.33042301627 0.33214408856 0.33209897851 0.33219081281 0.29801303717 0.29178267292 0.27768001189 0.31291905175 
0.33532971336 0.34035796533 0.33230018841 0.32961134394 0.32840085633 0.33183777405 0.31322594911 0.30589841142 0.32216432495 
0.23928190427 0.26218023197 0.35133641495 0.36809433175 0.31548095297 0.31850412018 0.32935415361 0.33200874228 0.29221819051 
0.27768764726 0.28936333536 0.30538490764 0.36082504058 0.33390308738 0.33360934138 0.33734505481 0.33779358481 0.33683456116 
0.3333929212 0.33782485587 0.30706913059 0.32248690647 0.31723471194 0.3146184841 0.32079000973 0.32923709828 0.3334488834 
0.33231941032 0.30536745522 0.31081819426 0.32412726066 0.33230184528 0.31768312009 0.33374316281 0.33444961031 0.36730400549 
0.32719738956 0.3279293094 0.31842641529 0.32046682495 0.29788091173 0.32994574747 0.33534477552 0.33243552471 0.33322415874 
0.31712124412 0.33415852276 0.33378428303 0.3381180508 0.33851754004 0.33620588404 0.33548115922 0.33407898452 0.30776062864 
0.32072072596 0.32492418051 0.32163384898 0.3074556313 0.33467762174 0.33236559842 0.33157340999 0.33321883491 0.33292700942 
0.32948131766 0.33248316683 0.32375806067 0.31923984043 0.26982814621 0.32305843155 0.32704907181 0.2989676768 0.32548778177 
0.33205502963 0.33200476598 0.3230513692 0.31971672024 0.30653725035 0.3059140232 0.32504144387 0.33636964247 0.33653051113 
0.34633111659 0.33810206873 0.33510123169 0.33411552605 0.32510544258 0.29673786401 0.33343397477 0.30089221021 0.32291173014 
0.38452093926 0.33250020469 0.32691965171 0.32701974209 0.32881683496 0.28456689113 0.32559271068 0.32435152356 0.24538971616 
0.32919945677 0.27907462324 0.29087783597 0.2918360568 0.30127763033 0.33591846873 0.34207328076 0.33043226328 0.33774113241 
0.25531914166 0.31357002733 0.33506141847 0.34083157988 0.33112333395 0.33143785913 0.33144168306 0.34695983948 0.33593793667 
0.33608620549 0.34403845079 0.32602716764 0.33009313643 0.31699686925 0.28373075219 0.30735458892 0.33610929455 0.33965626134 
0.35306319324 0.32351858368 0.33947932103 0.32719434818 0.33127748604 0.33141742045 0.33866559453 0.32833197135 0.30995793874 
0.31304469645 0.322582471 0.32476697309 0.32554832156 0.34136054949 0.30656918803 0.3018137234 0.32849580328 0.31623656293 
0.30668048709 0.33852275889 0.33486953846 0.33340621434 0.33338516528 0.32597368474 0.33031493248 0.33019701792 0.33246395896 
0.29622395673 0.2925991387 0.34063730359 0.33117983445 0.33148862877 0.32144235816 0.33045585029 0.33646032957 0.32555247036 
0.28850221656 0.28847775995 0.29992622535 0.32411069617 0.32134409763 0.34477474198 0.31814858863 0.33343499315 0.32929716653 
0.29381069861 0.33368436811 0.33279256741 0.31266128978 0.33790485217 0.31120372415 0.32146764445 0.33059331473 0.33248633996 
0.32889009888 0.33554175008 0.33553694018 0.29676995786 0.33988065806 0.27950871897 0.33327489933 0.33329858739 0.30736726614 
0.33658600972 0.33669498134 0.3357884314 0.33301749227 0.33200516767 0.33440105815 0.29180559867 0.3380732298 0.34259790478 
0.36100609878 0.35776762844 0.33262943618 0.33502453152 0.29786962236 0.29712389077 0.24051759848 0.33248594183 0.33862085963 
0.33495795935 0.21543052149 0.26587148602 0.29360230798 0.33930512914 0.33448262578 0.33284524687 0.37885993608 0.40265303447 
0.32959197656 0.3323284649 0.36460046236 0.33334278485 0.33387388647 0.2994479824 0.33375556032 0.376546262 0.37214304201 
0.33403486328 0.33333702854 0.31883434764 0.32051735887 0.32868795489 0.33046725393 0.33101879441 0.33150835549 0.33075119536 
0.33068423834 0.33159998626 0.33284137438 0.33109665424 0.33327562138 0.33385516004 0.33420651978 0.33205407794 0.32429884346 
0.33006647517 0.28137568478 0.28807482996 0.24193804884 0.33078887004 0.33139693868 0.32632808482 0.3381103553 0.35325414935 
0.32287590467 0.32440128505 0.33332887596 0.29565752662 0.29060211849 0.29973716696 0.32990833404 0.31133136984 0.3191414358 
0.33314693332 0.33186205818 0.31664544526 0.33851979866 0.32880826245 0.30794223329 0.30310504914 0.31955751522 0.33420814144 
0.33731515215 0.32644645805 0.33182119029 0.33222636114 0.33053462805 0.3379555538 0.33180210753 0.33087672755 0.34335231335 
0.34240212729 0.3368976092 0.33824167731 0.3347404664 0.33513564438 0.33244076091 0.32623458741 0.32442930795 0.33271438243 
0.33428121919 0.32099591928 0.32752943886 0.33518264304 0.33562522063 0.33597977287 0.33131368159 0.33338987528 0.33277890694 
0.33334838725 0.30105179813 0.37939364514 0.33119737171 0.33156812942 0.32504529378 0.37445815694 0.34351216605 0.37733698009 
0.34357644133 0.34550170661 0.32800150525 0.33331579176 0.33219119172 0.28586935459 0.32654699142 0.33026190131 0.3278789953 
0.3320732703 0.33493474886 0.40465688443 0.33566754009 0.26607211118 0.34025280834 0.3297533322 0.33111361548 0.33385992785 
0.33985681373 0.2716463697 0.33269544387 0.32852368675 0.33434934532 0.34223359424 0.27511312683 0.30469986669 0.35395072487 
0.36561239247 0.33180259068 0.33544567158 0.28864094798 0.3692828891 0.33402693564 0.3111679857 0.33868245783 0.3163694637 
0.33152904099 0.25752641063 0.30794867512 0.32219548751 0.33443478376 0.2955730503 0.35455338462 0.32953749854 0.27340569735 
0.30318988937 0.31075179384 0.3240555033 0.33235064291 0.29349720069 0.33376299354 0.32838499301 0.35515559139 
